 vasp.5.4.4.18Apr17-6-g9f103f2a35 (build Aug 16 2020 16:33:06) complex          
  
 executed on             LinuxIFC date 2026.08.15  15:08:57
 running on   40 total cores
 distrk:  each k-point on   40 cores,    1 groups
 distr:  one band on NCORES_PER_BAND=  20 cores,    2 groups


--------------------------------------------------------------------------------------------------------


 INCAR:
 POTCAR:   PAW_PBE Si 05Jan2001                   

 ----------------------------------------------------------------------------- 
|                                                                             |
|           W    W    AA    RRRRR   N    N  II  N    N   GGGG   !!!           |
|           W    W   A  A   R    R  NN   N  II  NN   N  G    G  !!!           |
|           W    W  A    A  R    R  N N  N  II  N N  N  G       !!!           |
|           W WW W  AAAAAA  RRRRR   N  N N  II  N  N N  G  GGG   !            |
|           WW  WW  A    A  R   R   N   NN  II  N   NN  G    G                |
|           W    W  A    A  R    R  N    N  II  N    N   GGGG   !!!           |
|                                                                             |
|      For optimal performance we recommend to set                            |
|        NCORE= 4 - approx SQRT( number of cores)                             |
|      NCORE specifies how many cores store one orbital (NPAR=cpu/NCORE).     |
|      This setting can  greatly improve the performance of VASP for DFT.     |
|      The default,   NCORE=1            might be grossly inefficient         |
|      on modern multi-core architectures or massively parallel machines.     |
|      Do your own testing !!!!                                               |
|      Unfortunately you need to use the default for GW and RPA calculations. |
|      (for HF NCORE is supported but not extensively tested yet)             |
|                                                                             |
 ----------------------------------------------------------------------------- 

 POTCAR:   PAW_PBE Si 05Jan2001                   
   VRHFIN =Si: s2p2                                                             
   LEXCH  = PE                                                                  
   EATOM  =   103.0669 eV,    7.5752 Ry                                         
                                                                                
   TITEL  = PAW_PBE Si 05Jan2001                                                
   LULTRA =        F    use ultrasoft PP ?                                      
   IUNSCR =        1    unscreen: 0-lin 1-nonlin 2-no                           
   RPACOR =    1.500    partial core radius                                     
   POMASS =   28.085; ZVAL   =    4.000    mass and valenz                      
   RCORE  =    1.900    outmost cutoff radius                                   
   RWIGS  =    2.480; RWIGS  =    1.312    wigner-seitz radius (au A)           
   ENMAX  =  245.345; ENMIN  =  184.009 eV                                      
   ICORE  =        2    local potential                                         
   LCOR   =        T    correct aug charges                                     
   LPAW   =        T    paw PP                                                  
   EAUG   =  322.069                                                            
   DEXC   =    -.007                                                            
   RMAX   =    2.944    core radius for proj-oper                               
   RAUG   =    1.300    factor for augmentation sphere                          
   RDEP   =    1.993    radius for radial grids                                 
   QCUT   =   -4.246; QGAM   =    8.493    optimization parameters              
                                                                                
   Description                                                                  
     l     E      TYP  RCUT    TYP  RCUT                                        
     0   .000     23  1.900                                                     
     0   .000     23  1.900                                                     
     1   .000     23  1.900                                                     
     1   .000     23  1.900                                                     
     2   .000      7  1.900                                                     
  local pseudopotential read in
  partial core-charges read in
  atomic valenz-charges read in
  non local Contribution for L=           0  read in
    real space projection operators read in
  non local Contribution for L=           0  read in
    real space projection operators read in
  non local Contribution for L=           1  read in
    real space projection operators read in
  non local Contribution for L=           1  read in
    real space projection operators read in
    PAW grid and wavefunctions read in
 
   number of l-projection  operators is LMAX  =           4
   number of lm-projection operators is LMMAX =           8
 

 ----------------------------------------------------------------------------- 
|                                                                             |
|  ADVICE TO THIS USER RUNNING 'VASP/VAMP'   (HEAR YOUR MASTER'S VOICE ...):  |
|                                                                             |
|      You have a (more or less) 'large supercell' and for larger cells       |
|      it might be more efficient to use real space projection operators      |
|      So try LREAL= Auto  in the INCAR   file.                               |
|      Mind: If you want to do a very accurate calculations keep the          |
|      reciprocal projection scheme          (i.e. LREAL=.FALSE.)             |
|                                                                             |
 ----------------------------------------------------------------------------- 

 PAW_PBE Si 05Jan2001                   :
 energy of atom  1       EATOM= -103.0669
 kinetic energy error for atom=    0.0006 (will be added to EATOM!!)
 
 
 POSCAR: Si                                      
  positions in direct lattice
  No initial velocities read in
 exchange correlation table for  LEXCH =        8
   RHO(1)=    0.500       N(1)  =     2000
   RHO(2)=  100.500       N(2)  =     4000
 


--------------------------------------------------------------------------------------------------------


 ion  position               nearest neighbor table
   1  0.062  0.062  0.063-  34 2.36   2 2.36  10 2.37   4 2.37
   2  0.000  0.000  0.000-   1 2.36   7 2.37  25 2.37  97 2.37
   3  0.312  0.062  0.062-   4 2.37  12 2.37  36 2.37   6 2.37
   4  0.250  0.000  0.000-   3 2.37  27 2.37  99 2.37   1 2.37
   5  0.562  0.062  0.062-   6 2.36   8 2.37  14 2.37  38 2.37
   6  0.500  0.000  1.000- 101 2.36   5 2.36  29 2.37   3 2.37
   7  0.812  0.062  0.062-   2 2.37   8 2.37  16 2.37  40 2.37
   8  0.750  0.000  0.000-   5 2.37   7 2.37  31 2.37 103 2.37
   9  0.062  0.312  0.062-  10 2.37  12 2.37  18 2.37  42 2.37
  10  0.000  0.250  0.000-   9 2.37  15 2.37 105 2.37   1 2.37
  11  0.312  0.312  0.062-  12 2.37  14 2.37  20 2.37  44 2.37
  12  0.250  0.250  0.000-   3 2.37   9 2.37  11 2.37 107 2.37
  13  0.562  0.312  0.062-  14 2.37  16 2.37  22 2.37  46 2.37
  14  0.500  0.250  0.000-   5 2.37  11 2.37  13 2.37 109 2.37
  15  0.812  0.312  0.062-  10 2.37  16 2.37  24 2.37  48 2.37
  16  0.750  0.250  0.000-   7 2.37  13 2.37  15 2.37 111 2.37
  17  0.062  0.562  0.062-  18 2.37  20 2.37  26 2.37  50 2.37
  18  0.000  0.500  0.000-   9 2.37  17 2.37  23 2.37 113 2.37
  19  0.312  0.562  0.062-  20 2.37  22 2.37  28 2.37  52 2.37
  20  0.250  0.500  0.000-  11 2.37  17 2.37  19 2.37 115 2.37
  21  0.562  0.562  0.062-  22 2.37  24 2.37  30 2.37  54 2.37
  22  0.500  0.500  0.000-  13 2.37  19 2.37  21 2.37 117 2.37
  23  0.812  0.562  0.062-  18 2.37  24 2.37  32 2.37  56 2.37
  24  0.750  0.500  0.000-  15 2.37  21 2.37  23 2.37 119 2.37
  25  0.062  0.812  0.062-   2 2.37  26 2.37  28 2.37  58 2.37
  26  0.000  0.750  0.000-  17 2.37  25 2.37  31 2.37 121 2.37
  27  0.312  0.812  0.062-   4 2.37  28 2.37  30 2.37  60 2.37
  28  0.250  0.750  0.000-  19 2.37  25 2.37  27 2.37 123 2.37
  29  0.562  0.812  0.062-  30 2.37  32 2.37  62 2.37   6 2.37
  30  0.500  0.750  0.000-  21 2.37  27 2.37  29 2.37 125 2.37
  31  0.812  0.812  0.062-   8 2.37  26 2.37  32 2.37  64 2.37
  32  0.750  0.750  0.000-  23 2.37  29 2.37  31 2.37 127 2.37
  33  0.062  0.062  0.312-  34 2.37  36 2.37  42 2.37  66 2.37
  34  0.000  0.000  0.250-   1 2.36  33 2.37  39 2.37  57 2.37
  35  0.312  0.062  0.312-  36 2.37  38 2.37  44 2.37  68 2.37
  36  0.250  0.000  0.250-   3 2.37  33 2.37  35 2.37  59 2.37
  37  0.562  0.062  0.312-  38 2.37  40 2.37  46 2.37  70 2.37
  38  0.500  0.000  0.250-   5 2.37  35 2.37  37 2.37  61 2.37
  39  0.812  0.062  0.312-  34 2.37  40 2.37  48 2.37  72 2.37
  40  0.750  0.000  0.250-   7 2.37  37 2.37  39 2.37  63 2.37
  41  0.062  0.312  0.312-  42 2.37  44 2.37  50 2.37  74 2.37
  42  0.000  0.250  0.250-   9 2.37  33 2.37  41 2.37  47 2.37
  43  0.312  0.312  0.312-  44 2.37  46 2.37  52 2.37  76 2.37
  44  0.250  0.250  0.250-  11 2.37  35 2.37  41 2.37  43 2.37
  45  0.562  0.312  0.312-  46 2.37  48 2.37  54 2.37  78 2.37
  46  0.500  0.250  0.250-  13 2.37  37 2.37  43 2.37  45 2.37
  47  0.812  0.312  0.312-  42 2.37  48 2.37  56 2.37  80 2.37
  48  0.750  0.250  0.250-  15 2.37  39 2.37  45 2.37  47 2.37
  49  0.062  0.562  0.312-  50 2.37  52 2.37  58 2.37  82 2.37
  50  0.000  0.500  0.250-  17 2.37  41 2.37  49 2.37  55 2.37
  51  0.312  0.562  0.312-  52 2.37  54 2.37  60 2.37  84 2.37
  52  0.250  0.500  0.250-  19 2.37  43 2.37  49 2.37  51 2.37
  53  0.562  0.562  0.312-  54 2.37  56 2.37  62 2.37  86 2.37
  54  0.500  0.500  0.250-  21 2.37  45 2.37  51 2.37  53 2.37
  55  0.812  0.562  0.312-  50 2.37  56 2.37  64 2.37  88 2.37
  56  0.750  0.500  0.250-  23 2.37  47 2.37  53 2.37  55 2.37
  57  0.062  0.812  0.312-  34 2.37  58 2.37  60 2.37  90 2.37
  58  0.000  0.750  0.250-  25 2.37  49 2.37  57 2.37  63 2.37
  59  0.312  0.812  0.312-  36 2.37  60 2.37  62 2.37  92 2.37
  60  0.250  0.750  0.250-  27 2.37  51 2.37  57 2.37  59 2.37
  61  0.562  0.812  0.312-  38 2.37  62 2.37  64 2.37  94 2.37
  62  0.500  0.750  0.250-  29 2.37  53 2.37  59 2.37  61 2.37
  63  0.812  0.812  0.312-  40 2.37  58 2.37  64 2.37  96 2.37
  64  0.750  0.750  0.250-  31 2.37  55 2.37  61 2.37  63 2.37
  65  0.062  0.062  0.562-  66 2.37  68 2.37  74 2.37  98 2.37
  66  0.000  0.000  0.500-  33 2.37  65 2.37  71 2.37  89 2.37
  67  0.312  0.062  0.562-  68 2.37  70 2.37  76 2.37 100 2.37
  68  0.250  0.000  0.500-  35 2.37  65 2.37  67 2.37  91 2.37
  69  0.562  0.062  0.562-  70 2.37  72 2.37  78 2.37 102 2.37
  70  0.500  0.000  0.500-  37 2.37  67 2.37  69 2.37  93 2.37
  71  0.812  0.062  0.562-  66 2.37  72 2.37  80 2.37 104 2.37
  72  0.750  0.000  0.500-  39 2.37  69 2.37  71 2.37  95 2.37
  73  0.062  0.312  0.562-  74 2.37  76 2.37  82 2.37 106 2.37
  74  0.000  0.250  0.500-  41 2.37  65 2.37  73 2.37  79 2.37
  75  0.312  0.312  0.562-  76 2.37  78 2.37  84 2.37 108 2.37
  76  0.250  0.250  0.500-  43 2.37  67 2.37  73 2.37  75 2.37
  77  0.562  0.312  0.562-  78 2.37  80 2.37  86 2.37 110 2.37
  78  0.500  0.250  0.500-  45 2.37  69 2.37  75 2.37  77 2.37
  79  0.812  0.312  0.562-  74 2.37  80 2.37  88 2.37 112 2.37
  80  0.750  0.250  0.500-  47 2.37  71 2.37  77 2.37  79 2.37
  81  0.062  0.562  0.562-  82 2.37  84 2.37  90 2.37 114 2.37
  82  0.000  0.500  0.500-  49 2.37  73 2.37  81 2.37  87 2.37
  83  0.312  0.562  0.562-  84 2.37  86 2.37  92 2.37 116 2.37
  84  0.250  0.500  0.500-  51 2.37  75 2.37  81 2.37  83 2.37
  85  0.562  0.562  0.562-  86 2.37  88 2.37  94 2.37 118 2.37
  86  0.500  0.500  0.500-  53 2.37  77 2.37  83 2.37  85 2.37
  87  0.812  0.562  0.562-  82 2.37  88 2.37  96 2.37 120 2.37
  88  0.750  0.500  0.500-  55 2.37  79 2.37  85 2.37  87 2.37
  89  0.062  0.812  0.562-  66 2.37  90 2.37  92 2.37 122 2.37
  90  0.000  0.750  0.500-  57 2.37  81 2.37  89 2.37  95 2.37
  91  0.312  0.812  0.562-  68 2.37  92 2.37  94 2.37 124 2.37
  92  0.250  0.750  0.500-  59 2.37  83 2.37  89 2.37  91 2.37
  93  0.562  0.812  0.562-  70 2.37  94 2.37  96 2.37 126 2.37
  94  0.500  0.750  0.500-  61 2.37  85 2.37  91 2.37  93 2.37
  95  0.812  0.812  0.562-  72 2.37  90 2.37  96 2.37 128 2.37
  96  0.750  0.750  0.500-  63 2.37  87 2.37  93 2.37  95 2.37
  97  0.062  0.062  0.812-   2 2.37  98 2.37 100 2.37 106 2.37
  98  0.000  0.000  0.750-  65 2.37  97 2.37 103 2.37 121 2.37
  99  0.312  0.062  0.812-   4 2.37 100 2.37 102 2.37 108 2.37
 100  0.250  0.000  0.750-  67 2.37  97 2.37  99 2.37 123 2.37
 101  0.562  0.062  0.812-   6 2.36 102 2.37 104 2.37 110 2.37
 102  0.500  0.000  0.750-  69 2.37  99 2.37 101 2.37 125 2.37
 103  0.812  0.062  0.812-   8 2.37  98 2.37 104 2.37 112 2.37
 104  0.750  0.000  0.750-  71 2.37 101 2.37 103 2.37 127 2.37
 105  0.062  0.312  0.812-  10 2.37 106 2.37 108 2.37 114 2.37
 106  0.000  0.250  0.750-  73 2.37  97 2.37 105 2.37 111 2.37
 107  0.312  0.312  0.812-  12 2.37 108 2.37 110 2.37 116 2.37
 108  0.250  0.250  0.750-  75 2.37  99 2.37 105 2.37 107 2.37
 109  0.562  0.312  0.812-  14 2.37 110 2.37 112 2.37 118 2.37
 110  0.500  0.250  0.750-  77 2.37 101 2.37 107 2.37 109 2.37
 111  0.812  0.312  0.812-  16 2.37 106 2.37 112 2.37 120 2.37
 112  0.750  0.250  0.750-  79 2.37 103 2.37 109 2.37 111 2.37
 113  0.062  0.562  0.812-  18 2.37 114 2.37 116 2.37 122 2.37
 114  0.000  0.500  0.750-  81 2.37 105 2.37 113 2.37 119 2.37
 115  0.312  0.562  0.812-  20 2.37 116 2.37 118 2.37 124 2.37
 116  0.250  0.500  0.750-  83 2.37 107 2.37 113 2.37 115 2.37
 117  0.562  0.562  0.812-  22 2.37 118 2.37 120 2.37 126 2.37
 118  0.500  0.500  0.750-  85 2.37 109 2.37 115 2.37 117 2.37
 119  0.812  0.562  0.812-  24 2.37 114 2.37 120 2.37 128 2.37
 120  0.750  0.500  0.750-  87 2.37 111 2.37 117 2.37 119 2.37
 121  0.062  0.812  0.812-  26 2.37  98 2.37 122 2.37 124 2.37
 122  0.000  0.750  0.750-  89 2.37 113 2.37 121 2.37 127 2.37
 123  0.312  0.812  0.812-  28 2.37 100 2.37 124 2.37 126 2.37
 124  0.250  0.750  0.750-  91 2.37 115 2.37 121 2.37 123 2.37
 125  0.562  0.812  0.812-  30 2.37 102 2.37 126 2.37 128 2.37
 126  0.500  0.750  0.750-  93 2.37 117 2.37 123 2.37 125 2.37
 127  0.812  0.812  0.812-  32 2.37 104 2.37 122 2.37 128 2.37
 128  0.750  0.750  0.750-  95 2.37 119 2.37 125 2.37 127 2.37
 

IMPORTANT INFORMATION: All symmetrisations will be switched off!
NOSYMM: (Re-)initialisation of all symmetry stuff for point group C_1.

 
 
 KPOINTS: K-Spacing Value to Generate K-Mesh: 0.03

Automatic generation of k-mesh.
Space group operators:
 irot       det(A)        alpha          n_x          n_y          n_z        tau_x        tau_y        tau_z
    1     1.000000     0.000000     1.000000     0.000000     0.000000     0.000000     0.000000     0.000000
 
 Subroutine IBZKPT returns following result:
 ===========================================
 
 Found      1 irreducible k-points:
 
 Following reciprocal coordinates:
            Coordinates               Weight
  0.000000  0.000000  0.000000      1.000000
 
 Following cartesian coordinates:
            Coordinates               Weight
  0.000000  0.000000  0.000000      1.000000
 


--------------------------------------------------------------------------------------------------------




 Dimension of arrays:
   k-points           NKPTS =      1   k-points in BZ     NKDIM =      1   number of bands    NBANDS=    322
   number of dos      NEDOS =    301   number of ions     NIONS =    128
   non local maximal  LDIM  =      4   non local SUM 2l+1 LMDIM =      8
   total plane-waves  NPLWV = ******
   max r-space proj   IRMAX =      1   max aug-charges    IRDMAX= 176819
   dimension x,y,z NGX =   120 NGY =  120 NGZ =  120
   dimension x,y,z NGXF=   240 NGYF=  240 NGZF=  240
   support grid    NGXF=   480 NGYF=  480 NGZF=  480
   ions per type =             128
   NGX,Y,Z   is equivalent  to a cutoff of  12.90, 12.90, 12.90 a.u.
   NGXF,Y,Z  is equivalent  to a cutoff of  25.80, 25.80, 25.80 a.u.

 SYSTEM =  unknown system                          
 POSCAR =  Si                                      

 Startparameter for this run:
   NWRITE =      2    write-flag & timer
   PREC   = accura    normal or accurate (medium, high low for compatibility)
   ISTART =      0    job   : 0-new  1-cont  2-samecut
   ICHARG =      2    charge: 1-file 2-atom 10-const
   ISPIN  =      1    spin polarized calculation?
   LNONCOLLINEAR =      F non collinear calculations
   LSORBIT =      F    spin-orbit coupling
   INIWAV =      1    electr: 0-lowe 1-rand  2-diag
   LASPH  =      F    aspherical Exc in radial PAW
   METAGGA=      F    non-selfconsistent MetaGGA calc.

 Electronic Relaxation 1
   ENCUT  =  500.0 eV  36.75 Ry    6.06 a.u.  28.20 28.20 28.20*2*pi/ulx,y,z
   ENINI  =  500.0     initial cutoff
   ENAUG  =  322.1 eV  augmentation charge cutoff
   NELM   =     60;   NELMIN=  2; NELMDL= -5     # of ELM steps 
   EDIFF  = 0.1E-07   stopping-criterion for ELM
   LREAL  =      F    real-space projection
   NLSPLINE    = F    spline interpolate recip. space projectors
   LCOMPAT=      F    compatible to vasp.4.4
   GGA_COMPAT  = T    GGA compatible to vasp.4.4-vasp.4.6
   LMAXPAW     = -100 max onsite density
   LMAXMIX     =    2 max onsite mixed and CHGCAR
   VOSKOWN=      0    Vosko Wilk Nusair interpolation
   ROPT   =    0.00000
 Ionic relaxation
   EDIFFG = 0.1E-06   stopping-criterion for IOM
   NSW    =      0    number of steps for IOM
   NBLOCK =      1;   KBLOCK =      1    inner block; outer block 
   IBRION =     -1    ionic relax: 0-MD 1-quasi-New 2-CG
   NFREE  =      0    steps in history (QN), initial steepest desc. (CG)
   ISIF   =      2    stress and relaxation
   IWAVPR =     10    prediction:  0-non 1-charg 2-wave 3-comb
   ISYM   =      0    0-nonsym 1-usesym 2-fastsym
   LCORR  =      T    Harris-Foulkes like correction to forces

   POTIM  = 0.5000    time-step for ionic-motion
   TEIN   =    0.0    initial temperature
   TEBEG  =    0.0;   TEEND  =   0.0 temperature during run
   SMASS  =  -3.00    Nose mass-parameter (am)
   estimated Nose-frequenzy (Omega)   =  0.10E-29 period in steps =****** mass=  -0.547E-26a.u.
   SCALEE = 1.0000    scale energy and forces
   NPACO  =    256;   APACO  = 16.0  distance and # of slots for P.C.
   PSTRESS=    0.0 pullay stress

  Mass of Ions in am
   POMASS =  28.09
  Ionic Valenz
   ZVAL   =   4.00
  Atomic Wigner-Seitz radii
   RWIGS  =  -1.00
  virtual crystal weights 
   VCA    =   1.00
   NELECT =     512.0000    total number of electrons
   NUPDOWN=      -1.0000    fix difference up-down

 DOS related values:
   EMIN   =  10.00;   EMAX   =-10.00  energy-range for DOS
   EFERMI =   0.00
   ISMEAR =     0;   SIGMA  =   0.05  broadening in eV -4-tet -1-fermi 0-gaus

 Electronic relaxation 2 (details)
   IALGO  =     38    algorithm
   LDIAG  =      T    sub-space diagonalisation (order eigenvalues)
   LSUBROT=      F    optimize rotation matrix (better conditioning)
   TURBO    =      0    0=normal 1=particle mesh
   IRESTART =      0    0=no restart 2=restart with 2 vectors
   NREBOOT  =      0    no. of reboots
   NMIN     =      0    reboot dimension
   EREF     =   0.00    reference energy to select bands
   IMIX   =      4    mixing-type and parameters
     AMIX     =   0.40;   BMIX     =  1.00
     AMIX_MAG =   1.60;   BMIX_MAG =  1.00
     AMIN     =   0.10
     WC   =   100.;   INIMIX=   1;  MIXPRE=   1;  MAXMIX= -45

 Intra band minimization:
   WEIMIN = 0.0000     energy-eigenvalue tresh-hold
   EBREAK =  0.78E-11  absolut break condition
   DEPER  =   0.30     relativ break condition  

   TIME   =   0.40     timestep for ELM

  volume/ion in A,a.u.               =      20.44       137.95
  Fermi-wavevector in a.u.,A,eV,Ry     =   0.950423  1.796039 12.290193  0.903304
  Thomas-Fermi vector in A             =   2.078798
 
 Write flags
   LWAVE        =      F    write WAVECAR
   LDOWNSAMPLE  =      F    k-point downsampling of WAVECAR
   LCHARG       =      F    write CHGCAR
   LVTOT        =      F    write LOCPOT, total local potential
   LVHAR        =      F    write LOCPOT, Hartree potential only
   LELF         =      F    write electronic localiz. function (ELF)
   LORBIT       =      0    0 simple, 1 ext, 2 COOP (PROOUT), +10 PAW based schemes


 Dipole corrections
   LMONO  =      F    monopole corrections only (constant potential shift)
   LDIPOL =      F    correct potential (dipole corrections)
   IDIPOL =      0    1-x, 2-y, 3-z, 4-all directions 
   EPSILON=  1.0000000 bulk dielectric constant

 Exchange correlation treatment:
   GGA     =    --    GGA type
   LEXCH   =     8    internal setting for exchange type
   VOSKOWN=      0    Vosko Wilk Nusair interpolation
   LHFCALC =     F    Hartree Fock is set to
   LHFONE  =     F    Hartree Fock one center treatment
   AEXX    =    0.0000 exact exchange contribution

 Linear response parameters
   LEPSILON=     F    determine dielectric tensor
   LRPA    =     F    only Hartree local field effects (RPA)
   LNABLA  =     F    use nabla operator in PAW spheres
   LVEL    =     F    velocity operator in full k-point grid
   LINTERFAST=   F  fast interpolation
   KINTER  =     0    interpolate to denser k-point grid
   CSHIFT  =0.1000    complex shift for real part using Kramers Kronig
   OMEGAMAX=  -1.0    maximum frequency
   DEG_THRESHOLD= 0.2000000E-02 threshold for treating states as degnerate
   RTIME   =   -0.100 relaxation time in fs
  (WPLASMAI=    0.000 imaginary part of plasma frequency in eV, 0.658/RTIME)
   DFIELD  = 0.0000000 0.0000000 0.0000000 field for delta impulse in time
 
 Orbital magnetization related:
   ORBITALMAG=     F  switch on orbital magnetization
   LCHIMAG   =     F  perturbation theory with respect to B field
   DQ        =  0.001000  dq finite difference perturbation B field
   LLRAUG    =     F  two centre corrections for induced B field



--------------------------------------------------------------------------------------------------------


 Static calculation
 charge density and potential will be updated during run
 non-spin polarized calculation
 Variant of blocked Davidson
 Davidson routine will perform the subspace rotation
 perform sub-space diagonalisation
    after iterative eigenvector-optimisation
 modified Broyden-mixing scheme, WC =      100.0
 initial mixing is a Kerker type mixing with AMIX =  0.4000 and BMIX =      1.0000
 Hartree-type preconditioning will be used
 using additional bands           66
 reciprocal scheme for non local part
 use partial core corrections
 calculate Harris-corrections to forces 
   (improved forces if not selfconsistent)
 use gradient corrections 
 use of overlap-Matrix (Vanderbilt PP)
 Gauss-broadening in eV      SIGMA  =   0.05


--------------------------------------------------------------------------------------------------------


  energy-cutoff  :      500.00
  volume of cell :     2616.64
      direct lattice vectors                 reciprocal lattice vectors
     0.000000000 10.937160696 10.937160696    -0.045715704  0.045715704  0.045715704
    10.937160696  0.000000000 10.937160696     0.045715704 -0.045715704  0.045715704
    10.937160696 10.937160696  0.000000000     0.045715704  0.045715704 -0.045715704

  length of vectors
    15.467480990 15.467480990 15.467480990     0.079181922  0.079181922  0.079181922


 
 k-points in units of 2pi/SCALE and weight: K-Spacing Value to Generate K-Mesh: 0.03
   0.00000000  0.00000000  0.00000000       1.000
 
 k-points in reciprocal lattice and weights: K-Spacing Value to Generate K-Mesh: 0.03
   0.00000000  0.00000000  0.00000000       1.000
 
 position of ions in fractional coordinates (direct lattice) 
   0.06204284  0.06204284  0.06295716
   0.00000000  0.00000000  0.00000000
   0.31250000  0.06250000  0.06250000
   0.25000000  0.00000000  0.00000000
   0.56250000  0.06250000  0.06250000
   0.50045716  0.00045716  0.99954284
   0.81250000  0.06250000  0.06250000
   0.75000000  0.00000000  0.00000000
   0.06250000  0.31250000  0.06250000
   0.00000000  0.25000000  0.00000000
   0.31250000  0.31250000  0.06250000
   0.25000000  0.25000000  0.00000000
   0.56250000  0.31250000  0.06250000
   0.50000000  0.25000000  0.00000000
   0.81250000  0.31250000  0.06250000
   0.75000000  0.25000000  0.00000000
   0.06250000  0.56250000  0.06250000
   0.00000000  0.50000000  0.00000000
   0.31250000  0.56250000  0.06250000
   0.25000000  0.50000000  0.00000000
   0.56250000  0.56250000  0.06250000
   0.50000000  0.50000000  0.00000000
   0.81250000  0.56250000  0.06250000
   0.75000000  0.50000000  0.00000000
   0.06250000  0.81250000  0.06250000
   0.00000000  0.75000000  0.00000000
   0.31250000  0.81250000  0.06250000
   0.25000000  0.75000000  0.00000000
   0.56250000  0.81250000  0.06250000
   0.50000000  0.75000000  0.00000000
   0.81250000  0.81250000  0.06250000
   0.75000000  0.75000000  0.00000000
   0.06250000  0.06250000  0.31250000
   0.00000000  0.00000000  0.25000000
   0.31250000  0.06250000  0.31250000
   0.25000000  0.00000000  0.25000000
   0.56250000  0.06250000  0.31250000
   0.50000000  0.00000000  0.25000000
   0.81250000  0.06250000  0.31250000
   0.75000000  0.00000000  0.25000000
   0.06250000  0.31250000  0.31250000
   0.00000000  0.25000000  0.25000000
   0.31250000  0.31250000  0.31250000
   0.25000000  0.25000000  0.25000000
   0.56250000  0.31250000  0.31250000
   0.50000000  0.25000000  0.25000000
   0.81250000  0.31250000  0.31250000
   0.75000000  0.25000000  0.25000000
   0.06250000  0.56250000  0.31250000
   0.00000000  0.50000000  0.25000000
   0.31250000  0.56250000  0.31250000
   0.25000000  0.50000000  0.25000000
   0.56250000  0.56250000  0.31250000
   0.50000000  0.50000000  0.25000000
   0.81250000  0.56250000  0.31250000
   0.75000000  0.50000000  0.25000000
   0.06250000  0.81250000  0.31250000
   0.00000000  0.75000000  0.25000000
   0.31250000  0.81250000  0.31250000
   0.25000000  0.75000000  0.25000000
   0.56250000  0.81250000  0.31250000
   0.50000000  0.75000000  0.25000000
   0.81250000  0.81250000  0.31250000
   0.75000000  0.75000000  0.25000000
   0.06250000  0.06250000  0.56250000
   0.00000000  0.00000000  0.50000000
   0.31250000  0.06250000  0.56250000
   0.25000000  0.00000000  0.50000000
   0.56250000  0.06250000  0.56250000
   0.50000000  0.00000000  0.50000000
   0.81250000  0.06250000  0.56250000
   0.75000000  0.00000000  0.50000000
   0.06250000  0.31250000  0.56250000
   0.00000000  0.25000000  0.50000000
   0.31250000  0.31250000  0.56250000
   0.25000000  0.25000000  0.50000000
   0.56250000  0.31250000  0.56250000
   0.50000000  0.25000000  0.50000000
   0.81250000  0.31250000  0.56250000
   0.75000000  0.25000000  0.50000000
   0.06250000  0.56250000  0.56250000
   0.00000000  0.50000000  0.50000000
   0.31250000  0.56250000  0.56250000
   0.25000000  0.50000000  0.50000000
   0.56250000  0.56250000  0.56250000
   0.50000000  0.50000000  0.50000000
   0.81250000  0.56250000  0.56250000
   0.75000000  0.50000000  0.50000000
   0.06250000  0.81250000  0.56250000
   0.00000000  0.75000000  0.50000000
   0.31250000  0.81250000  0.56250000
   0.25000000  0.75000000  0.50000000
   0.56250000  0.81250000  0.56250000
   0.50000000  0.75000000  0.50000000
   0.81250000  0.81250000  0.56250000
   0.75000000  0.75000000  0.50000000
   0.06250000  0.06250000  0.81250000
   0.00000000  0.00000000  0.75000000
   0.31250000  0.06250000  0.81250000
   0.25000000  0.00000000  0.75000000
   0.56250000  0.06250000  0.81250000
   0.50000000  0.00000000  0.75000000
   0.81250000  0.06250000  0.81250000
   0.75000000  0.00000000  0.75000000
   0.06250000  0.31250000  0.81250000
   0.00000000  0.25000000  0.75000000
   0.31250000  0.31250000  0.81250000
   0.25000000  0.25000000  0.75000000
   0.56250000  0.31250000  0.81250000
   0.50000000  0.25000000  0.75000000
   0.81250000  0.31250000  0.81250000
   0.75000000  0.25000000  0.75000000
   0.06250000  0.56250000  0.81250000
   0.00000000  0.50000000  0.75000000
   0.31250000  0.56250000  0.81250000
   0.25000000  0.50000000  0.75000000
   0.56250000  0.56250000  0.81250000
   0.50000000  0.50000000  0.75000000
   0.81250000  0.56250000  0.81250000
   0.75000000  0.50000000  0.75000000
   0.06250000  0.81250000  0.81250000
   0.00000000  0.75000000  0.75000000
   0.31250000  0.81250000  0.81250000
   0.25000000  0.75000000  0.75000000
   0.56250000  0.81250000  0.81250000
   0.50000000  0.75000000  0.75000000
   0.81250000  0.81250000  0.81250000
   0.75000000  0.75000000  0.75000000
 
 position of ions in cartesian coordinates  (Angst):
   1.36714509  1.36714509  1.35714509
   0.00000000  0.00000000  0.00000000
   1.36714509  4.10143526  4.10143526
   0.00000000  2.73429017  2.73429017
   1.36714509  6.83572544  6.83572544
  10.93716070 16.40574104  5.47858035
   1.36714509  9.57001561  9.57001561
   0.00000000  8.20287052  8.20287052
   4.10143526  1.36714509  4.10143526
   2.73429017  0.00000000  2.73429017
   4.10143526  4.10143526  6.83572544
   2.73429017  2.73429017  5.46858035
   4.10143526  6.83572544  9.57001561
   2.73429017  5.46858035  8.20287052
   4.10143526  9.57001561 12.30430578
   2.73429017  8.20287052 10.93716070
   6.83572544  1.36714509  6.83572544
   5.46858035  0.00000000  5.46858035
   6.83572544  4.10143526  9.57001561
   5.46858035  2.73429017  8.20287052
   6.83572544  6.83572544 12.30430578
   5.46858035  5.46858035 10.93716070
   6.83572544  9.57001561 15.03859596
   5.46858035  8.20287052 13.67145087
   9.57001561  1.36714509  9.57001561
   8.20287052  0.00000000  8.20287052
   9.57001561  4.10143526 12.30430578
   8.20287052  2.73429017 10.93716070
   9.57001561  6.83572544 15.03859596
   8.20287052  5.46858035 13.67145087
   9.57001561  9.57001561 17.77288613
   8.20287052  8.20287052 16.40574104
   4.10143526  4.10143526  1.36714509
   2.73429017  2.73429017  0.00000000
   4.10143526  6.83572544  4.10143526
   2.73429017  5.46858035  2.73429017
   4.10143526  9.57001561  6.83572544
   2.73429017  8.20287052  5.46858035
   4.10143526 12.30430578  9.57001561
   2.73429017 10.93716070  8.20287052
   6.83572544  4.10143526  4.10143526
   5.46858035  2.73429017  2.73429017
   6.83572544  6.83572544  6.83572544
   5.46858035  5.46858035  5.46858035
   6.83572544  9.57001561  9.57001561
   5.46858035  8.20287052  8.20287052
   6.83572544 12.30430578 12.30430578
   5.46858035 10.93716070 10.93716070
   9.57001561  4.10143526  6.83572544
   8.20287052  2.73429017  5.46858035
   9.57001561  6.83572544  9.57001561
   8.20287052  5.46858035  8.20287052
   9.57001561  9.57001561 12.30430578
   8.20287052  8.20287052 10.93716070
   9.57001561 12.30430578 15.03859596
   8.20287052 10.93716070 13.67145087
  12.30430578  4.10143526  9.57001561
  10.93716070  2.73429017  8.20287052
  12.30430578  6.83572544 12.30430578
  10.93716070  5.46858035 10.93716070
  12.30430578  9.57001561 15.03859596
  10.93716070  8.20287052 13.67145087
  12.30430578 12.30430578 17.77288613
  10.93716070 10.93716070 16.40574104
   6.83572544  6.83572544  1.36714509
   5.46858035  5.46858035  0.00000000
   6.83572544  9.57001561  4.10143526
   5.46858035  8.20287052  2.73429017
   6.83572544 12.30430578  6.83572544
   5.46858035 10.93716070  5.46858035
   6.83572544 15.03859596  9.57001561
   5.46858035 13.67145087  8.20287052
   9.57001561  6.83572544  4.10143526
   8.20287052  5.46858035  2.73429017
   9.57001561  9.57001561  6.83572544
   8.20287052  8.20287052  5.46858035
   9.57001561 12.30430578  9.57001561
   8.20287052 10.93716070  8.20287052
   9.57001561 15.03859596 12.30430578
   8.20287052 13.67145087 10.93716070
  12.30430578  6.83572544  6.83572544
  10.93716070  5.46858035  5.46858035
  12.30430578  9.57001561  9.57001561
  10.93716070  8.20287052  8.20287052
  12.30430578 12.30430578 12.30430578
  10.93716070 10.93716070 10.93716070
  12.30430578 15.03859596 15.03859596
  10.93716070 13.67145087 13.67145087
  15.03859596  6.83572544  9.57001561
  13.67145087  5.46858035  8.20287052
  15.03859596  9.57001561 12.30430578
  13.67145087  8.20287052 10.93716070
  15.03859596 12.30430578 15.03859596
  13.67145087 10.93716070 13.67145087
  15.03859596 15.03859596 17.77288613
  13.67145087 13.67145087 16.40574104
   9.57001561  9.57001561  1.36714509
   8.20287052  8.20287052  0.00000000
   9.57001561 12.30430578  4.10143526
   8.20287052 10.93716070  2.73429017
   9.57001561 15.03859596  6.83572544
   8.20287052 13.67145087  5.46858035
   9.57001561 17.77288613  9.57001561
   8.20287052 16.40574104  8.20287052
  12.30430578  9.57001561  4.10143526
  10.93716070  8.20287052  2.73429017
  12.30430578 12.30430578  6.83572544
  10.93716070 10.93716070  5.46858035
  12.30430578 15.03859596  9.57001561
  10.93716070 13.67145087  8.20287052
  12.30430578 17.77288613 12.30430578
  10.93716070 16.40574104 10.93716070
  15.03859596  9.57001561  6.83572544
  13.67145087  8.20287052  5.46858035
  15.03859596 12.30430578  9.57001561
  13.67145087 10.93716070  8.20287052
  15.03859596 15.03859596 12.30430578
  13.67145087 13.67145087 10.93716070
  15.03859596 17.77288613 15.03859596
  13.67145087 16.40574104 13.67145087
  17.77288613  9.57001561  9.57001561
  16.40574104  8.20287052  8.20287052
  17.77288613 12.30430578 12.30430578
  16.40574104 10.93716070 10.93716070
  17.77288613 15.03859596 15.03859596
  16.40574104 13.67145087 13.67145087
  17.77288613 17.77288613 17.77288613
  16.40574104 16.40574104 16.40574104
 


--------------------------------------------------------------------------------------------------------


 k-point  1 :   0.0000 0.0000 0.0000  plane waves:   66299

 maximum and minimum number of plane-waves per node :      3320     3310

 maximum number of plane-waves:     66299
 maximum index in each direction: 
   IXMAX=   28   IYMAX=   28   IZMAX=   28
   IXMIN=  -28   IYMIN=  -28   IZMIN=  -28


 parallel 3D FFT for wavefunctions:
    minimum data exchange during FFTs selected (reduces bandwidth)
 parallel 3D FFT for charge:
    minimum data exchange during FFTs selected (reduces bandwidth)


 total amount of memory used by VASP MPI-rank0   118934. kBytes
=======================================================================

   base      :      30000. kBytes
   nonl-proj :       7011. kBytes
   fftplans  :      53058. kBytes
   grid      :      20148. kBytes
   one-center:         21. kBytes
   wavefun   :       8696. kBytes
 
     INWAV:  cpu time    0.0000: real time    0.0001
 Broyden mixing: mesh for mixing (old mesh)
   NGX = 57   NGY = 57   NGZ = 57
  (NGX  =240   NGY  =240   NGZ  =240)
  gives a total of 185193 points

 initial charge density was supplied:
 charge density of overlapping atoms calculated
 number of electron     512.0000000 magnetization 
 keeping initial charge density in first step


--------------------------------------------------------------------------------------------------------


 Maximum index for augmentation-charges         4439 (set IRDMAX)


--------------------------------------------------------------------------------------------------------


 First call to EWALD:  gamma=   0.129
 Maximum number of real-space cells 3x 3x 3
 Maximum number of reciprocal cells 3x 3x 3

    FEWALD:  cpu time    0.0050: real time    0.0050


--------------------------------------- Iteration      1(   1)  ---------------------------------------


    POTLOK:  cpu time    0.2261: real time    0.2332
    SETDIJ:  cpu time    0.2813: real time    0.2821
     EDDAV:  cpu time    4.7690: real time    4.7809
       DOS:  cpu time    0.0006: real time    0.0006
    --------------------------------------------
      LOOP:  cpu time    5.2770: real time    5.2968

 eigenvalue-minimisations  :   644
 total energy-change (2. order) : 0.1374883E+04  (-0.1908717E+05)
 number of electron     512.0000000 magnetization 
 augmentation part      512.0000000 magnetization 

 Free energy of the ion-electron system (eV)
  ---------------------------------------------------
  alpha Z        PSCENC =       210.78028765
  Ewald energy   TEWEN  =    -14524.86513549
  -Hartree energ DENC   =      -724.62061359
  -exchange      EXHF   =         0.00000000
  -V(xc)+E(xc)   XCENC  =     -1195.83148081
  PAW double counting   =      4221.13331941    -1969.18571412
  entropy T*S    EENTRO =        -0.01557038
  eigenvalues    EBANDS =      2165.00736950
  atomic energy  EATOM  =     13192.48085998
  Solvation  Ediel_sol  =         0.00000000
  ---------------------------------------------------
  free energy    TOTEN  =      1374.88332215 eV

  energy without entropy =     1374.89889253  energy(sigma->0) =     1374.89110734


--------------------------------------------------------------------------------------------------------




--------------------------------------- Iteration      1(   2)  ---------------------------------------


     EDDAV:  cpu time    5.3895: real time    5.4030
       DOS:  cpu time    0.0005: real time    0.0005
    --------------------------------------------
      LOOP:  cpu time    5.3900: real time    5.4035

 eigenvalue-minimisations  :   758
 total energy-change (2. order) :-0.1911902E+04  (-0.1811824E+04)
 number of electron     512.0000000 magnetization 
 augmentation part      512.0000000 magnetization 

 Free energy of the ion-electron system (eV)
  ---------------------------------------------------
  alpha Z        PSCENC =       210.78028765
  Ewald energy   TEWEN  =    -14524.86513549
  -Hartree energ DENC   =      -724.62061359
  -exchange      EXHF   =         0.00000000
  -V(xc)+E(xc)   XCENC  =     -1195.83148081
  PAW double counting   =      4221.13331941    -1969.18571412
  entropy T*S    EENTRO =        -0.00000194
  eigenvalues    EBANDS =       253.08981650
  atomic energy  EATOM  =     13192.48085998
  Solvation  Ediel_sol  =         0.00000000
  ---------------------------------------------------
  free energy    TOTEN  =      -537.01866241 eV

  energy without entropy =     -537.01866047  energy(sigma->0) =     -537.01866144


--------------------------------------------------------------------------------------------------------




--------------------------------------- Iteration      1(   3)  ---------------------------------------


     EDDAV:  cpu time    5.4355: real time    5.4491
       DOS:  cpu time    0.0003: real time    0.0003
    --------------------------------------------
      LOOP:  cpu time    5.4358: real time    5.4494

 eigenvalue-minimisations  :   768
 total energy-change (2. order) :-0.1530053E+03  (-0.1483231E+03)
 number of electron     512.0000000 magnetization 
 augmentation part      512.0000000 magnetization 

 Free energy of the ion-electron system (eV)
  ---------------------------------------------------
  alpha Z        PSCENC =       210.78028765
  Ewald energy   TEWEN  =    -14524.86513549
  -Hartree energ DENC   =      -724.62061359
  -exchange      EXHF   =         0.00000000
  -V(xc)+E(xc)   XCENC  =     -1195.83148081
  PAW double counting   =      4221.13331941    -1969.18571412
  entropy T*S    EENTRO =        -0.00000000
  eigenvalues    EBANDS =       100.08454858
  atomic energy  EATOM  =     13192.48085998
  Solvation  Ediel_sol  =         0.00000000
  ---------------------------------------------------
  free energy    TOTEN  =      -690.02392839 eV

  energy without entropy =     -690.02392839  energy(sigma->0) =     -690.02392839


--------------------------------------------------------------------------------------------------------




--------------------------------------- Iteration      1(   4)  ---------------------------------------


     EDDAV:  cpu time    5.3433: real time    5.3572
       DOS:  cpu time    0.0003: real time    0.0003
    --------------------------------------------
      LOOP:  cpu time    5.3436: real time    5.3576

 eigenvalue-minimisations  :   752
 total energy-change (2. order) :-0.4509380E+01  (-0.4453607E+01)
 number of electron     512.0000000 magnetization 
 augmentation part      512.0000000 magnetization 

 Free energy of the ion-electron system (eV)
  ---------------------------------------------------
  alpha Z        PSCENC =       210.78028765
  Ewald energy   TEWEN  =    -14524.86513549
  -Hartree energ DENC   =      -724.62061359
  -exchange      EXHF   =         0.00000000
  -V(xc)+E(xc)   XCENC  =     -1195.83148081
  PAW double counting   =      4221.13331941    -1969.18571412
  entropy T*S    EENTRO =        -0.00000000
  eigenvalues    EBANDS =        95.57516892
  atomic energy  EATOM  =     13192.48085998
  Solvation  Ediel_sol  =         0.00000000
  ---------------------------------------------------
  free energy    TOTEN  =      -694.53330805 eV

  energy without entropy =     -694.53330805  energy(sigma->0) =     -694.53330805


--------------------------------------------------------------------------------------------------------




--------------------------------------- Iteration      1(   5)  ---------------------------------------


     EDDAV:  cpu time    5.4106: real time    5.4245
       DOS:  cpu time    0.0004: real time    0.0004
    CHARGE:  cpu time    0.4945: real time    0.4957
    MIXING:  cpu time    0.0099: real time    0.0102
    --------------------------------------------
      LOOP:  cpu time    5.9154: real time    5.9309

 eigenvalue-minimisations  :   752
 total energy-change (2. order) :-0.1662582E+00  (-0.1655208E+00)
 number of electron     511.9999999 magnetization 
 augmentation part      -29.7895442 magnetization 

 Broyden mixing:
  rms(total) = 0.24757E+01    rms(broyden)= 0.24757E+01
  rms(prec ) = 0.29957E+01
  weight for this iteration     100.00

 Free energy of the ion-electron system (eV)
  ---------------------------------------------------
  alpha Z        PSCENC =       210.78028765
  Ewald energy   TEWEN  =    -14524.86513549
  -Hartree energ DENC   =      -724.62061359
  -exchange      EXHF   =         0.00000000
  -V(xc)+E(xc)   XCENC  =     -1195.83148081
  PAW double counting   =      4221.13331941    -1969.18571412
  entropy T*S    EENTRO =        -0.00000000
  eigenvalues    EBANDS =        95.40891074
  atomic energy  EATOM  =     13192.48085998
  Solvation  Ediel_sol  =         0.00000000
  ---------------------------------------------------
  free energy    TOTEN  =      -694.69956623 eV

  energy without entropy =     -694.69956623  energy(sigma->0) =     -694.69956623


--------------------------------------------------------------------------------------------------------




--------------------------------------- Iteration      1(   6)  ---------------------------------------


    POTLOK:  cpu time    0.2229: real time    0.2249
    SETDIJ:  cpu time    0.2690: real time    0.2697
     EDDAV:  cpu time    4.9977: real time    5.0094
       DOS:  cpu time    0.0004: real time    0.0004
    CHARGE:  cpu time    0.4875: real time    0.4887
    MIXING:  cpu time    0.0093: real time    0.0094
    --------------------------------------------
      LOOP:  cpu time    5.9868: real time    6.0024

 eigenvalue-minimisations  :   688
 total energy-change (2. order) : 0.8399781E+01  (-0.4778960E+00)
 number of electron     511.9999999 magnetization 
 augmentation part      -29.4083878 magnetization 

 Broyden mixing:
  rms(total) = 0.14788E+01    rms(broyden)= 0.14788E+01
  rms(prec ) = 0.17864E+01
  weight for this iteration     100.00

 eigenvalues of (default mixing * dielectric matrix)
  average eigenvalue GAMMA=   2.4617
  2.4617

 Free energy of the ion-electron system (eV)
  ---------------------------------------------------
  alpha Z        PSCENC =       210.78028765
  Ewald energy   TEWEN  =    -14524.86513549
  -Hartree energ DENC   =      -824.85148809
  -exchange      EXHF   =         0.00000000
  -V(xc)+E(xc)   XCENC  =     -1180.31883275
  PAW double counting   =      4464.76756486    -2219.65450359
  entropy T*S    EENTRO =        -0.00000000
  eigenvalues    EBANDS =       195.36146172
  atomic energy  EATOM  =     13192.48085998
  Solvation  Ediel_sol  =         0.00000000
  ---------------------------------------------------
  free energy    TOTEN  =      -686.29978571 eV

  energy without entropy =     -686.29978571  energy(sigma->0) =     -686.29978571


--------------------------------------------------------------------------------------------------------




--------------------------------------- Iteration      1(   7)  ---------------------------------------


    POTLOK:  cpu time    0.2211: real time    0.2218
    SETDIJ:  cpu time    0.2697: real time    0.2704
     EDDAV:  cpu time    4.8604: real time    4.8718
       DOS:  cpu time    0.0004: real time    0.0004
    CHARGE:  cpu time    0.4889: real time    0.4901
    MIXING:  cpu time    0.0089: real time    0.0089
    --------------------------------------------
      LOOP:  cpu time    5.8494: real time    5.8633

 eigenvalue-minimisations  :   664
 total energy-change (2. order) : 0.3872815E+01  (-0.9700039E+00)
 number of electron     511.9999999 magnetization 
 augmentation part      -28.9141033 magnetization 

 Broyden mixing:
  rms(total) = 0.13040E+00    rms(broyden)= 0.13040E+00
  rms(prec ) = 0.15183E+00
  weight for this iteration     100.00

 eigenvalues of (default mixing * dielectric matrix)
  average eigenvalue GAMMA=   2.4936
  2.4936  2.4936

 Free energy of the ion-electron system (eV)
  ---------------------------------------------------
  alpha Z        PSCENC =       210.78028765
  Ewald energy   TEWEN  =    -14524.86513549
  -Hartree energ DENC   =      -991.88094385
  -exchange      EXHF   =         0.00000000
  -V(xc)+E(xc)   XCENC  =     -1153.93950058
  PAW double counting   =      4789.66492437    -2553.36339344
  entropy T*S    EENTRO =        -0.00000000
  eigenvalues    EBANDS =       348.69593093
  atomic energy  EATOM  =     13192.48085998
  Solvation  Ediel_sol  =         0.00000000
  ---------------------------------------------------
  free energy    TOTEN  =      -682.42697042 eV

  energy without entropy =     -682.42697042  energy(sigma->0) =     -682.42697042


--------------------------------------------------------------------------------------------------------




--------------------------------------- Iteration      1(   8)  ---------------------------------------


    POTLOK:  cpu time    0.2213: real time    0.2219
    SETDIJ:  cpu time    0.2698: real time    0.2704
     EDDAV:  cpu time    4.9896: real time    5.0013
       DOS:  cpu time    0.0004: real time    0.0004
    CHARGE:  cpu time    0.4891: real time    0.4903
    MIXING:  cpu time    0.0093: real time    0.0093
    --------------------------------------------
      LOOP:  cpu time    5.9794: real time    5.9936

 eigenvalue-minimisations  :   688
 total energy-change (2. order) :-0.1321232E+00  (-0.4948643E-01)
 number of electron     511.9999999 magnetization 
 augmentation part      -28.9853508 magnetization 

 Broyden mixing:
  rms(total) = 0.28076E-01    rms(broyden)= 0.28076E-01
  rms(prec ) = 0.37941E-01
  weight for this iteration     100.00

 eigenvalues of (default mixing * dielectric matrix)
  average eigenvalue GAMMA=   2.1013
  1.4543  2.7603  2.0891

 Free energy of the ion-electron system (eV)
  ---------------------------------------------------
  alpha Z        PSCENC =       210.78028765
  Ewald energy   TEWEN  =    -14524.86513549
  -Hartree energ DENC   =      -986.33470254
  -exchange      EXHF   =         0.00000000
  -V(xc)+E(xc)   XCENC  =     -1153.99458929
  PAW double counting   =      4718.72157830    -2480.20203564
  entropy T*S    EENTRO =        -0.00000000
  eigenvalues    EBANDS =       340.85464335
  atomic energy  EATOM  =     13192.48085998
  Solvation  Ediel_sol  =         0.00000000
  ---------------------------------------------------
  free energy    TOTEN  =      -682.55909367 eV

  energy without entropy =     -682.55909367  energy(sigma->0) =     -682.55909367


--------------------------------------------------------------------------------------------------------




--------------------------------------- Iteration      1(   9)  ---------------------------------------


    POTLOK:  cpu time    0.2273: real time    0.2349
    SETDIJ:  cpu time    0.2712: real time    0.2719
     EDDAV:  cpu time    5.4483: real time    5.4620
       DOS:  cpu time    0.0004: real time    0.0004
    CHARGE:  cpu time    0.4885: real time    0.4897
    MIXING:  cpu time    0.0101: real time    0.0102
    --------------------------------------------
      LOOP:  cpu time    6.4459: real time    6.4689

 eigenvalue-minimisations  :   768
 total energy-change (2. order) :-0.6401462E-02  (-0.2453002E-02)
 number of electron     511.9999999 magnetization 
 augmentation part      -28.9800587 magnetization 

 Broyden mixing:
  rms(total) = 0.15923E-01    rms(broyden)= 0.15923E-01
  rms(prec ) = 0.18146E-01
  weight for this iteration     100.00

 eigenvalues of (default mixing * dielectric matrix)
  average eigenvalue GAMMA=   2.2882
  1.0208  3.3908  2.7013  2.0397

 Free energy of the ion-electron system (eV)
  ---------------------------------------------------
  alpha Z        PSCENC =       210.78028765
  Ewald energy   TEWEN  =    -14524.86513549
  -Hartree energ DENC   =      -991.21417700
  -exchange      EXHF   =         0.00000000
  -V(xc)+E(xc)   XCENC  =     -1153.27703350
  PAW double counting   =      4725.24446962    -2486.96350088
  entropy T*S    EENTRO =        -0.00000000
  eigenvalues    EBANDS =       345.24873448
  atomic energy  EATOM  =     13192.48085998
  Solvation  Ediel_sol  =         0.00000000
  ---------------------------------------------------
  free energy    TOTEN  =      -682.56549513 eV

  energy without entropy =     -682.56549513  energy(sigma->0) =     -682.56549513


--------------------------------------------------------------------------------------------------------




--------------------------------------- Iteration      1(  10)  ---------------------------------------


    POTLOK:  cpu time    0.2204: real time    0.2220
    SETDIJ:  cpu time    0.2709: real time    0.2715
     EDDAV:  cpu time    4.9791: real time    4.9907
       DOS:  cpu time    0.0004: real time    0.0004
    CHARGE:  cpu time    0.4884: real time    0.4895
    MIXING:  cpu time    0.0102: real time    0.0102
    --------------------------------------------
      LOOP:  cpu time    5.9693: real time    5.9843

 eigenvalue-minimisations  :   680
 total energy-change (2. order) :-0.2685567E-02  (-0.5909641E-03)
 number of electron     511.9999999 magnetization 
 augmentation part      -28.9811140 magnetization 

 Broyden mixing:
  rms(total) = 0.47983E-02    rms(broyden)= 0.47983E-02
  rms(prec ) = 0.57474E-02
  weight for this iteration     100.00

 eigenvalues of (default mixing * dielectric matrix)
  average eigenvalue GAMMA=   1.9830
  3.2376  2.6109  2.1598  1.0582  0.8487

 Free energy of the ion-electron system (eV)
  ---------------------------------------------------
  alpha Z        PSCENC =       210.78028765
  Ewald energy   TEWEN  =    -14524.86513549
  -Hartree energ DENC   =      -991.22015867
  -exchange      EXHF   =         0.00000000
  -V(xc)+E(xc)   XCENC  =     -1153.35175680
  PAW double counting   =      4721.46600182    -2483.16668037
  entropy T*S    EENTRO =        -0.00000000
  eigenvalues    EBANDS =       345.30840117
  atomic energy  EATOM  =     13192.48085998
  Solvation  Ediel_sol  =         0.00000000
  ---------------------------------------------------
  free energy    TOTEN  =      -682.56818070 eV

  energy without entropy =     -682.56818070  energy(sigma->0) =     -682.56818070


--------------------------------------------------------------------------------------------------------




--------------------------------------- Iteration      1(  11)  ---------------------------------------


    POTLOK:  cpu time    0.2214: real time    0.2233
    SETDIJ:  cpu time    0.2782: real time    0.2788
     EDDAV:  cpu time    5.3424: real time    5.3549
       DOS:  cpu time    0.0004: real time    0.0004
    CHARGE:  cpu time    0.4891: real time    0.4903
    MIXING:  cpu time    0.0101: real time    0.0101
    --------------------------------------------
      LOOP:  cpu time    6.3415: real time    6.3578

 eigenvalue-minimisations  :   752
 total energy-change (2. order) :-0.1330701E-04  (-0.2011530E-04)
 number of electron     511.9999999 magnetization 
 augmentation part      -28.9796189 magnetization 

 Broyden mixing:
  rms(total) = 0.49656E-03    rms(broyden)= 0.49646E-03
  rms(prec ) = 0.57026E-03
  weight for this iteration     100.00

 eigenvalues of (default mixing * dielectric matrix)
  average eigenvalue GAMMA=   2.0349
  3.3663  2.6902  2.2044  1.9847  0.9819  0.9819

 Free energy of the ion-electron system (eV)
  ---------------------------------------------------
  alpha Z        PSCENC =       210.78028765
  Ewald energy   TEWEN  =    -14524.86513549
  -Hartree energ DENC   =      -991.69419541
  -exchange      EXHF   =         0.00000000
  -V(xc)+E(xc)   XCENC  =     -1153.28791815
  PAW double counting   =      4723.31878447    -2485.06438912
  entropy T*S    EENTRO =        -0.00000000
  eigenvalues    EBANDS =       345.76351206
  atomic energy  EATOM  =     13192.48085998
  Solvation  Ediel_sol  =         0.00000000
  ---------------------------------------------------
  free energy    TOTEN  =      -682.56819400 eV

  energy without entropy =     -682.56819400  energy(sigma->0) =     -682.56819400


--------------------------------------------------------------------------------------------------------




--------------------------------------- Iteration      1(  12)  ---------------------------------------


    POTLOK:  cpu time    0.2213: real time    0.2220
    SETDIJ:  cpu time    0.2707: real time    0.2713
     EDDAV:  cpu time    5.3844: real time    5.3971
       DOS:  cpu time    0.0004: real time    0.0004
    CHARGE:  cpu time    0.4905: real time    0.4917
    MIXING:  cpu time    0.0101: real time    0.0101
    --------------------------------------------
      LOOP:  cpu time    6.3774: real time    6.3925

 eigenvalue-minimisations  :   760
 total energy-change (2. order) :-0.4707195E-05  (-0.1291454E-05)
 number of electron     511.9999999 magnetization 
 augmentation part      -28.9793434 magnetization 

 Broyden mixing:
  rms(total) = 0.22069E-03    rms(broyden)= 0.22048E-03
  rms(prec ) = 0.25167E-03
  weight for this iteration     100.00

 eigenvalues of (default mixing * dielectric matrix)
  average eigenvalue GAMMA=   1.9210
  3.3097  2.6915  2.2538  2.2538  1.0232  1.0232  0.8915

 Free energy of the ion-electron system (eV)
  ---------------------------------------------------
  alpha Z        PSCENC =       210.78028765
  Ewald energy   TEWEN  =    -14524.86513549
  -Hartree energ DENC   =      -991.73999984
  -exchange      EXHF   =         0.00000000
  -V(xc)+E(xc)   XCENC  =     -1153.28643987
  PAW double counting   =      4723.43882649    -2485.18086212
  entropy T*S    EENTRO =        -0.00000000
  eigenvalues    EBANDS =       345.80426449
  atomic energy  EATOM  =     13192.48085998
  Solvation  Ediel_sol  =         0.00000000
  ---------------------------------------------------
  free energy    TOTEN  =      -682.56819871 eV

  energy without entropy =     -682.56819871  energy(sigma->0) =     -682.56819871


--------------------------------------------------------------------------------------------------------




--------------------------------------- Iteration      1(  13)  ---------------------------------------


    POTLOK:  cpu time    0.2207: real time    0.2214
    SETDIJ:  cpu time    0.2716: real time    0.2722
     EDDAV:  cpu time    5.3347: real time    5.3472
       DOS:  cpu time    0.0004: real time    0.0004
    CHARGE:  cpu time    0.4917: real time    0.4928
    MIXING:  cpu time    0.0108: real time    0.0108
    --------------------------------------------
      LOOP:  cpu time    6.3299: real time    6.3448

 eigenvalue-minimisations  :   752
 total energy-change (2. order) : 0.3914032E-05  (-0.5630668E-07)
 number of electron     511.9999999 magnetization 
 augmentation part      -28.9794668 magnetization 

 Broyden mixing:
  rms(total) = 0.70502E-04    rms(broyden)= 0.69848E-04
  rms(prec ) = 0.82306E-04
  weight for this iteration     100.00

 eigenvalues of (default mixing * dielectric matrix)
  average eigenvalue GAMMA=   1.8711
  3.3100  2.7001  2.4763  2.1369  0.9622  0.9622  1.2106  1.2106

 Free energy of the ion-electron system (eV)
  ---------------------------------------------------
  alpha Z        PSCENC =       210.78028765
  Ewald energy   TEWEN  =    -14524.86513549
  -Hartree energ DENC   =      -991.73008500
  -exchange      EXHF   =         0.00000000
  -V(xc)+E(xc)   XCENC  =     -1153.28656337
  PAW double counting   =      4723.39890965    -2485.13745183
  entropy T*S    EENTRO =        -0.00000000
  eigenvalues    EBANDS =       345.79098360
  atomic energy  EATOM  =     13192.48085998
  Solvation  Ediel_sol  =         0.00000000
  ---------------------------------------------------
  free energy    TOTEN  =      -682.56819480 eV

  energy without entropy =     -682.56819480  energy(sigma->0) =     -682.56819480


--------------------------------------------------------------------------------------------------------




--------------------------------------- Iteration      1(  14)  ---------------------------------------


    POTLOK:  cpu time    0.2204: real time    0.2221
    SETDIJ:  cpu time    0.2721: real time    0.2728
     EDDAV:  cpu time    5.2867: real time    5.2999
       DOS:  cpu time    0.0005: real time    0.0005
    CHARGE:  cpu time    0.4907: real time    0.4918
    MIXING:  cpu time    0.0115: real time    0.0116
    --------------------------------------------
      LOOP:  cpu time    6.2819: real time    6.2986

 eigenvalue-minimisations  :   728
 total energy-change (2. order) :-0.5973816E-06  (-0.1095032E-07)
 number of electron     511.9999999 magnetization 
 augmentation part      -28.9794382 magnetization 

 Broyden mixing:
  rms(total) = 0.37973E-04    rms(broyden)= 0.36744E-04
  rms(prec ) = 0.47865E-04
  weight for this iteration     100.00

 eigenvalues of (default mixing * dielectric matrix)
  average eigenvalue GAMMA=   1.8150
  3.2918  2.7277  2.4310  2.2619  1.3265  1.3265  0.9337  1.0178  1.0178

 Free energy of the ion-electron system (eV)
  ---------------------------------------------------
  alpha Z        PSCENC =       210.78028765
  Ewald energy   TEWEN  =    -14524.86513549
  -Hartree energ DENC   =      -991.73889317
  -exchange      EXHF   =         0.00000000
  -V(xc)+E(xc)   XCENC  =     -1153.28546911
  PAW double counting   =      4723.42927767    -2485.16800391
  entropy T*S    EENTRO =        -0.00000000
  eigenvalues    EBANDS =       345.79888098
  atomic energy  EATOM  =     13192.48085998
  Solvation  Ediel_sol  =         0.00000000
  ---------------------------------------------------
  free energy    TOTEN  =      -682.56819540 eV

  energy without entropy =     -682.56819540  energy(sigma->0) =     -682.56819540


--------------------------------------------------------------------------------------------------------




--------------------------------------- Iteration      1(  15)  ---------------------------------------


    POTLOK:  cpu time    0.2220: real time    0.2239
    SETDIJ:  cpu time    0.2710: real time    0.2716
     EDDAV:  cpu time    3.7046: real time    3.7147
       DOS:  cpu time    0.0004: real time    0.0004
    CHARGE:  cpu time    0.4883: real time    0.4898
    MIXING:  cpu time    0.0111: real time    0.0111
    --------------------------------------------
      LOOP:  cpu time    4.6974: real time    4.7115

 eigenvalue-minimisations  :   448
 total energy-change (2. order) : 0.1040695E-05  (-0.2749009E-08)
 number of electron     511.9999999 magnetization 
 augmentation part      -28.9794663 magnetization 

 Broyden mixing:
  rms(total) = 0.11628E-04    rms(broyden)= 0.65896E-05
  rms(prec ) = 0.72103E-05
  weight for this iteration     100.00
  WARNING: grid for Broyden might be to small

 eigenvalues of (default mixing * dielectric matrix)
  average eigenvalue GAMMA=   1.8251
  3.2984  2.6661  2.5879  2.1065  2.1065  0.9423  0.9855  1.0314  1.2635  1.2635

 Free energy of the ion-electron system (eV)
  ---------------------------------------------------
  alpha Z        PSCENC =       210.78028765
  Ewald energy   TEWEN  =    -14524.86513549
  -Hartree energ DENC   =      -991.73320081
  -exchange      EXHF   =         0.00000000
  -V(xc)+E(xc)   XCENC  =     -1153.28602389
  PAW double counting   =      4723.40762743    -2485.14560699
  entropy T*S    EENTRO =        -0.00000000
  eigenvalues    EBANDS =       345.79299776
  atomic energy  EATOM  =     13192.48085998
  Solvation  Ediel_sol  =         0.00000000
  ---------------------------------------------------
  free energy    TOTEN  =      -682.56819435 eV

  energy without entropy =     -682.56819435  energy(sigma->0) =     -682.56819435


--------------------------------------------------------------------------------------------------------




--------------------------------------- Iteration      1(  16)  ---------------------------------------


    POTLOK:  cpu time    0.2206: real time    0.2217
    SETDIJ:  cpu time    0.2717: real time    0.2725
     EDDAV:  cpu time    3.3291: real time    3.3385
       DOS:  cpu time    0.0004: real time    0.0004
    CHARGE:  cpu time    0.4891: real time    0.4905
    MIXING:  cpu time    0.0118: real time    0.0118
    --------------------------------------------
      LOOP:  cpu time    4.3227: real time    4.3353

 eigenvalue-minimisations  :   376
 total energy-change (2. order) :-0.7460949E-07  (-0.2090577E-09)
 number of electron     511.9999999 magnetization 
 augmentation part      -28.9794685 magnetization 

 Broyden mixing:
  rms(total) = 0.99902E-05    rms(broyden)= 0.28295E-05
  rms(prec ) = 0.34820E-05
  weight for this iteration     100.00
  WARNING: grid for Broyden might be to small

 eigenvalues of (default mixing * dielectric matrix)
  average eigenvalue GAMMA=   1.7871
  3.2806  2.7603  2.5568  2.2432  2.2432  1.3158  1.3158  1.1292  0.9861  0.9184
  0.9086

 Free energy of the ion-electron system (eV)
  ---------------------------------------------------
  alpha Z        PSCENC =       210.78028765
  Ewald energy   TEWEN  =    -14524.86513549
  -Hartree energ DENC   =      -991.73357039
  -exchange      EXHF   =         0.00000000
  -V(xc)+E(xc)   XCENC  =     -1153.28594600
  PAW double counting   =      4723.40822621    -2485.14632375
  entropy T*S    EENTRO =        -0.00000000
  eigenvalues    EBANDS =       345.79340735
  atomic energy  EATOM  =     13192.48085998
  Solvation  Ediel_sol  =         0.00000000
  ---------------------------------------------------
  free energy    TOTEN  =      -682.56819443 eV

  energy without entropy =     -682.56819443  energy(sigma->0) =     -682.56819443


--------------------------------------------------------------------------------------------------------




--------------------------------------- Iteration      1(  17)  ---------------------------------------


    POTLOK:  cpu time    0.2202: real time    0.2211
    SETDIJ:  cpu time    0.2722: real time    0.2729
     EDDAV:  cpu time    3.3424: real time    3.3524
       DOS:  cpu time    0.0004: real time    0.0004
    CHARGE:  cpu time    0.4909: real time    0.4922
    MIXING:  cpu time    0.0116: real time    0.0116
    --------------------------------------------
      LOOP:  cpu time    4.3376: real time    4.3505

 eigenvalue-minimisations  :   376
 total energy-change (2. order) :-0.3422065E-07  (-0.2616468E-10)
 number of electron     511.9999999 magnetization 
 augmentation part      -28.9794698 magnetization 

 Broyden mixing:
  rms(total) = 0.96630E-05    rms(broyden)= 0.12552E-05
  rms(prec ) = 0.15338E-05
  weight for this iteration     100.00
  WARNING: grid for Broyden might be to small

 eigenvalues of (default mixing * dielectric matrix)
  average eigenvalue GAMMA=   1.7790
  3.2920  2.7050  2.5970  2.0854  2.0853  2.0853  1.2287  1.2287  0.9326  0.9729
  1.0678  1.0678

 Free energy of the ion-electron system (eV)
  ---------------------------------------------------
  alpha Z        PSCENC =       210.78028765
  Ewald energy   TEWEN  =    -14524.86513549
  -Hartree energ DENC   =      -991.73338740
  -exchange      EXHF   =         0.00000000
  -V(xc)+E(xc)   XCENC  =     -1153.28597451
  PAW double counting   =      4723.40847819    -2485.14661146
  entropy T*S    EENTRO =        -0.00000000
  eigenvalues    EBANDS =       345.79328857
  atomic energy  EATOM  =     13192.48085998
  Solvation  Ediel_sol  =         0.00000000
  ---------------------------------------------------
  free energy    TOTEN  =      -682.56819446 eV

  energy without entropy =     -682.56819446  energy(sigma->0) =     -682.56819446


--------------------------------------------------------------------------------------------------------




--------------------------------------- Iteration      1(  18)  ---------------------------------------


    POTLOK:  cpu time    0.2202: real time    0.2212
    SETDIJ:  cpu time    0.2712: real time    0.2718
     EDDAV:  cpu time    3.2010: real time    3.2099
       DOS:  cpu time    0.0004: real time    0.0004
    CHARGE:  cpu time    0.4884: real time    0.4895
    MIXING:  cpu time    0.0120: real time    0.0121
    --------------------------------------------
      LOOP:  cpu time    4.1931: real time    4.2049

 eigenvalue-minimisations  :   352
 total energy-change (2. order) : 0.1600711E-07  (-0.8702261E-11)
 number of electron     511.9999999 magnetization 
 augmentation part      -28.9794702 magnetization 

 Broyden mixing:
  rms(total) = 0.95995E-05    rms(broyden)= 0.59344E-06
  rms(prec ) = 0.73050E-06
  weight for this iteration     100.00
  WARNING: grid for Broyden might be to small

 eigenvalues of (default mixing * dielectric matrix)
  average eigenvalue GAMMA=   1.7892
  3.2975  2.6919  2.6919  2.4014  2.4014  2.1750  1.2885  1.2885  1.1331  1.0876
  1.0089  0.9351  0.8589

 Free energy of the ion-electron system (eV)
  ---------------------------------------------------
  alpha Z        PSCENC =       210.78028765
  Ewald energy   TEWEN  =    -14524.86513549
  -Hartree energ DENC   =      -991.73337511
  -exchange      EXHF   =         0.00000000
  -V(xc)+E(xc)   XCENC  =     -1153.28597796
  PAW double counting   =      4723.40798686    -2485.14611464
  entropy T*S    EENTRO =        -0.00000000
  eigenvalues    EBANDS =       345.79327426
  atomic energy  EATOM  =     13192.48085998
  Solvation  Ediel_sol  =         0.00000000
  ---------------------------------------------------
  free energy    TOTEN  =      -682.56819445 eV

  energy without entropy =     -682.56819445  energy(sigma->0) =     -682.56819445


--------------------------------------------------------------------------------------------------------




--------------------------------------- Iteration      1(  19)  ---------------------------------------


    POTLOK:  cpu time    0.2203: real time    0.2212
    SETDIJ:  cpu time    0.2717: real time    0.2724
     EDDAV:  cpu time    3.2103: real time    3.2203
       DOS:  cpu time    0.0003: real time    0.0003
    --------------------------------------------
      LOOP:  cpu time    3.7026: real time    3.7141

 eigenvalue-minimisations  :   352
 total energy-change (2. order) : 0.4929461E-08  (-0.1974754E-11)
 number of electron     511.9999999 magnetization 
 augmentation part      -28.9794702 magnetization 

 Free energy of the ion-electron system (eV)
  ---------------------------------------------------
  alpha Z        PSCENC =       210.78028765
  Ewald energy   TEWEN  =    -14524.86513549
  -Hartree energ DENC   =      -991.73333428
  -exchange      EXHF   =         0.00000000
  -V(xc)+E(xc)   XCENC  =     -1153.28598485
  PAW double counting   =      4723.40774294    -2485.14587006
  entropy T*S    EENTRO =        -0.00000000
  eigenvalues    EBANDS =       345.79323968
  atomic energy  EATOM  =     13192.48085998
  Solvation  Ediel_sol  =         0.00000000
  ---------------------------------------------------
  free energy    TOTEN  =      -682.56819444 eV

  energy without entropy =     -682.56819444  energy(sigma->0) =     -682.56819444


--------------------------------------------------------------------------------------------------------




 average (electrostatic) potential at core
  the test charge radii are     0.9892
  (the norm of the test charge is              1.0000)
       1 -83.4138       2 -83.4136       3 -83.4140       4 -83.4140       5 -83.4136
       6 -83.4138       7 -83.4135       8 -83.4135       9 -83.4123      10 -83.4136
      11 -83.4132      12 -83.4112      13 -83.4134      14 -83.4134      15 -83.4113
      16 -83.4133      17 -83.4134      18 -83.4127      19 -83.4133      20 -83.4133
      21 -83.4127      22 -83.4134      23 -83.4119      24 -83.4119      25 -83.4134
      26 -83.4134      27 -83.4112      28 -83.4132      29 -83.4136      30 -83.4123
      31 -83.4133      32 -83.4113      33 -83.4161      34 -83.4137      35 -83.4142
      36 -83.4141      37 -83.4154      38 -83.4161      39 -83.4138      40 -83.4144
      41 -83.4139      42 -83.4137      43 -83.4138      44 -83.4138      45 -83.4137
      46 -83.4140      47 -83.4135      48 -83.4134      49 -83.4139      50 -83.4138
      51 -83.4135      52 -83.4137      53 -83.4137      54 -83.4136      55 -83.4137
      56 -83.4133      57 -83.4136      58 -83.4140      59 -83.4134      60 -83.4133
      61 -83.4140      62 -83.4138      63 -83.4139      64 -83.4137      65 -83.4150
      66 -83.4153      67 -83.4142      68 -83.4142      69 -83.4153      70 -83.4150
      71 -83.4139      72 -83.4139      73 -83.4140      74 -83.4140      75 -83.4136
      76 -83.4139      77 -83.4136      78 -83.4139      79 -83.4138      80 -83.4137
      81 -83.4137      82 -83.4139      83 -83.4135      84 -83.4135      85 -83.4139
      86 -83.4137      87 -83.4137      88 -83.4137      89 -83.4139      90 -83.4136
      91 -83.4139      92 -83.4136      93 -83.4140      94 -83.4140      95 -83.4137
      96 -83.4138      97 -83.4161      98 -83.4154      99 -83.4141     100 -83.4142
     101 -83.4137     102 -83.4161     103 -83.4144     104 -83.4138     105 -83.4138
     106 -83.4140     107 -83.4133     108 -83.4134     109 -83.4140     110 -83.4136
     111 -83.4137     112 -83.4139     113 -83.4136     114 -83.4137     115 -83.4137
     116 -83.4135     117 -83.4138     118 -83.4139     119 -83.4133     120 -83.4137
     121 -83.4140     122 -83.4137     123 -83.4138     124 -83.4138     125 -83.4137
     126 -83.4139     127 -83.4134     128 -83.4135
 
 
 
 E-fermi :   5.9202     XC(G=0):  -9.3007     alpha+bet :-11.7327


 k-point     1 :       0.0000    0.0000    0.0000
  band No.  band energies     occupation 
      1      -6.1630      2.00000
      2      -5.3789      2.00000
      3      -5.3784      2.00000
      4      -5.3777      2.00000
      5      -5.3777      2.00000
      6      -5.3775      2.00000
      7      -5.3772      2.00000
      8      -5.3767      2.00000
      9      -5.3758      2.00000
     10      -5.1005      2.00000
     11      -5.1002      2.00000
     12      -5.0998      2.00000
     13      -5.0997      2.00000
     14      -5.0993      2.00000
     15      -5.0982      2.00000
     16      -4.1593      2.00000
     17      -4.1584      2.00000
     18      -4.1575      2.00000
     19      -4.1575      2.00000
     20      -4.1570      2.00000
     21      -4.1570      2.00000
     22      -4.1570      2.00000
     23      -4.1569      2.00000
     24      -4.1567      2.00000
     25      -4.1564      2.00000
     26      -4.1549      2.00000
     27      -4.1549      2.00000
     28      -3.8824      2.00000
     29      -3.8808      2.00000
     30      -3.8808      2.00000
     31      -3.8807      2.00000
     32      -3.5007      2.00000
     33      -3.4995      2.00000
     34      -3.4979      2.00000
     35      -3.4976      2.00000
     36      -3.4967      2.00000
     37      -3.4966      2.00000
     38      -3.4965      2.00000
     39      -3.4965      2.00000
     40      -3.4965      2.00000
     41      -3.4964      2.00000
     42      -3.4963      2.00000
     43      -3.4963      2.00000
     44      -3.4962      2.00000
     45      -3.4962      2.00000
     46      -3.4961      2.00000
     47      -3.4961      2.00000
     48      -3.4961      2.00000
     49      -3.4960      2.00000
     50      -3.4958      2.00000
     51      -3.4957      2.00000
     52      -3.4952      2.00000
     53      -3.4940      2.00000
     54      -3.4924      2.00000
     55      -3.4923      2.00000
     56      -2.0926      2.00000
     57      -2.0918      2.00000
     58      -2.0908      2.00000
     59      -2.0904      2.00000
     60      -2.0904      2.00000
     61      -2.0896      2.00000
     62      -1.9374      2.00000
     63      -1.9374      2.00000
     64      -1.9362      2.00000
     65      -1.9361      2.00000
     66      -1.9355      2.00000
     67      -1.9355      2.00000
     68      -1.9354      2.00000
     69      -1.9354      2.00000
     70      -1.9346      2.00000
     71      -1.9346      2.00000
     72      -1.9333      2.00000
     73      -1.9333      2.00000
     74      -1.2192      2.00000
     75      -1.2192      2.00000
     76      -1.2182      2.00000
     77      -1.2171      2.00000
     78      -0.6728      2.00000
     79      -0.6718      2.00000
     80      -0.6712      2.00000
     81      -0.6705      2.00000
     82      -0.6691      2.00000
     83      -0.6690      2.00000
     84      -0.6689      2.00000
     85      -0.6689      2.00000
     86      -0.6688      2.00000
     87      -0.6687      2.00000
     88      -0.6687      2.00000
     89      -0.6686      2.00000
     90      -0.6686      2.00000
     91      -0.6686      2.00000
     92      -0.6685      2.00000
     93      -0.6685      2.00000
     94      -0.6684      2.00000
     95      -0.6683      2.00000
     96      -0.6683      2.00000
     97      -0.6681      2.00000
     98      -0.6673      2.00000
     99      -0.6657      2.00000
    100      -0.6654      2.00000
    101      -0.6643      2.00000
    102       0.2148      2.00000
    103       0.2149      2.00000
    104       0.2158      2.00000
    105       0.2160      2.00000
    106       0.2166      2.00000
    107       0.2166      2.00000
    108       0.2167      2.00000
    109       0.2168      2.00000
    110       0.2174      2.00000
    111       0.2174      2.00000
    112       0.2187      2.00000
    113       0.2190      2.00000
    114       1.7667      2.00000
    115       1.7669      2.00000
    116       1.7674      2.00000
    117       1.7677      2.00000
    118       1.7680      2.00000
    119       1.7683      2.00000
    120       1.7688      2.00000
    121       1.7688      2.00000
    122       1.8849      2.00000
    123       1.8849      2.00000
    124       1.8855      2.00000
    125       1.8856      2.00000
    126       1.8859      2.00000
    127       1.8859      2.00000
    128       1.8860      2.00000
    129       1.8861      2.00000
    130       1.8862      2.00000
    131       1.8864      2.00000
    132       1.8872      2.00000
    133       1.8872      2.00000
    134       1.9778      2.00000
    135       1.9780      2.00000
    136       1.9783      2.00000
    137       1.9783      2.00000
    138       1.9785      2.00000
    139       1.9787      2.00000
    140       1.9789      2.00000
    141       1.9793      2.00000
    142       1.9794      2.00000
    143       1.9796      2.00000
    144       1.9798      2.00000
    145       1.9799      2.00000
    146       2.1403      2.00000
    147       2.1404      2.00000
    148       2.1407      2.00000
    149       2.1413      2.00000
    150       2.1418      2.00000
    151       2.1420      2.00000
    152       2.1841      2.00000
    153       2.1847      2.00000
    154       2.1851      2.00000
    155       2.1857      2.00000
    156       2.1861      2.00000
    157       2.1862      2.00000
    158       2.1866      2.00000
    159       2.1866      2.00000
    160       2.1867      2.00000
    161       2.1868      2.00000
    162       2.1868      2.00000
    163       2.1869      2.00000
    164       2.1870      2.00000
    165       2.1871      2.00000
    166       2.1871      2.00000
    167       2.1871      2.00000
    168       2.1872      2.00000
    169       2.1873      2.00000
    170       2.1874      2.00000
    171       2.1875      2.00000
    172       2.1885      2.00000
    173       2.1887      2.00000
    174       2.1895      2.00000
    175       2.1896      2.00000
    176       2.8559      2.00000
    177       2.8564      2.00000
    178       2.8565      2.00000
    179       2.8567      2.00000
    180       2.8568      2.00000
    181       2.8573      2.00000
    182       3.4899      2.00000
    183       3.4900      2.00000
    184       3.4912      2.00000
    185       3.4913      2.00000
    186       3.4920      2.00000
    187       3.4922      2.00000
    188       3.4922      2.00000
    189       3.4922      2.00000
    190       3.4923      2.00000
    191       3.4924      2.00000
    192       3.4924      2.00000
    193       3.4924      2.00000
    194       3.4926      2.00000
    195       3.4926      2.00000
    196       3.4926      2.00000
    197       3.4927      2.00000
    198       3.4928      2.00000
    199       3.4928      2.00000
    200       3.4931      2.00000
    201       3.4931      2.00000
    202       3.4936      2.00000
    203       3.4937      2.00000
    204       3.4943      2.00000
    205       3.4960      2.00000
    206       3.8014      2.00000
    207       3.8031      2.00000
    208       3.8035      2.00000
    209       3.8037      2.00000
    210       3.8038      2.00000
    211       3.8038      2.00000
    212       3.8039      2.00000
    213       3.8039      2.00000
    214       3.8039      2.00000
    215       3.8044      2.00000
    216       3.8048      2.00000
    217       3.8057      2.00000
    218       4.3501      2.00000
    219       4.3520      2.00000
    220       4.3521      2.00000
    221       4.3523      2.00000
    222       4.3527      2.00000
    223       4.3528      2.00000
    224       4.3528      2.00000
    225       4.3531      2.00000
    226       4.3537      2.00000
    227       4.3537      2.00000
    228       4.3542      2.00000
    229       4.3543      2.00000
    230       4.4753      2.00000
    231       4.4771      2.00000
    232       4.4773      2.00000
    233       4.4778      2.00000
    234       4.4780      2.00000
    235       4.4784      2.00000
    236       4.4787      2.00000
    237       4.4791      2.00000
    238       4.9086      2.00000
    239       4.9088      2.00000
    240       4.9111      2.00000
    241       4.9114      2.00000
    242       4.9114      2.00000
    243       4.9115      2.00000
    244       4.9117      2.00000
    245       4.9117      2.00000
    246       4.9119      2.00000
    247       4.9119      2.00000
    248       4.9121      2.00000
    249       4.9122      2.00000
    250       4.9122      2.00000
    251       4.9122      2.00000
    252       4.9138      2.00000
    253       4.9160      2.00000
    254       5.6589      2.00000
    255       5.6604      2.00000
    256       5.6619      2.00000
    257       6.3943      0.00000
    258       6.3944      0.00000
    259       6.3944      0.00000
    260       6.3956      0.00000
    261       6.3959      0.00000
    262       6.3961      0.00000
    263       6.7952      0.00000
    264       6.7957      0.00000
    265       6.7963      0.00000
    266       6.7966      0.00000
    267       6.7968      0.00000
    268       6.7969      0.00000
    269       7.1205      0.00000
    270       7.1207      0.00000
    271       7.1211      0.00000
    272       7.1211      0.00000
    273       7.1827      0.00000
    274       7.1835      0.00000
    275       7.1838      0.00000
    276       7.1844      0.00000
    277       7.1857      0.00000
    278       7.1857      0.00000
    279       7.1858      0.00000
    280       7.1858      0.00000
    281       7.1858      0.00000
    282       7.1859      0.00000
    283       7.1859      0.00000
    284       7.1860      0.00000
    285       7.1860      0.00000
    286       7.1861      0.00000
    287       7.1862      0.00000
    288       7.1862      0.00000
    289       7.1862      0.00000
    290       7.1863      0.00000
    291       7.1863      0.00000
    292       7.1864      0.00000
    293       7.1872      0.00000
    294       7.1875      0.00000
    295       7.1891      0.00000
    296       7.1894      0.00000
    297       7.6113      0.00000
    298       7.6113      0.00000
    299       7.6120      0.00000
    300       7.6121      0.00000
    301       7.6125      0.00000
    302       7.6126      0.00000
    303       7.6128      0.00000
    304       7.6132      0.00000
    305       8.0807      0.00000
    306       8.0817      0.00000
    307       8.0821      0.00000
    308       8.0828      0.00000
    309       8.0828      0.00000
    310       8.0829      0.00000
    311       8.0830      0.00000
    312       8.0831      0.00000
    313       8.0837      0.00000
    314       8.0838      0.00000
    315       8.0842      0.00000
    316       8.0843      0.00000
    317       8.1984      0.00000
    318       8.1993      0.00000
    319       8.2002      0.00000
    320       8.7790      0.00000
    321       8.7792      0.00000
    322       8.7872      0.00000


--------------------------------------------------------------------------------------------------------


 soft charge-density along one line, spin component           1
         0         1         2         3         4         5         6         7         8         9
 total charge-density along one line
 
 pseudopotential strength for first ion, spin component:           1
 18.431  -0.001   0.000  -0.000  -0.000   0.000   0.000  -0.000
 -0.001   0.006   0.000   0.000   0.000  -0.000  -0.000  -0.000
  0.000   0.000   4.180   0.000   0.000  -0.005  -0.000  -0.000
 -0.000   0.000   0.000   4.180  -0.000  -0.000  -0.005   0.000
 -0.000   0.000   0.000  -0.000   4.180  -0.000   0.000  -0.005
  0.000  -0.000  -0.005  -0.000  -0.000   0.005  -0.000   0.000
  0.000  -0.000  -0.000  -0.005   0.000  -0.000   0.005   0.000
 -0.000  -0.000  -0.000   0.000  -0.005   0.000   0.000   0.005
 total augmentation occupancy for first ion, spin component:           1
  1.463  -0.793  -0.000  -0.003   0.000   0.000   0.004  -0.000
 -0.793   0.732  -0.000   0.003   0.000   0.000  -0.004  -0.000
 -0.000  -0.000   1.037  -0.000   0.004  -0.551   0.000  -0.005
 -0.003   0.003  -0.000   1.037   0.000   0.000  -0.551  -0.000
  0.000   0.000   0.004   0.000   1.037  -0.005  -0.000  -0.551
  0.000   0.000  -0.551   0.000  -0.005   0.351   0.000   0.004
  0.004  -0.004   0.000  -0.551  -0.000   0.000   0.351  -0.000
 -0.000  -0.000  -0.005  -0.000  -0.551   0.004  -0.000   0.351


------------------------ aborting loop because EDIFF is reached ----------------------------------------


    CHARGE:  cpu time    0.4904: real time    0.4920
    FORLOC:  cpu time    0.1949: real time    0.1955
    FORNL :  cpu time    5.3511: real time    5.3647
    STRESS:  cpu time    8.6270: real time    8.6507
    FORCOR:  cpu time    0.4040: real time    0.4053
    FORHAR:  cpu time    0.2413: real time    0.2420
    MIXING:  cpu time    0.0100: real time    0.0100
    OFIELD:  cpu time    0.0001: real time    0.0001

  FORCE on cell =-STRESS in cart. coord.  units (eV):
  Direction    XX          YY          ZZ          XY          YZ          ZX
  --------------------------------------------------------------------------------------
  Alpha Z   210.78029   210.78029   210.78029
  Ewald   -4841.66441 -4841.66418 -4841.68333     1.54965    -0.00008     0.00003
  Hartree   330.57895   330.57913   330.57523     0.17684    -0.00011     0.00002
  E(xc)   -1619.14457 -1619.14457 -1619.14439    -0.01325     0.00001     0.00001
  Local   -1899.81371 -1899.81413 -1899.79203    -1.63662     0.00048     0.00021
  n-local  4936.76855  4936.76856  4936.76482     0.31830     0.00000     0.00001
  augment  -736.53103  -736.53103  -736.53084    -0.01430    -0.00027    -0.00027
  Kinetic  3628.38858  3628.38859  3628.38950    -0.20628    -0.00000    -0.00001
  Fock        0.00000     0.00000     0.00000     0.00000     0.00000     0.00000
  -------------------------------------------------------------------------------------
  Total       9.36265     9.36265     9.35925     0.17433     0.00002    -0.00001
  in kB       5.73278     5.73279     5.73070     0.10674     0.00001    -0.00001
  external pressure =        5.73 kB  Pullay stress =        0.00 kB


 VOLUME and BASIS-vectors are now :
 -----------------------------------------------------------------------------
  energy-cutoff  :      500.00
  volume of cell :     2616.64
      direct lattice vectors                 reciprocal lattice vectors
     0.000000000 10.937160696 10.937160696    -0.045715704  0.045715704  0.045715704
    10.937160696  0.000000000 10.937160696     0.045715704 -0.045715704  0.045715704
    10.937160696 10.937160696  0.000000000     0.045715704  0.045715704 -0.045715704

  length of vectors
    15.467480990 15.467480990 15.467480990     0.079181922  0.079181922  0.079181922


 FORCES acting on ions
    electron-ion (+dipol)            ewald-force                    non-local-force                 convergence-correction
 -----------------------------------------------------------------------------------------------
   0.569E-02 -.182E-01 -.534E+00   -.462E-02 0.169E-01 0.477E+00   -.601E-03 0.157E-02 0.187E+00   0.329E-06 0.174E-06 0.175E-05
   0.202E+00 0.189E+00 -.457E-02   -.174E+00 -.161E+00 0.467E-02   -.483E-01 -.483E-01 -.328E-01   -.485E-06 -.592E-06 0.377E-06
   0.202E+00 -.141E+00 0.197E-01   -.173E+00 0.113E+00 -.191E-01   -.474E-01 0.461E-01 0.304E-01   -.672E-06 -.234E-06 -.966E-06
   -.202E+00 0.141E+00 -.197E-01   0.173E+00 -.113E+00 0.191E-01   0.474E-01 -.461E-01 -.304E-01   0.876E-06 -.693E-08 0.582E-06
   -.202E+00 -.189E+00 0.457E-02   0.174E+00 0.161E+00 -.467E-02   0.483E-01 0.483E-01 0.328E-01   0.763E-06 0.679E-06 -.166E-06
   -.569E-02 0.182E-01 0.534E+00   0.462E-02 -.169E-01 -.477E+00   0.601E-03 -.157E-02 -.187E+00   -.109E-07 -.240E-06 -.213E-05
   -.652E-02 0.415E-01 0.163E-01   0.465E-02 -.435E-01 -.151E-01   0.436E-03 0.108E-03 -.261E-02   0.221E-07 -.661E-06 -.142E-06
   0.652E-02 -.415E-01 -.163E-01   -.465E-02 0.435E-01 0.151E-01   -.436E-03 -.108E-03 0.261E-02   0.351E-06 0.847E-06 0.699E-06
   0.616E-01 -.134E-02 0.372E-01   -.648E-01 0.465E-02 -.294E-01   0.158E-02 -.284E-02 -.740E-02   -.544E-06 -.432E-06 -.672E-06
   0.204E+00 -.208E+00 0.545E-02   -.175E+00 0.181E+00 -.405E-02   -.483E-01 0.469E-01 -.339E-01   -.536E-06 0.647E-06 0.212E-06
   -.142E-01 0.119E-01 0.224E-01   0.124E-01 -.145E-01 -.241E-01   0.125E-02 0.211E-02 0.144E-02   0.211E-06 0.185E-06 0.164E-06
   0.154E-01 0.266E-01 0.630E-01   -.205E-01 -.203E-01 -.749E-01   0.643E-02 -.690E-02 0.703E-02   -.364E-06 -.188E-07 -.392E-06
   -.209E-01 0.208E-02 -.775E-02   0.192E-01 -.338E-02 0.796E-02   0.157E-02 0.674E-03 -.110E-03   -.192E-06 0.243E-07 -.787E-07
   -.582E-01 0.101E-01 -.186E-01   0.593E-01 -.898E-02 0.172E-01   0.101E-02 -.103E-03 0.292E-02   0.902E-06 -.145E-07 0.222E-06
   -.924E-02 0.197E-02 -.282E-01   0.293E-02 0.315E-02 0.398E-01   0.688E-02 -.646E-02 -.690E-02   -.134E-06 0.476E-06 0.353E-07
   -.119E-01 0.142E-01 -.221E-01   0.146E-01 -.124E-01 0.241E-01   -.217E-02 -.131E-02 -.177E-02   -.437E-06 -.988E-07 -.239E-06
   0.105E-01 -.189E-02 0.905E-02   -.116E-01 0.109E-02 -.911E-02   0.664E-03 0.641E-03 -.164E-03   -.110E-06 0.233E-06 0.698E-07
   0.183E-01 -.571E-02 0.787E-02   -.169E-01 0.463E-02 -.124E-01   -.158E-02 0.597E-03 0.263E-02   -.197E-06 -.577E-07 -.235E-06
   -.152E-02 -.425E-02 -.550E-02   0.955E-03 0.338E-02 0.587E-02   0.337E-03 0.450E-03 -.422E-03   0.731E-07 -.377E-06 0.199E-06
   0.152E-02 0.426E-02 0.550E-02   -.955E-03 -.338E-02 -.587E-02   -.337E-03 -.450E-03 0.422E-03   -.815E-08 0.103E-06 0.900E-07
   -.183E-01 0.571E-02 -.787E-02   0.169E-01 -.463E-02 0.124E-01   0.158E-02 -.597E-03 -.263E-02   0.146E-06 0.270E-06 -.230E-08
   -.105E-01 0.189E-02 -.905E-02   0.116E-01 -.109E-02 0.911E-02   -.664E-03 -.641E-03 0.164E-03   -.645E-07 -.886E-07 0.255E-07
   0.507E-02 -.115E-02 0.121E-01   -.338E-02 -.237E-02 -.624E-02   -.236E-02 0.372E-02 -.390E-02   -.336E-06 0.282E-06 -.422E-06
   -.507E-02 0.115E-02 -.121E-01   0.338E-02 0.237E-02 0.624E-02   0.236E-02 -.372E-02 0.390E-02   0.121E-06 -.623E-07 0.174E-07
   0.582E-01 -.101E-01 0.186E-01   -.593E-01 0.898E-02 -.172E-01   -.101E-02 0.103E-03 -.292E-02   -.695E-06 0.645E-07 0.193E-06
   0.209E-01 -.208E-02 0.775E-02   -.192E-01 0.338E-02 -.796E-02   -.157E-02 -.674E-03 0.109E-03   0.128E-06 0.289E-06 0.458E-06
   -.154E-01 -.266E-01 -.630E-01   0.205E-01 0.203E-01 0.749E-01   -.643E-02 0.690E-02 -.703E-02   0.503E-06 -.144E-06 0.101E-06
   0.142E-01 -.119E-01 -.224E-01   -.124E-01 0.145E-01 0.241E-01   -.125E-02 -.211E-02 -.144E-02   -.220E-06 -.306E-06 -.174E-06
   -.204E+00 0.208E+00 -.545E-02   0.175E+00 -.181E+00 0.405E-02   0.483E-01 -.469E-01 0.339E-01   0.480E-06 -.639E-06 -.651E-06
   -.616E-01 0.134E-02 -.372E-01   0.648E-01 -.465E-02 0.294E-01   -.158E-02 0.284E-02 0.740E-02   0.424E-06 0.410E-06 0.315E-06
   0.119E-01 -.142E-01 0.221E-01   -.146E-01 0.124E-01 -.241E-01   0.217E-02 0.131E-02 0.177E-02   0.421E-06 0.288E-06 0.323E-06
   0.924E-02 -.197E-02 0.282E-01   -.293E-02 -.315E-02 -.398E-01   -.688E-02 0.646E-02 0.690E-02   -.705E-07 -.329E-06 -.214E-06
   0.242E-01 0.177E-03 -.334E-01   -.170E-01 0.452E-02 0.445E-01   -.832E-02 -.614E-02 -.595E-02   -.853E-07 -.154E-06 -.479E-06
   -.194E+00 -.209E+00 -.607E-02   0.166E+00 0.182E+00 0.729E-02   0.488E-01 0.478E-01 -.340E-01   0.781E-06 0.483E-06 0.364E-06
   0.242E-01 0.124E-01 0.134E-01   -.228E-01 -.146E-01 -.143E-01   -.774E-03 0.171E-02 0.550E-03   0.105E-06 0.199E-06 0.607E-07
   0.641E-01 0.224E-01 -.376E-01   -.667E-01 -.205E-01 0.375E-01   0.169E-03 -.582E-03 0.193E-02   -.653E-06 -.306E-06 -.203E-06
   -.945E-02 0.531E-02 0.220E-01   0.127E-01 -.342E-02 -.159E-01   -.349E-02 -.258E-02 -.401E-02   -.203E-06 -.238E-06 -.135E-06
   0.415E-02 0.152E-01 0.312E-01   0.987E-03 -.911E-02 -.424E-01   -.626E-02 -.701E-02 0.625E-02   0.370E-06 0.129E-06 -.107E-06
   -.563E-01 -.283E-02 0.216E-01   0.574E-01 0.303E-02 -.198E-01   0.128E-02 0.376E-03 -.357E-02   0.638E-06 0.182E-06 0.186E-06
   -.244E-01 0.140E-01 0.385E-01   0.229E-01 -.125E-01 -.385E-01   0.907E-03 -.924E-03 0.177E-03   0.404E-07 0.171E-07 0.195E-07
   0.118E-01 0.210E-02 0.118E-02   -.121E-01 -.226E-02 -.113E-02   0.118E-03 0.441E-03 -.310E-03   0.154E-07 0.213E-06 -.894E-07
   0.288E-01 0.133E-02 -.124E-01   -.286E-01 -.426E-02 0.143E-01   -.109E-03 0.232E-02 -.157E-02   -.284E-06 0.247E-07 -.441E-06
   -.395E-02 -.434E-03 0.396E-02   0.403E-02 0.241E-04 -.436E-02   -.563E-04 0.418E-03 0.138E-03   -.251E-06 0.109E-06 -.185E-06
   0.556E-02 0.505E-02 0.145E-01   -.564E-02 -.560E-02 -.133E-01   0.608E-04 0.524E-03 -.876E-03   -.734E-07 0.692E-07 -.451E-07
   -.114E-01 0.616E-02 -.252E-02   0.111E-01 -.532E-02 0.323E-02   0.140E-03 -.182E-03 -.107E-02   0.514E-07 0.279E-06 0.260E-06
   -.127E-01 0.230E-02 0.420E-02   0.136E-01 -.332E-02 -.323E-02   -.746E-03 0.731E-03 -.768E-03   0.163E-07 0.190E-07 0.836E-07
   0.368E-02 0.317E-02 -.138E-01   -.308E-02 -.304E-02 0.133E-01   -.211E-03 0.252E-03 0.558E-04   -.341E-06 -.198E-06 -.317E-06
   -.216E-01 0.454E-02 -.156E-01   0.204E-01 -.653E-02 0.177E-01   0.789E-03 0.165E-02 -.171E-02   0.165E-06 0.383E-06 -.306E-06
   0.626E-02 -.850E-02 0.583E-02   -.703E-02 0.906E-02 -.647E-02   0.540E-03 -.378E-03 0.487E-03   -.143E-06 -.690E-07 -.111E-06
   0.916E-02 -.193E-02 0.697E-02   -.901E-02 0.109E-02 -.632E-02   -.834E-04 0.665E-03 -.577E-03   -.927E-07 -.219E-07 -.212E-06
   -.145E-02 -.383E-02 -.115E-01   0.174E-02 0.400E-02 0.119E-01   -.389E-05 -.379E-04 -.597E-03   0.220E-06 0.176E-06 0.376E-06
   0.904E-03 -.566E-02 -.106E-02   -.855E-03 0.561E-02 0.183E-02   -.655E-04 0.884E-04 -.581E-03   -.755E-07 0.878E-07 0.334E-06
   -.590E-02 0.181E-01 -.921E-02   0.463E-02 -.169E-01 0.841E-02   0.785E-03 -.139E-02 0.874E-03   -.205E-06 -.161E-06 -.269E-06
   -.924E-02 0.547E-02 -.105E-01   0.911E-02 -.693E-02 0.117E-01   0.121E-03 0.116E-02 -.106E-02   0.954E-07 0.172E-06 -.574E-08
   0.421E-02 0.384E-02 0.541E-02   -.475E-02 -.406E-02 -.619E-02   0.545E-03 0.205E-03 0.524E-03   0.132E-06 0.837E-07 -.686E-07
   0.752E-03 0.671E-02 -.161E-03   -.177E-02 -.801E-02 0.113E-02   0.724E-03 0.111E-02 -.708E-03   -.113E-06 -.444E-07 -.264E-06
   0.478E-02 -.639E-01 0.126E-01   -.403E-02 0.645E-01 -.112E-01   0.195E-03 0.146E-02 -.310E-02   0.337E-06 0.650E-06 0.288E-06
   0.210E-01 -.258E-01 0.333E-01   -.206E-01 0.253E-01 -.335E-01   -.879E-04 0.111E-03 0.365E-03   0.108E-06 -.985E-07 0.777E-07
   0.205E-01 0.210E-01 -.486E-01   -.204E-01 -.205E-01 0.484E-01   0.228E-03 -.235E-03 -.755E-04   0.124E-07 -.197E-06 -.201E-06
   0.454E-02 -.216E-01 -.422E-01   -.653E-02 0.204E-01 0.441E-01   0.165E-02 0.789E-03 -.149E-02   0.404E-06 0.325E-06 0.962E-07
   0.442E-02 0.263E-01 0.177E-01   -.655E-02 -.253E-01 -.194E-01   0.180E-02 -.672E-03 0.138E-02   0.250E-06 0.117E-07 0.496E-07
   0.300E-03 0.635E-01 -.253E-01   0.233E-04 -.642E-01 0.243E-01   0.634E-03 -.142E-02 0.279E-02   -.566E-07 -.703E-06 -.205E-06
   -.435E-03 -.395E-02 0.300E-01   0.241E-04 0.403E-02 -.309E-01   0.418E-03 -.562E-04 0.632E-03   0.207E-06 -.124E-06 -.271E-06
   0.353E-02 0.404E-02 0.228E-01   -.405E-02 -.409E-02 -.220E-01   0.496E-03 0.328E-04 -.529E-03   0.267E-06 0.305E-06 0.475E-08
   0.935E-02 -.173E-02 -.564E-02   -.900E-02 0.110E-02 0.103E-01   -.271E-03 0.478E-03 -.291E-02   0.205E-07 0.163E-06 0.270E-06
   0.103E-01 -.207E-02 -.201E-01   -.810E-02 0.463E-02 0.133E-01   -.301E-02 -.304E-02 0.491E-02   -.490E-06 -.269E-06 0.367E-07
   -.593E-02 -.443E-02 0.205E-02   0.694E-02 0.338E-02 -.207E-02   -.705E-03 0.619E-03 -.161E-03   -.144E-07 -.135E-06 -.395E-06
   0.593E-02 0.443E-02 -.205E-02   -.694E-02 -.338E-02 0.207E-02   0.705E-03 -.619E-03 0.161E-03   0.240E-06 0.136E-06 0.255E-07
   -.103E-01 0.207E-02 0.201E-01   0.810E-02 -.463E-02 -.133E-01   0.301E-02 0.304E-02 -.491E-02   0.323E-06 0.240E-06 0.540E-07
   -.935E-02 0.173E-02 0.564E-02   0.900E-02 -.110E-02 -.103E-01   0.271E-03 -.478E-03 0.291E-02   0.104E-06 -.158E-07 -.324E-06
   0.112E-01 0.250E-02 -.876E-02   -.892E-02 -.236E-02 0.796E-02   -.228E-02 0.645E-04 0.904E-03   -.294E-06 -.120E-06 0.291E-07
   -.112E-01 -.250E-02 0.876E-02   0.892E-02 0.236E-02 -.796E-02   0.228E-02 -.645E-04 -.904E-03   -.108E-06 -.187E-06 0.461E-06
   -.141E-02 -.895E-02 -.301E-02   0.126E-02 0.906E-02 0.322E-02   -.102E-03 0.178E-04 -.415E-03   -.184E-06 0.730E-07 -.321E-06
   0.654E-02 -.203E-02 -.628E-02   -.587E-02 0.110E-02 0.712E-02   -.516E-03 0.790E-03 -.673E-03   -.515E-07 0.269E-06 0.453E-07
   -.692E-02 -.340E-02 0.100E-01   0.799E-02 0.399E-02 -.108E-01   -.875E-03 -.401E-03 0.585E-03   0.931E-07 0.219E-06 -.172E-07
   -.531E-02 -.572E-02 0.465E-02   0.559E-02 0.560E-02 -.368E-02   -.250E-03 0.127E-03 -.749E-03   -.486E-07 0.155E-06 -.301E-06
   0.111E-02 0.182E-01 -.350E-02   0.100E-03 -.169E-01 0.290E-02   -.731E-03 -.144E-02 0.719E-03   -.117E-06 -.129E-06 -.144E-06
   -.610E-02 0.541E-02 0.651E-02   0.669E-02 -.694E-02 -.587E-02   -.403E-03 0.116E-02 -.595E-03   -.102E-06 -.230E-07 0.535E-07
   0.420E-02 0.379E-02 -.130E-01   -.406E-02 -.405E-02 0.124E-01   -.155E-03 0.222E-03 0.402E-03   0.348E-07 0.228E-06 0.105E-06
   0.343E-02 0.695E-02 -.970E-02   -.402E-02 -.803E-02 0.108E-01   0.464E-03 0.938E-03 -.913E-03   -.303E-06 -.960E-07 -.156E-06
   0.113E-02 -.112E-01 0.399E-02   -.102E-02 0.117E-01 -.382E-02   -.843E-04 -.109E-03 -.416E-03   0.159E-06 0.250E-06 0.164E-06
   0.173E-02 -.935E-02 0.317E-02   -.110E-02 0.900E-02 -.265E-02   -.478E-03 0.271E-03 -.461E-03   0.110E-06 0.192E-06 -.339E-06
   0.159E-02 0.471E-02 -.126E-02   -.109E-02 -.423E-02 0.809E-03   -.328E-03 -.394E-03 0.407E-03   0.131E-06 -.212E-06 0.936E-07
   -.159E-02 -.471E-02 0.125E-02   0.109E-02 0.423E-02 -.809E-03   0.328E-03 0.394E-03 -.407E-03   0.148E-06 0.166E-06 0.266E-06
   -.173E-02 0.935E-02 -.317E-02   0.110E-02 -.900E-02 0.265E-02   0.478E-03 -.271E-03 0.461E-03   0.941E-07 -.147E-06 0.241E-06
   -.113E-02 0.112E-01 -.399E-02   0.102E-02 -.117E-01 0.382E-02   0.842E-04 0.109E-03 0.416E-03   0.635E-07 -.327E-06 -.156E-06
   -.990E-03 -.352E-02 0.122E-02   0.102E-02 0.375E-02 -.184E-02   -.689E-04 -.206E-03 0.419E-03   0.827E-07 -.151E-06 -.117E-06
   0.990E-03 0.352E-02 -.122E-02   -.102E-02 -.375E-02 0.184E-02   0.689E-04 0.206E-03 -.419E-03   0.102E-06 -.269E-07 0.121E-06
   0.610E-02 -.541E-02 -.651E-02   -.669E-02 0.694E-02 0.587E-02   0.403E-03 -.116E-02 0.595E-03   -.274E-06 -.587E-07 0.324E-06
   -.111E-02 -.182E-01 0.350E-02   -.100E-03 0.169E-01 -.290E-02   0.731E-03 0.144E-02 -.719E-03   0.744E-07 0.291E-07 0.505E-06
   0.531E-02 0.572E-02 -.465E-02   -.559E-02 -.560E-02 0.368E-02   0.250E-03 -.127E-03 0.749E-03   0.232E-08 -.976E-07 -.123E-06
   0.692E-02 0.340E-02 -.100E-01   -.799E-02 -.399E-02 0.108E-01   0.875E-03 0.401E-03 -.585E-03   -.825E-07 -.166E-06 -.740E-07
   -.654E-02 0.203E-02 0.628E-02   0.587E-02 -.110E-02 -.712E-02   0.516E-03 -.790E-03 0.673E-03   -.745E-07 -.541E-07 -.230E-06
   0.141E-02 0.895E-02 0.301E-02   -.126E-02 -.906E-02 -.322E-02   0.102E-03 -.179E-04 0.415E-03   0.244E-06 0.132E-06 -.112E-06
   -.343E-02 -.695E-02 0.970E-02   0.402E-02 0.803E-02 -.108E-01   -.463E-03 -.938E-03 0.913E-03   -.174E-07 -.855E-07 0.281E-06
   -.420E-02 -.379E-02 0.130E-01   0.406E-02 0.405E-02 -.124E-01   0.155E-03 -.222E-03 -.402E-03   -.104E-06 -.151E-06 -.772E-07
   -.415E-02 -.152E-01 -.312E-01   -.987E-03 0.911E-02 0.424E-01   0.626E-02 0.701E-02 -.625E-02   -.275E-06 -.155E-06 0.286E-07
   0.945E-02 -.531E-02 -.220E-01   -.127E-01 0.342E-02 0.159E-01   0.349E-02 0.258E-02 0.401E-02   0.259E-06 0.321E-06 0.569E-06
   -.641E-01 -.224E-01 0.376E-01   0.667E-01 0.205E-01 -.375E-01   -.169E-03 0.582E-03 -.193E-02   0.519E-06 0.164E-06 -.126E-06
   -.242E-01 -.124E-01 -.134E-01   0.228E-01 0.146E-01 0.143E-01   0.774E-03 -.171E-02 -.549E-03   0.378E-08 -.229E-06 -.288E-06
   0.194E+00 0.209E+00 0.607E-02   -.166E+00 -.182E+00 -.729E-02   -.488E-01 -.478E-01 0.340E-01   -.793E-06 -.752E-06 -.343E-06
   -.242E-01 -.177E-03 0.334E-01   0.170E-01 -.452E-02 -.445E-01   0.832E-02 0.614E-02 0.595E-02   -.124E-06 -.241E-06 0.103E-07
   0.244E-01 -.140E-01 -.385E-01   -.229E-01 0.125E-01 0.385E-01   -.907E-03 0.924E-03 -.177E-03   -.786E-07 0.202E-06 0.604E-06
   0.563E-01 0.283E-02 -.216E-01   -.574E-01 -.303E-02 0.198E-01   -.128E-02 -.376E-03 0.357E-02   -.780E-06 -.659E-07 0.260E-06
   -.300E-03 -.635E-01 0.253E-01   -.233E-04 0.642E-01 -.243E-01   -.635E-03 0.142E-02 -.279E-02   0.150E-06 0.671E-06 -.257E-06
   -.442E-02 -.263E-01 -.177E-01   0.655E-02 0.253E-01 0.194E-01   -.180E-02 0.672E-03 -.138E-02   -.185E-06 0.158E-06 -.330E-06
   -.454E-02 0.216E-01 0.422E-01   0.653E-02 -.204E-01 -.441E-01   -.165E-02 -.789E-03 0.149E-02   -.125E-06 -.408E-06 -.964E-07
   -.205E-01 -.210E-01 0.486E-01   0.204E-01 0.205E-01 -.484E-01   -.228E-03 0.235E-03 0.756E-04   0.759E-07 0.136E-06 -.253E-06
   -.210E-01 0.258E-01 -.333E-01   0.206E-01 -.253E-01 0.335E-01   0.879E-04 -.111E-03 -.365E-03   0.975E-07 -.268E-07 0.308E-06
   -.478E-02 0.639E-01 -.126E-01   0.403E-02 -.645E-01 0.112E-01   -.195E-03 -.146E-02 0.310E-02   -.313E-07 -.790E-06 0.141E-06
   -.353E-02 -.404E-02 -.228E-01   0.405E-02 0.409E-02 0.220E-01   -.496E-03 -.329E-04 0.529E-03   -.138E-06 0.117E-06 -.134E-06
   0.434E-03 0.395E-02 -.300E-01   -.241E-04 -.403E-02 0.309E-01   -.418E-03 0.561E-04 -.632E-03   0.384E-07 0.281E-06 0.468E-06
   0.924E-02 -.547E-02 0.105E-01   -.911E-02 0.693E-02 -.117E-01   -.121E-03 -.116E-02 0.106E-02   -.285E-06 -.430E-07 -.383E-07
   0.590E-02 -.181E-01 0.921E-02   -.463E-02 0.169E-01 -.841E-02   -.785E-03 0.139E-02 -.873E-03   0.504E-09 0.108E-06 -.447E-07
   -.904E-03 0.566E-02 0.106E-02   0.855E-03 -.561E-02 -.183E-02   0.657E-04 -.885E-04 0.581E-03   0.143E-06 -.158E-06 0.137E-07
   0.145E-02 0.383E-02 0.115E-01   -.174E-02 -.400E-02 -.119E-01   0.389E-05 0.378E-04 0.597E-03   -.264E-06 -.152E-06 0.573E-07
   -.916E-02 0.193E-02 -.697E-02   0.901E-02 -.109E-02 0.632E-02   0.834E-04 -.665E-03 0.577E-03   0.933E-07 0.199E-07 0.130E-06
   -.626E-02 0.850E-02 -.583E-02   0.703E-02 -.906E-02 0.647E-02   -.541E-03 0.378E-03 -.487E-03   0.155E-06 -.103E-06 0.149E-06
   -.752E-03 -.671E-02 0.161E-03   0.177E-02 0.801E-02 -.113E-02   -.724E-03 -.111E-02 0.708E-03   -.169E-06 0.145E-06 -.292E-07
   -.421E-02 -.384E-02 -.541E-02   0.475E-02 0.406E-02 0.619E-02   -.545E-03 -.205E-03 -.524E-03   -.720E-07 0.639E-07 -.917E-07
   0.127E-01 -.230E-02 -.420E-02   -.136E-01 0.332E-02 0.323E-02   0.746E-03 -.732E-03 0.768E-03   -.508E-07 0.576E-07 0.451E-06
   0.114E-01 -.616E-02 0.252E-02   -.111E-01 0.532E-02 -.323E-02   -.140E-03 0.182E-03 0.107E-02   -.219E-06 -.292E-06 0.178E-06
   -.556E-02 -.505E-02 -.145E-01   0.564E-02 0.560E-02 0.133E-01   -.608E-04 -.524E-03 0.876E-03   0.127E-06 -.199E-06 -.145E-06
   0.395E-02 0.434E-03 -.396E-02   -.403E-02 -.241E-04 0.436E-02   0.563E-04 -.418E-03 -.138E-03   0.623E-07 0.196E-07 0.287E-06
   -.288E-01 -.133E-02 0.124E-01   0.286E-01 0.426E-02 -.143E-01   0.109E-03 -.232E-02 0.157E-02   0.168E-06 -.208E-06 0.277E-06
   -.118E-01 -.210E-02 -.118E-02   0.121E-01 0.226E-02 0.113E-02   -.118E-03 -.441E-03 0.310E-03   -.940E-07 -.268E-06 -.121E-06
   0.216E-01 -.454E-02 0.156E-01   -.204E-01 0.653E-02 -.177E-01   -.789E-03 -.165E-02 0.171E-02   -.316E-06 -.304E-06 0.328E-06
   -.368E-02 -.317E-02 0.138E-01   0.308E-02 0.304E-02 -.133E-01   0.211E-03 -.252E-03 -.556E-04   0.696E-07 -.228E-07 0.123E-06
 -----------------------------------------------------------------------------------------------
   -.156E-05 0.124E-05 -.200E-05   0.213E-12 -.481E-12 0.345E-13   0.160E-05 -.186E-05 0.264E-05   0.365E-07 0.120E-06 -.903E-07
 
 
 POSITION                                       TOTAL-FORCE (eV/Angst)
 -----------------------------------------------------------------------------------
      1.36715      1.36715      1.35715         0.000477      0.000194      0.130512
      0.00000      0.00000      0.00000        -0.020519     -0.020151     -0.032717
      1.36715      4.10144      4.10144        -0.019001      0.017929      0.030985
      0.00000      2.73429      2.73429         0.019001     -0.017929     -0.030985
      1.36715      6.83573      6.83573         0.020519      0.020151      0.032717
     10.93716     16.40574      5.47858        -0.000477     -0.000194     -0.130512
      1.36715      9.57002      9.57002        -0.001436     -0.001837     -0.001375
      0.00000      8.20287      8.20287         0.001436      0.001837      0.001375
      4.10144      1.36715      4.10144        -0.001545      0.000479      0.000466
      2.73429      0.00000      2.73429        -0.019680      0.020159     -0.032458
      4.10144      4.10144      6.83573        -0.000553     -0.000546     -0.000298
      2.73429      2.73429      5.46858         0.001293     -0.000605     -0.004838
      4.10144      6.83573      9.57002        -0.000072     -0.000625      0.000105
      2.73429      5.46858      8.20287         0.002192      0.001043      0.001530
      4.10144      9.57002     12.30431         0.000560     -0.001335      0.004664
      2.73429      8.20287     10.93716         0.000487      0.000494      0.000297
      6.83573      1.36715      6.83573        -0.000529     -0.000159     -0.000220
      5.46858      0.00000      5.46858        -0.000195     -0.000474     -0.001877
      6.83573      4.10144      9.57002        -0.000230     -0.000428     -0.000049
      5.46858      2.73429      8.20287         0.000230      0.000428      0.000049
      6.83573      6.83573     12.30431         0.000195      0.000474      0.001877
      5.46858      5.46858     10.93716         0.000529      0.000159      0.000220
      6.83573      9.57002     15.03860        -0.000682      0.000203      0.001933
      5.46858      8.20287     13.67145         0.000682     -0.000203     -0.001933
      9.57002      1.36715      9.57002        -0.002192     -0.001043     -0.001530
      8.20287      0.00000      8.20287         0.000072      0.000625     -0.000105
      9.57002      4.10144     12.30431        -0.001293      0.000605      0.004838
      8.20287      2.73429     10.93716         0.000553      0.000546      0.000298
      9.57002      6.83573     15.03860         0.019680     -0.020159      0.032458
      8.20287      5.46858     13.67145         0.001545     -0.000479     -0.000466
      9.57002      9.57002     17.77289        -0.000487     -0.000494     -0.000297
      8.20287      8.20287     16.40574        -0.000560      0.001335     -0.004664
      4.10144      4.10144      1.36715        -0.001163     -0.001438      0.005128
      2.73429      2.73429      0.00000         0.020371      0.020671     -0.032809
      4.10144      6.83573      4.10144         0.000612     -0.000493     -0.000354
      2.73429      5.46858      2.73429        -0.002361      0.001289      0.001820
      4.10144      9.57002      6.83573        -0.000266     -0.000683      0.002007
      2.73429      8.20287      5.46858        -0.001123     -0.000885     -0.004975
      4.10144     12.30431      9.57002         0.002420      0.000575     -0.001837
      2.73429     10.93716      8.20287        -0.000612      0.000549      0.000181
      6.83573      4.10144      4.10144        -0.000172      0.000279     -0.000260
      5.46858      2.73429      2.73429         0.000131     -0.000614      0.000354
      6.83573      6.83573      6.83573         0.000022      0.000008     -0.000259
      5.46858      5.46858      5.46858        -0.000018     -0.000019      0.000351
      6.83573      9.57002      9.57002        -0.000236      0.000655     -0.000354
      5.46858      8.20287      8.20287         0.000226     -0.000290      0.000203
      6.83573     12.30431     12.30431         0.000387      0.000387     -0.000503
      5.46858     10.93716     10.93716        -0.000344     -0.000338      0.000355
      9.57002      4.10144      6.83573        -0.000233      0.000184     -0.000152
      8.20287      2.73429      5.46858         0.000068     -0.000171      0.000071
      9.57002      6.83573      9.57002         0.000292      0.000128     -0.000168
      8.20287      5.46858      8.20287        -0.000017      0.000031      0.000193
      9.57002      9.57002     12.30431        -0.000486     -0.000209      0.000080
      8.20287      8.20287     10.93716        -0.000008     -0.000307      0.000125
      9.57002     12.30431     15.03860         0.000006     -0.000010     -0.000250
      8.20287     10.93716     13.67145        -0.000292     -0.000202      0.000260
     12.30431      4.10144      9.57002         0.000940      0.002056     -0.001650
     10.93716      2.73429      8.20287         0.000353     -0.000339      0.000171
     12.30431      6.83573     12.30431         0.000343      0.000344     -0.000329
     10.93716      5.46858     10.93716        -0.000338     -0.000344      0.000417
     12.30431      9.57002     15.03860        -0.000331      0.000339     -0.000344
     10.93716      8.20287     13.67145         0.000958     -0.002040      0.001727
     12.30431     12.30431     17.77289         0.000008      0.000022     -0.000322
     10.93716     10.93716     16.40574        -0.000022     -0.000022      0.000317
      6.83573      6.83573      1.36715         0.000080     -0.000160      0.001734
      5.46858      5.46858      0.00000        -0.000845     -0.000475     -0.001912
      6.83573      9.57002      4.10144         0.000309     -0.000431     -0.000183
      5.46858      8.20287      2.73429        -0.000309      0.000431      0.000182
      6.83573     12.30431      6.83573         0.000845      0.000475      0.001913
      5.46858     10.93716      5.46858        -0.000080      0.000160     -0.001734
      6.83573     15.03860      9.57002         0.000010      0.000203      0.000106
      5.46858     13.67145      8.20287        -0.000010     -0.000203     -0.000106
      9.57002      6.83573      4.10144        -0.000249      0.000126     -0.000211
      8.20287      5.46858      2.73429         0.000158     -0.000146      0.000173
      9.57002      9.57002      6.83573         0.000200      0.000186     -0.000202
      8.20287      8.20287      5.46858         0.000031      0.000006      0.000225
      9.57002     12.30431      9.57002         0.000476     -0.000185      0.000116
      8.20287     10.93716      8.20287         0.000191     -0.000365      0.000049
      9.57002     15.03860     12.30431        -0.000010     -0.000035     -0.000191
      8.20287     13.67145     10.93716        -0.000127     -0.000142      0.000201
     12.30431      6.83573      6.83573         0.000026      0.000395     -0.000247
     10.93716      5.46858      5.46858         0.000159     -0.000080      0.000058
     12.30431      9.57002      9.57002         0.000170      0.000082     -0.000039
     10.93716      8.20287      8.20287        -0.000170     -0.000082      0.000039
     12.30431     12.30431     12.30431        -0.000159      0.000080     -0.000058
     10.93716     10.93716     10.93716        -0.000026     -0.000395      0.000247
     12.30431     15.03860     15.03860        -0.000036      0.000025     -0.000201
     10.93716     13.67145     13.67145         0.000036     -0.000025      0.000201
     15.03860      6.83573      9.57002        -0.000191      0.000365     -0.000049
     13.67145      5.46858      8.20287        -0.000476      0.000185     -0.000116
     15.03860      9.57002     12.30431        -0.000031     -0.000006     -0.000225
     13.67145      8.20287     10.93716        -0.000200     -0.000187      0.000202
     15.03860     12.30431     15.03860        -0.000158      0.000146     -0.000173
     13.67145     10.93716     13.67145         0.000249     -0.000126      0.000211
     15.03860     15.03860     17.77289         0.000127      0.000142     -0.000201
     13.67145     13.67145     16.40574         0.000010      0.000035      0.000191
      9.57002      9.57002      1.36715         0.001123      0.000885      0.004975
      8.20287      8.20287      0.00000         0.000266      0.000683     -0.002007
      9.57002     12.30431      4.10144         0.002361     -0.001289     -0.001820
      8.20287     10.93716      2.73429        -0.000612      0.000493      0.000354
      9.57002     15.03860      6.83573        -0.020371     -0.020671      0.032809
      8.20287     13.67145      5.46858         0.001163      0.001438     -0.005128
      9.57002     17.77289      9.57002         0.000612     -0.000549     -0.000181
      8.20287     16.40574      8.20287        -0.002420     -0.000575      0.001837
     12.30431      9.57002      4.10144        -0.000958      0.002040     -0.001727
     10.93716      8.20287      2.73429         0.000331     -0.000339      0.000344
     12.30431     12.30431      6.83573         0.000338      0.000344     -0.000417
     10.93716     10.93716      5.46858        -0.000343     -0.000344      0.000329
     12.30431     15.03860      9.57002        -0.000353      0.000339     -0.000171
     10.93716     13.67145      8.20287        -0.000940     -0.002056      0.001650
     12.30431     17.77289     12.30431         0.000022      0.000022     -0.000317
     10.93716     16.40574     10.93716        -0.000008     -0.000022      0.000322
     15.03860      9.57002      6.83573         0.000008      0.000307     -0.000125
     13.67145      8.20287      5.46858         0.000486      0.000209     -0.000080
     15.03860     12.30431      9.57002         0.000017     -0.000031     -0.000193
     13.67145     10.93716      8.20287        -0.000292     -0.000128      0.000168
     15.03860     15.03860     12.30431        -0.000068      0.000171     -0.000072
     13.67145     13.67145     10.93716         0.000233     -0.000184      0.000152
     15.03860     17.77289     15.03860         0.000292      0.000202     -0.000260
     13.67145     16.40574     13.67145        -0.000006      0.000010      0.000250
     17.77289      9.57002      9.57002        -0.000226      0.000290     -0.000203
     16.40574      8.20287      8.20287         0.000236     -0.000655      0.000355
     17.77289     12.30431     12.30431         0.000018      0.000019     -0.000351
     16.40574     10.93716     10.93716        -0.000022     -0.000008      0.000259
     17.77289     15.03860     15.03860        -0.000131      0.000614     -0.000354
     16.40574     13.67145     13.67145         0.000172     -0.000279      0.000260
     17.77289     17.77289     17.77289         0.000344      0.000338     -0.000355
     16.40574     16.40574     16.40574        -0.000387     -0.000387      0.000503
 -----------------------------------------------------------------------------------
    total drift:                                0.000000     -0.000001      0.000001


--------------------------------------------------------------------------------------------------------



  FREE ENERGIE OF THE ION-ELECTRON SYSTEM (eV)
  ---------------------------------------------------
  free  energy   TOTEN  =      -682.56819444 eV

  energy  without entropy=     -682.56819444  energy(sigma->0) =     -682.56819444
 


--------------------------------------------------------------------------------------------------------


    POTLOK:  cpu time    0.4926: real time    0.4937


--------------------------------------------------------------------------------------------------------


     LOOP+:  cpu time  120.4006: real time  120.7373
    4ORBIT:  cpu time    0.0000: real time    0.0000

 total amount of memory used by VASP MPI-rank0   118934. kBytes
=======================================================================

   base      :      30000. kBytes
   nonl-proj :       7011. kBytes
   fftplans  :      53058. kBytes
   grid      :      20148. kBytes
   one-center:         21. kBytes
   wavefun   :       8696. kBytes
 
  
  
 General timing and accounting informations for this job:
 ========================================================
  
                  Total CPU time used (sec):      128.158
                            User time (sec):      126.294
                          System time (sec):        1.864
                         Elapsed time (sec):      128.583
  
                   Maximum memory used (kb):      241584.
                   Average memory used (kb):           0.
  
                          Minor page faults:        78798
                          Major page faults:            0
                 Voluntary context switches:          482
