 vasp.5.4.4.18Apr17-6-g9f103f2a35 (build Aug 16 2020 16:33:06) complex          
  
 executed on             LinuxIFC date 2026.08.15  14:24:28
 running on   40 total cores
 distrk:  each k-point on   40 cores,    1 groups
 distr:  one band on NCORES_PER_BAND=  20 cores,    2 groups


--------------------------------------------------------------------------------------------------------


 INCAR:
 POTCAR:   PAW_PBE Si 05Jan2001                   

 ----------------------------------------------------------------------------- 
|                                                                             |
|           W    W    AA    RRRRR   N    N  II  N    N   GGGG   !!!           |
|           W    W   A  A   R    R  NN   N  II  NN   N  G    G  !!!           |
|           W    W  A    A  R    R  N N  N  II  N N  N  G       !!!           |
|           W WW W  AAAAAA  RRRRR   N  N N  II  N  N N  G  GGG   !            |
|           WW  WW  A    A  R   R   N   NN  II  N   NN  G    G                |
|           W    W  A    A  R    R  N    N  II  N    N   GGGG   !!!           |
|                                                                             |
|      For optimal performance we recommend to set                            |
|        NCORE= 4 - approx SQRT( number of cores)                             |
|      NCORE specifies how many cores store one orbital (NPAR=cpu/NCORE).     |
|      This setting can  greatly improve the performance of VASP for DFT.     |
|      The default,   NCORE=1            might be grossly inefficient         |
|      on modern multi-core architectures or massively parallel machines.     |
|      Do your own testing !!!!                                               |
|      Unfortunately you need to use the default for GW and RPA calculations. |
|      (for HF NCORE is supported but not extensively tested yet)             |
|                                                                             |
 ----------------------------------------------------------------------------- 

 POTCAR:   PAW_PBE Si 05Jan2001                   
   VRHFIN =Si: s2p2                                                             
   LEXCH  = PE                                                                  
   EATOM  =   103.0669 eV,    7.5752 Ry                                         
                                                                                
   TITEL  = PAW_PBE Si 05Jan2001                                                
   LULTRA =        F    use ultrasoft PP ?                                      
   IUNSCR =        1    unscreen: 0-lin 1-nonlin 2-no                           
   RPACOR =    1.500    partial core radius                                     
   POMASS =   28.085; ZVAL   =    4.000    mass and valenz                      
   RCORE  =    1.900    outmost cutoff radius                                   
   RWIGS  =    2.480; RWIGS  =    1.312    wigner-seitz radius (au A)           
   ENMAX  =  245.345; ENMIN  =  184.009 eV                                      
   ICORE  =        2    local potential                                         
   LCOR   =        T    correct aug charges                                     
   LPAW   =        T    paw PP                                                  
   EAUG   =  322.069                                                            
   DEXC   =    -.007                                                            
   RMAX   =    2.944    core radius for proj-oper                               
   RAUG   =    1.300    factor for augmentation sphere                          
   RDEP   =    1.993    radius for radial grids                                 
   QCUT   =   -4.246; QGAM   =    8.493    optimization parameters              
                                                                                
   Description                                                                  
     l     E      TYP  RCUT    TYP  RCUT                                        
     0   .000     23  1.900                                                     
     0   .000     23  1.900                                                     
     1   .000     23  1.900                                                     
     1   .000     23  1.900                                                     
     2   .000      7  1.900                                                     
  local pseudopotential read in
  partial core-charges read in
  atomic valenz-charges read in
  non local Contribution for L=           0  read in
    real space projection operators read in
  non local Contribution for L=           0  read in
    real space projection operators read in
  non local Contribution for L=           1  read in
    real space projection operators read in
  non local Contribution for L=           1  read in
    real space projection operators read in
    PAW grid and wavefunctions read in
 
   number of l-projection  operators is LMAX  =           4
   number of lm-projection operators is LMMAX =           8
 

 ----------------------------------------------------------------------------- 
|                                                                             |
|  ADVICE TO THIS USER RUNNING 'VASP/VAMP'   (HEAR YOUR MASTER'S VOICE ...):  |
|                                                                             |
|      You have a (more or less) 'large supercell' and for larger cells       |
|      it might be more efficient to use real space projection operators      |
|      So try LREAL= Auto  in the INCAR   file.                               |
|      Mind: If you want to do a very accurate calculations keep the          |
|      reciprocal projection scheme          (i.e. LREAL=.FALSE.)             |
|                                                                             |
 ----------------------------------------------------------------------------- 

 PAW_PBE Si 05Jan2001                   :
 energy of atom  1       EATOM= -103.0669
 kinetic energy error for atom=    0.0006 (will be added to EATOM!!)
 
 
 POSCAR: Si                                      
  positions in direct lattice
  No initial velocities read in
 exchange correlation table for  LEXCH =        8
   RHO(1)=    0.500       N(1)  =     2000
   RHO(2)=  100.500       N(2)  =     4000
 


--------------------------------------------------------------------------------------------------------


 ion  position               nearest neighbor table
   1  0.062  0.063  0.062-  10 2.36   2 2.36   4 2.37  34 2.37
   2  0.000  0.000  0.000-   1 2.36   7 2.37  25 2.37  97 2.37
   3  0.312  0.062  0.062-   4 2.37   6 2.37  12 2.37  36 2.37
   4  0.250  0.000  0.000-   3 2.37  27 2.37  99 2.37   1 2.37
   5  0.562  0.062  0.062-   6 2.37   8 2.37  14 2.37  38 2.37
   6  0.500  0.000  0.000-   3 2.37   5 2.37  29 2.37 101 2.37
   7  0.812  0.062  0.062-   2 2.37   8 2.37  16 2.37  40 2.37
   8  0.750  0.000  0.000-   5 2.37   7 2.37  31 2.37 103 2.37
   9  0.062  0.312  0.062-  10 2.37  12 2.37  18 2.37  42 2.37
  10  0.000  0.250  0.000-   1 2.36   9 2.37  15 2.37 105 2.37
  11  0.312  0.312  0.062-  12 2.37  14 2.37  20 2.37  44 2.37
  12  0.250  0.250  0.000-   3 2.37   9 2.37  11 2.37 107 2.37
  13  0.562  0.312  0.062-  14 2.37  16 2.37  22 2.37  46 2.37
  14  0.500  0.250  0.000-   5 2.37  11 2.37  13 2.37 109 2.37
  15  0.812  0.312  0.062-  10 2.37  16 2.37  24 2.37  48 2.37
  16  0.750  0.250  0.000-   7 2.37  13 2.37  15 2.37 111 2.37
  17  0.062  0.562  0.062-  18 2.37  20 2.37  26 2.37  50 2.37
  18  0.000  0.500  0.000-   9 2.37  17 2.37  23 2.37 113 2.37
  19  0.312  0.562  0.062-  20 2.37  22 2.37  28 2.37  52 2.37
  20  0.250  0.500  0.000-  11 2.37  17 2.37  19 2.37 115 2.37
  21  0.562  0.562  0.062-  22 2.37  24 2.37  30 2.37  54 2.37
  22  0.500  0.500  0.000-  13 2.37  19 2.37  21 2.37 117 2.37
  23  0.812  0.562  0.062-  18 2.37  24 2.37  32 2.37  56 2.37
  24  0.750  0.500  0.000-  15 2.37  21 2.37  23 2.37 119 2.37
  25  0.062  0.812  0.062-   2 2.37  26 2.37  28 2.37  58 2.37
  26  0.000  0.750  0.000-  17 2.37  25 2.37  31 2.37 121 2.37
  27  0.312  0.812  0.062-   4 2.37  28 2.37  30 2.37  60 2.37
  28  0.250  0.750  0.000-  19 2.37  25 2.37  27 2.37 123 2.37
  29  0.562  0.812  0.062-   6 2.37  30 2.37  32 2.37  62 2.37
  30  0.500  0.750  0.000-  21 2.37  27 2.37  29 2.37 125 2.37
  31  0.812  0.812  0.062-   8 2.37  26 2.37  32 2.37  64 2.37
  32  0.750  0.750  0.000-  23 2.37  29 2.37  31 2.37 127 2.37
  33  0.062  0.062  0.312-  34 2.37  36 2.37  42 2.37  66 2.37
  34  0.000  0.000  0.250-  33 2.37  39 2.37  57 2.37   1 2.37
  35  0.312  0.062  0.312-  36 2.37  38 2.37  44 2.37  68 2.37
  36  0.250  0.000  0.250-   3 2.37  33 2.37  35 2.37  59 2.37
  37  0.562  0.062  0.312-  38 2.37  40 2.37  46 2.37  70 2.37
  38  0.500  0.000  0.250-   5 2.37  35 2.37  37 2.37  61 2.37
  39  0.812  0.062  0.312-  34 2.37  40 2.37  48 2.37  72 2.37
  40  0.750  0.000  0.250-   7 2.37  37 2.37  39 2.37  63 2.37
  41  0.062  0.312  0.312-  42 2.37  44 2.37  50 2.37  74 2.37
  42  0.000  0.250  0.250-   9 2.37  33 2.37  41 2.37  47 2.37
  43  0.312  0.312  0.312-  44 2.37  46 2.37  52 2.37  76 2.37
  44  0.250  0.250  0.250-  11 2.37  35 2.37  41 2.37  43 2.37
  45  0.562  0.312  0.312-  46 2.37  48 2.37  54 2.37  78 2.37
  46  0.500  0.250  0.250-  13 2.37  37 2.37  43 2.37  45 2.37
  47  0.812  0.312  0.312-  42 2.37  48 2.37  56 2.37  80 2.37
  48  0.750  0.250  0.250-  15 2.37  39 2.37  45 2.37  47 2.37
  49  0.062  0.562  0.312-  50 2.37  52 2.37  58 2.37  82 2.37
  50  0.000  0.500  0.250-  17 2.37  41 2.37  49 2.37  55 2.37
  51  0.312  0.562  0.312-  52 2.37  54 2.37  60 2.37  84 2.37
  52  0.250  0.500  0.250-  19 2.37  43 2.37  49 2.37  51 2.37
  53  0.562  0.562  0.312-  54 2.37  56 2.37  62 2.37  86 2.37
  54  0.500  0.500  0.250-  21 2.37  45 2.37  51 2.37  53 2.37
  55  0.812  0.562  0.312-  50 2.37  56 2.37  64 2.37  88 2.37
  56  0.750  0.500  0.250-  23 2.37  47 2.37  53 2.37  55 2.37
  57  0.062  0.812  0.312-  34 2.37  58 2.37  60 2.37  90 2.37
  58  0.000  0.750  0.250-  25 2.37  49 2.37  57 2.37  63 2.37
  59  0.312  0.812  0.312-  36 2.37  60 2.37  62 2.37  92 2.37
  60  0.250  0.750  0.250-  27 2.37  51 2.37  57 2.37  59 2.37
  61  0.562  0.812  0.312-  38 2.37  62 2.37  64 2.37  94 2.37
  62  0.500  0.750  0.250-  29 2.37  53 2.37  59 2.37  61 2.37
  63  0.812  0.812  0.312-  40 2.37  58 2.37  64 2.37  96 2.37
  64  0.750  0.750  0.250-  31 2.37  55 2.37  61 2.37  63 2.37
  65  0.062  0.062  0.562-  66 2.37  68 2.37  74 2.37  98 2.37
  66  0.000  0.000  0.500-  33 2.37  65 2.37  71 2.37  89 2.37
  67  0.312  0.062  0.562-  68 2.37  70 2.37  76 2.37 100 2.37
  68  0.250  0.000  0.500-  35 2.37  65 2.37  67 2.37  91 2.37
  69  0.562  0.062  0.562-  70 2.37  72 2.37  78 2.37 102 2.37
  70  0.500  0.000  0.500-  37 2.37  67 2.37  69 2.37  93 2.37
  71  0.812  0.062  0.562-  66 2.37  72 2.37  80 2.37 104 2.37
  72  0.750  0.000  0.500-  39 2.37  69 2.37  71 2.37  95 2.37
  73  0.062  0.312  0.562-  74 2.37  76 2.37  82 2.37 106 2.37
  74  0.000  0.250  0.500-  41 2.37  65 2.37  73 2.37  79 2.37
  75  0.312  0.312  0.562-  76 2.37  78 2.37  84 2.37 108 2.37
  76  0.250  0.250  0.500-  43 2.37  67 2.37  73 2.37  75 2.37
  77  0.562  0.312  0.562-  78 2.37  80 2.37  86 2.37 110 2.37
  78  0.500  0.250  0.500-  45 2.37  69 2.37  75 2.37  77 2.37
  79  0.812  0.312  0.562-  74 2.37  80 2.37  88 2.37 112 2.37
  80  0.750  0.250  0.500-  47 2.37  71 2.37  77 2.37  79 2.37
  81  0.062  0.562  0.562-  82 2.37  84 2.37  90 2.37 114 2.37
  82  0.000  0.500  0.500-  49 2.37  73 2.37  81 2.37  87 2.37
  83  0.312  0.562  0.562-  84 2.37  86 2.37  92 2.37 116 2.37
  84  0.250  0.500  0.500-  51 2.37  75 2.37  81 2.37  83 2.37
  85  0.562  0.562  0.562-  86 2.37  88 2.37  94 2.37 118 2.37
  86  0.500  0.500  0.500-  53 2.37  77 2.37  83 2.37  85 2.37
  87  0.812  0.562  0.562-  82 2.37  88 2.37  96 2.37 120 2.37
  88  0.750  0.500  0.500-  55 2.37  79 2.37  85 2.37  87 2.37
  89  0.062  0.812  0.562-  66 2.37  90 2.37  92 2.37 122 2.37
  90  0.000  0.750  0.500-  57 2.37  81 2.37  89 2.37  95 2.37
  91  0.312  0.812  0.562-  68 2.37  92 2.37  94 2.37 124 2.37
  92  0.250  0.750  0.500-  59 2.37  83 2.37  89 2.37  91 2.37
  93  0.562  0.812  0.562-  70 2.37  94 2.37  96 2.37 126 2.37
  94  0.500  0.750  0.500-  61 2.37  85 2.37  91 2.37  93 2.37
  95  0.812  0.812  0.562-  72 2.37  90 2.37  96 2.37 128 2.37
  96  0.750  0.750  0.500-  63 2.37  87 2.37  93 2.37  95 2.37
  97  0.062  0.062  0.812-   2 2.37  98 2.37 100 2.37 106 2.37
  98  0.000  0.000  0.750-  65 2.37  97 2.37 103 2.37 121 2.37
  99  0.312  0.062  0.812-   4 2.37 100 2.37 102 2.37 108 2.37
 100  0.250  0.000  0.750-  67 2.37  97 2.37  99 2.37 123 2.37
 101  0.562  0.062  0.812-   6 2.37 102 2.37 104 2.37 110 2.37
 102  0.500  0.000  0.750-  69 2.37  99 2.37 101 2.37 125 2.37
 103  0.812  0.062  0.812-   8 2.37  98 2.37 104 2.37 112 2.37
 104  0.750  0.000  0.750-  71 2.37 101 2.37 103 2.37 127 2.37
 105  0.062  0.312  0.812-  10 2.37 106 2.37 108 2.37 114 2.37
 106  0.000  0.250  0.750-  73 2.37  97 2.37 105 2.37 111 2.37
 107  0.312  0.312  0.812-  12 2.37 108 2.37 110 2.37 116 2.37
 108  0.250  0.250  0.750-  75 2.37  99 2.37 105 2.37 107 2.37
 109  0.562  0.312  0.812-  14 2.37 110 2.37 112 2.37 118 2.37
 110  0.500  0.250  0.750-  77 2.37 101 2.37 107 2.37 109 2.37
 111  0.812  0.312  0.812-  16 2.37 106 2.37 112 2.37 120 2.37
 112  0.750  0.250  0.750-  79 2.37 103 2.37 109 2.37 111 2.37
 113  0.062  0.562  0.812-  18 2.37 114 2.37 116 2.37 122 2.37
 114  0.000  0.500  0.750-  81 2.37 105 2.37 113 2.37 119 2.37
 115  0.312  0.562  0.812-  20 2.37 116 2.37 118 2.37 124 2.37
 116  0.250  0.500  0.750-  83 2.37 107 2.37 113 2.37 115 2.37
 117  0.562  0.562  0.812-  22 2.37 118 2.37 120 2.37 126 2.37
 118  0.500  0.500  0.750-  85 2.37 109 2.37 115 2.37 117 2.37
 119  0.812  0.562  0.812-  24 2.37 114 2.37 120 2.37 128 2.37
 120  0.750  0.500  0.750-  87 2.37 111 2.37 117 2.37 119 2.37
 121  0.062  0.812  0.812-  26 2.37  98 2.37 122 2.37 124 2.37
 122  0.000  0.750  0.750-  89 2.37 113 2.37 121 2.37 127 2.37
 123  0.312  0.812  0.812-  28 2.37 100 2.37 124 2.37 126 2.37
 124  0.250  0.750  0.750-  91 2.37 115 2.37 121 2.37 123 2.37
 125  0.562  0.812  0.812-  30 2.37 102 2.37 126 2.37 128 2.37
 126  0.500  0.750  0.750-  93 2.37 117 2.37 123 2.37 125 2.37
 127  0.812  0.812  0.812-  32 2.37 104 2.37 122 2.37 128 2.37
 128  0.750  0.750  0.750-  95 2.37 119 2.37 125 2.37 127 2.37
 

IMPORTANT INFORMATION: All symmetrisations will be switched off!
NOSYMM: (Re-)initialisation of all symmetry stuff for point group C_1.

 
 
 KPOINTS: K-Spacing Value to Generate K-Mesh: 0.03

Automatic generation of k-mesh.
Space group operators:
 irot       det(A)        alpha          n_x          n_y          n_z        tau_x        tau_y        tau_z
    1     1.000000     0.000000     1.000000     0.000000     0.000000     0.000000     0.000000     0.000000
 
 Subroutine IBZKPT returns following result:
 ===========================================
 
 Found      1 irreducible k-points:
 
 Following reciprocal coordinates:
            Coordinates               Weight
  0.000000  0.000000  0.000000      1.000000
 
 Following cartesian coordinates:
            Coordinates               Weight
  0.000000  0.000000  0.000000      1.000000
 


--------------------------------------------------------------------------------------------------------




 Dimension of arrays:
   k-points           NKPTS =      1   k-points in BZ     NKDIM =      1   number of bands    NBANDS=    322
   number of dos      NEDOS =    301   number of ions     NIONS =    128
   non local maximal  LDIM  =      4   non local SUM 2l+1 LMDIM =      8
   total plane-waves  NPLWV = ******
   max r-space proj   IRMAX =      1   max aug-charges    IRDMAX= 176819
   dimension x,y,z NGX =   120 NGY =  120 NGZ =  120
   dimension x,y,z NGXF=   240 NGYF=  240 NGZF=  240
   support grid    NGXF=   480 NGYF=  480 NGZF=  480
   ions per type =             128
   NGX,Y,Z   is equivalent  to a cutoff of  12.90, 12.90, 12.90 a.u.
   NGXF,Y,Z  is equivalent  to a cutoff of  25.80, 25.80, 25.80 a.u.

 SYSTEM =  unknown system                          
 POSCAR =  Si                                      

 Startparameter for this run:
   NWRITE =      2    write-flag & timer
   PREC   = accura    normal or accurate (medium, high low for compatibility)
   ISTART =      0    job   : 0-new  1-cont  2-samecut
   ICHARG =      2    charge: 1-file 2-atom 10-const
   ISPIN  =      1    spin polarized calculation?
   LNONCOLLINEAR =      F non collinear calculations
   LSORBIT =      F    spin-orbit coupling
   INIWAV =      1    electr: 0-lowe 1-rand  2-diag
   LASPH  =      F    aspherical Exc in radial PAW
   METAGGA=      F    non-selfconsistent MetaGGA calc.

 Electronic Relaxation 1
   ENCUT  =  500.0 eV  36.75 Ry    6.06 a.u.  28.20 28.20 28.20*2*pi/ulx,y,z
   ENINI  =  500.0     initial cutoff
   ENAUG  =  322.1 eV  augmentation charge cutoff
   NELM   =     60;   NELMIN=  2; NELMDL= -5     # of ELM steps 
   EDIFF  = 0.1E-07   stopping-criterion for ELM
   LREAL  =      F    real-space projection
   NLSPLINE    = F    spline interpolate recip. space projectors
   LCOMPAT=      F    compatible to vasp.4.4
   GGA_COMPAT  = T    GGA compatible to vasp.4.4-vasp.4.6
   LMAXPAW     = -100 max onsite density
   LMAXMIX     =    2 max onsite mixed and CHGCAR
   VOSKOWN=      0    Vosko Wilk Nusair interpolation
   ROPT   =    0.00000
 Ionic relaxation
   EDIFFG = 0.1E-06   stopping-criterion for IOM
   NSW    =      0    number of steps for IOM
   NBLOCK =      1;   KBLOCK =      1    inner block; outer block 
   IBRION =     -1    ionic relax: 0-MD 1-quasi-New 2-CG
   NFREE  =      0    steps in history (QN), initial steepest desc. (CG)
   ISIF   =      2    stress and relaxation
   IWAVPR =     10    prediction:  0-non 1-charg 2-wave 3-comb
   ISYM   =      0    0-nonsym 1-usesym 2-fastsym
   LCORR  =      T    Harris-Foulkes like correction to forces

   POTIM  = 0.5000    time-step for ionic-motion
   TEIN   =    0.0    initial temperature
   TEBEG  =    0.0;   TEEND  =   0.0 temperature during run
   SMASS  =  -3.00    Nose mass-parameter (am)
   estimated Nose-frequenzy (Omega)   =  0.10E-29 period in steps =****** mass=  -0.547E-26a.u.
   SCALEE = 1.0000    scale energy and forces
   NPACO  =    256;   APACO  = 16.0  distance and # of slots for P.C.
   PSTRESS=    0.0 pullay stress

  Mass of Ions in am
   POMASS =  28.09
  Ionic Valenz
   ZVAL   =   4.00
  Atomic Wigner-Seitz radii
   RWIGS  =  -1.00
  virtual crystal weights 
   VCA    =   1.00
   NELECT =     512.0000    total number of electrons
   NUPDOWN=      -1.0000    fix difference up-down

 DOS related values:
   EMIN   =  10.00;   EMAX   =-10.00  energy-range for DOS
   EFERMI =   0.00
   ISMEAR =     0;   SIGMA  =   0.05  broadening in eV -4-tet -1-fermi 0-gaus

 Electronic relaxation 2 (details)
   IALGO  =     38    algorithm
   LDIAG  =      T    sub-space diagonalisation (order eigenvalues)
   LSUBROT=      F    optimize rotation matrix (better conditioning)
   TURBO    =      0    0=normal 1=particle mesh
   IRESTART =      0    0=no restart 2=restart with 2 vectors
   NREBOOT  =      0    no. of reboots
   NMIN     =      0    reboot dimension
   EREF     =   0.00    reference energy to select bands
   IMIX   =      4    mixing-type and parameters
     AMIX     =   0.40;   BMIX     =  1.00
     AMIX_MAG =   1.60;   BMIX_MAG =  1.00
     AMIN     =   0.10
     WC   =   100.;   INIMIX=   1;  MIXPRE=   1;  MAXMIX= -45

 Intra band minimization:
   WEIMIN = 0.0000     energy-eigenvalue tresh-hold
   EBREAK =  0.78E-11  absolut break condition
   DEPER  =   0.30     relativ break condition  

   TIME   =   0.40     timestep for ELM

  volume/ion in A,a.u.               =      20.44       137.95
  Fermi-wavevector in a.u.,A,eV,Ry     =   0.950423  1.796039 12.290193  0.903304
  Thomas-Fermi vector in A             =   2.078798
 
 Write flags
   LWAVE        =      F    write WAVECAR
   LDOWNSAMPLE  =      F    k-point downsampling of WAVECAR
   LCHARG       =      F    write CHGCAR
   LVTOT        =      F    write LOCPOT, total local potential
   LVHAR        =      F    write LOCPOT, Hartree potential only
   LELF         =      F    write electronic localiz. function (ELF)
   LORBIT       =      0    0 simple, 1 ext, 2 COOP (PROOUT), +10 PAW based schemes


 Dipole corrections
   LMONO  =      F    monopole corrections only (constant potential shift)
   LDIPOL =      F    correct potential (dipole corrections)
   IDIPOL =      0    1-x, 2-y, 3-z, 4-all directions 
   EPSILON=  1.0000000 bulk dielectric constant

 Exchange correlation treatment:
   GGA     =    --    GGA type
   LEXCH   =     8    internal setting for exchange type
   VOSKOWN=      0    Vosko Wilk Nusair interpolation
   LHFCALC =     F    Hartree Fock is set to
   LHFONE  =     F    Hartree Fock one center treatment
   AEXX    =    0.0000 exact exchange contribution

 Linear response parameters
   LEPSILON=     F    determine dielectric tensor
   LRPA    =     F    only Hartree local field effects (RPA)
   LNABLA  =     F    use nabla operator in PAW spheres
   LVEL    =     F    velocity operator in full k-point grid
   LINTERFAST=   F  fast interpolation
   KINTER  =     0    interpolate to denser k-point grid
   CSHIFT  =0.1000    complex shift for real part using Kramers Kronig
   OMEGAMAX=  -1.0    maximum frequency
   DEG_THRESHOLD= 0.2000000E-02 threshold for treating states as degnerate
   RTIME   =   -0.100 relaxation time in fs
  (WPLASMAI=    0.000 imaginary part of plasma frequency in eV, 0.658/RTIME)
   DFIELD  = 0.0000000 0.0000000 0.0000000 field for delta impulse in time
 
 Orbital magnetization related:
   ORBITALMAG=     F  switch on orbital magnetization
   LCHIMAG   =     F  perturbation theory with respect to B field
   DQ        =  0.001000  dq finite difference perturbation B field
   LLRAUG    =     F  two centre corrections for induced B field



--------------------------------------------------------------------------------------------------------


 Static calculation
 charge density and potential will be updated during run
 non-spin polarized calculation
 Variant of blocked Davidson
 Davidson routine will perform the subspace rotation
 perform sub-space diagonalisation
    after iterative eigenvector-optimisation
 modified Broyden-mixing scheme, WC =      100.0
 initial mixing is a Kerker type mixing with AMIX =  0.4000 and BMIX =      1.0000
 Hartree-type preconditioning will be used
 using additional bands           66
 reciprocal scheme for non local part
 use partial core corrections
 calculate Harris-corrections to forces 
   (improved forces if not selfconsistent)
 use gradient corrections 
 use of overlap-Matrix (Vanderbilt PP)
 Gauss-broadening in eV      SIGMA  =   0.05


--------------------------------------------------------------------------------------------------------


  energy-cutoff  :      500.00
  volume of cell :     2616.64
      direct lattice vectors                 reciprocal lattice vectors
     0.000000000 10.937160696 10.937160696    -0.045715704  0.045715704  0.045715704
    10.937160696  0.000000000 10.937160696     0.045715704 -0.045715704  0.045715704
    10.937160696 10.937160696  0.000000000     0.045715704  0.045715704 -0.045715704

  length of vectors
    15.467480990 15.467480990 15.467480990     0.079181922  0.079181922  0.079181922


 
 k-points in units of 2pi/SCALE and weight: K-Spacing Value to Generate K-Mesh: 0.03
   0.00000000  0.00000000  0.00000000       1.000
 
 k-points in reciprocal lattice and weights: K-Spacing Value to Generate K-Mesh: 0.03
   0.00000000  0.00000000  0.00000000       1.000
 
 position of ions in fractional coordinates (direct lattice) 
   0.06204284  0.06295716  0.06204284
   0.00000000  0.00000000  0.00000000
   0.31250000  0.06250000  0.06250000
   0.25000000  0.00000000  0.00000000
   0.56250000  0.06250000  0.06250000
   0.50000000  0.00000000  0.00000000
   0.81250000  0.06250000  0.06250000
   0.75000000  0.00000000  0.00000000
   0.06250000  0.31250000  0.06250000
   0.00000000  0.25000000  0.00000000
   0.31250000  0.31250000  0.06250000
   0.25000000  0.25000000  0.00000000
   0.56250000  0.31250000  0.06250000
   0.50000000  0.25000000  0.00000000
   0.81250000  0.31250000  0.06250000
   0.75000000  0.25000000  0.00000000
   0.06250000  0.56250000  0.06250000
   0.00000000  0.50000000  0.00000000
   0.31250000  0.56250000  0.06250000
   0.25000000  0.50000000  0.00000000
   0.56250000  0.56250000  0.06250000
   0.50000000  0.50000000  0.00000000
   0.81250000  0.56250000  0.06250000
   0.75000000  0.50000000  0.00000000
   0.06250000  0.81250000  0.06250000
   0.00000000  0.75000000  0.00000000
   0.31250000  0.81250000  0.06250000
   0.25000000  0.75000000  0.00000000
   0.56250000  0.81250000  0.06250000
   0.50000000  0.75000000  0.00000000
   0.81250000  0.81250000  0.06250000
   0.75000000  0.75000000  0.00000000
   0.06250000  0.06250000  0.31250000
   0.00000000  0.00000000  0.25000000
   0.31250000  0.06250000  0.31250000
   0.25000000  0.00000000  0.25000000
   0.56250000  0.06250000  0.31250000
   0.50000000  0.00000000  0.25000000
   0.81250000  0.06250000  0.31250000
   0.75000000  0.00000000  0.25000000
   0.06250000  0.31250000  0.31250000
   0.00000000  0.25000000  0.25000000
   0.31250000  0.31250000  0.31250000
   0.25000000  0.25000000  0.25000000
   0.56250000  0.31250000  0.31250000
   0.50000000  0.25000000  0.25000000
   0.81250000  0.31250000  0.31250000
   0.75000000  0.25000000  0.25000000
   0.06250000  0.56250000  0.31250000
   0.00000000  0.50000000  0.25000000
   0.31250000  0.56250000  0.31250000
   0.25000000  0.50000000  0.25000000
   0.56250000  0.56250000  0.31250000
   0.50000000  0.50000000  0.25000000
   0.81250000  0.56250000  0.31250000
   0.75000000  0.50000000  0.25000000
   0.06250000  0.81250000  0.31250000
   0.00000000  0.75000000  0.25000000
   0.31250000  0.81250000  0.31250000
   0.25000000  0.75000000  0.25000000
   0.56250000  0.81250000  0.31250000
   0.50000000  0.75000000  0.25000000
   0.81250000  0.81250000  0.31250000
   0.75000000  0.75000000  0.25000000
   0.06250000  0.06250000  0.56250000
   0.00000000  0.00000000  0.50000000
   0.31250000  0.06250000  0.56250000
   0.25000000  0.00000000  0.50000000
   0.56250000  0.06250000  0.56250000
   0.50000000  0.00000000  0.50000000
   0.81250000  0.06250000  0.56250000
   0.75000000  0.00000000  0.50000000
   0.06250000  0.31250000  0.56250000
   0.00000000  0.25000000  0.50000000
   0.31250000  0.31250000  0.56250000
   0.25000000  0.25000000  0.50000000
   0.56250000  0.31250000  0.56250000
   0.50000000  0.25000000  0.50000000
   0.81250000  0.31250000  0.56250000
   0.75000000  0.25000000  0.50000000
   0.06250000  0.56250000  0.56250000
   0.00000000  0.50000000  0.50000000
   0.31250000  0.56250000  0.56250000
   0.25000000  0.50000000  0.50000000
   0.56250000  0.56250000  0.56250000
   0.50000000  0.50000000  0.50000000
   0.81250000  0.56250000  0.56250000
   0.75000000  0.50000000  0.50000000
   0.06250000  0.81250000  0.56250000
   0.00000000  0.75000000  0.50000000
   0.31250000  0.81250000  0.56250000
   0.25000000  0.75000000  0.50000000
   0.56250000  0.81250000  0.56250000
   0.50000000  0.75000000  0.50000000
   0.81250000  0.81250000  0.56250000
   0.75000000  0.75000000  0.50000000
   0.06250000  0.06250000  0.81250000
   0.00000000  0.00000000  0.75000000
   0.31250000  0.06250000  0.81250000
   0.25000000  0.00000000  0.75000000
   0.56250000  0.06250000  0.81250000
   0.50000000  0.00000000  0.75000000
   0.81250000  0.06250000  0.81250000
   0.75000000  0.00000000  0.75000000
   0.06250000  0.31250000  0.81250000
   0.00000000  0.25000000  0.75000000
   0.31250000  0.31250000  0.81250000
   0.25000000  0.25000000  0.75000000
   0.56250000  0.31250000  0.81250000
   0.50000000  0.25000000  0.75000000
   0.81250000  0.31250000  0.81250000
   0.75000000  0.25000000  0.75000000
   0.06250000  0.56250000  0.81250000
   0.00000000  0.50000000  0.75000000
   0.31250000  0.56250000  0.81250000
   0.25000000  0.50000000  0.75000000
   0.56250000  0.56250000  0.81250000
   0.50000000  0.50000000  0.75000000
   0.81250000  0.56250000  0.81250000
   0.75000000  0.50000000  0.75000000
   0.06250000  0.81250000  0.81250000
   0.00000000  0.75000000  0.75000000
   0.31250000  0.81250000  0.81250000
   0.25000000  0.75000000  0.75000000
   0.56250000  0.81250000  0.81250000
   0.50000000  0.75000000  0.75000000
   0.81250000  0.81250000  0.81250000
   0.75000000  0.75000000  0.75000000
 
 position of ions in cartesian coordinates  (Angst):
   1.36714509  1.35714509  1.36714509
   0.00000000  0.00000000  0.00000000
   1.36714509  4.10143526  4.10143526
   0.00000000  2.73429017  2.73429017
   1.36714509  6.83572544  6.83572544
   0.00000000  5.46858035  5.46858035
   1.36714509  9.57001561  9.57001561
   0.00000000  8.20287052  8.20287052
   4.10143526  1.36714509  4.10143526
   2.73429017  0.00000000  2.73429017
   4.10143526  4.10143526  6.83572544
   2.73429017  2.73429017  5.46858035
   4.10143526  6.83572544  9.57001561
   2.73429017  5.46858035  8.20287052
   4.10143526  9.57001561 12.30430578
   2.73429017  8.20287052 10.93716070
   6.83572544  1.36714509  6.83572544
   5.46858035  0.00000000  5.46858035
   6.83572544  4.10143526  9.57001561
   5.46858035  2.73429017  8.20287052
   6.83572544  6.83572544 12.30430578
   5.46858035  5.46858035 10.93716070
   6.83572544  9.57001561 15.03859596
   5.46858035  8.20287052 13.67145087
   9.57001561  1.36714509  9.57001561
   8.20287052  0.00000000  8.20287052
   9.57001561  4.10143526 12.30430578
   8.20287052  2.73429017 10.93716070
   9.57001561  6.83572544 15.03859596
   8.20287052  5.46858035 13.67145087
   9.57001561  9.57001561 17.77288613
   8.20287052  8.20287052 16.40574104
   4.10143526  4.10143526  1.36714509
   2.73429017  2.73429017  0.00000000
   4.10143526  6.83572544  4.10143526
   2.73429017  5.46858035  2.73429017
   4.10143526  9.57001561  6.83572544
   2.73429017  8.20287052  5.46858035
   4.10143526 12.30430578  9.57001561
   2.73429017 10.93716070  8.20287052
   6.83572544  4.10143526  4.10143526
   5.46858035  2.73429017  2.73429017
   6.83572544  6.83572544  6.83572544
   5.46858035  5.46858035  5.46858035
   6.83572544  9.57001561  9.57001561
   5.46858035  8.20287052  8.20287052
   6.83572544 12.30430578 12.30430578
   5.46858035 10.93716070 10.93716070
   9.57001561  4.10143526  6.83572544
   8.20287052  2.73429017  5.46858035
   9.57001561  6.83572544  9.57001561
   8.20287052  5.46858035  8.20287052
   9.57001561  9.57001561 12.30430578
   8.20287052  8.20287052 10.93716070
   9.57001561 12.30430578 15.03859596
   8.20287052 10.93716070 13.67145087
  12.30430578  4.10143526  9.57001561
  10.93716070  2.73429017  8.20287052
  12.30430578  6.83572544 12.30430578
  10.93716070  5.46858035 10.93716070
  12.30430578  9.57001561 15.03859596
  10.93716070  8.20287052 13.67145087
  12.30430578 12.30430578 17.77288613
  10.93716070 10.93716070 16.40574104
   6.83572544  6.83572544  1.36714509
   5.46858035  5.46858035  0.00000000
   6.83572544  9.57001561  4.10143526
   5.46858035  8.20287052  2.73429017
   6.83572544 12.30430578  6.83572544
   5.46858035 10.93716070  5.46858035
   6.83572544 15.03859596  9.57001561
   5.46858035 13.67145087  8.20287052
   9.57001561  6.83572544  4.10143526
   8.20287052  5.46858035  2.73429017
   9.57001561  9.57001561  6.83572544
   8.20287052  8.20287052  5.46858035
   9.57001561 12.30430578  9.57001561
   8.20287052 10.93716070  8.20287052
   9.57001561 15.03859596 12.30430578
   8.20287052 13.67145087 10.93716070
  12.30430578  6.83572544  6.83572544
  10.93716070  5.46858035  5.46858035
  12.30430578  9.57001561  9.57001561
  10.93716070  8.20287052  8.20287052
  12.30430578 12.30430578 12.30430578
  10.93716070 10.93716070 10.93716070
  12.30430578 15.03859596 15.03859596
  10.93716070 13.67145087 13.67145087
  15.03859596  6.83572544  9.57001561
  13.67145087  5.46858035  8.20287052
  15.03859596  9.57001561 12.30430578
  13.67145087  8.20287052 10.93716070
  15.03859596 12.30430578 15.03859596
  13.67145087 10.93716070 13.67145087
  15.03859596 15.03859596 17.77288613
  13.67145087 13.67145087 16.40574104
   9.57001561  9.57001561  1.36714509
   8.20287052  8.20287052  0.00000000
   9.57001561 12.30430578  4.10143526
   8.20287052 10.93716070  2.73429017
   9.57001561 15.03859596  6.83572544
   8.20287052 13.67145087  5.46858035
   9.57001561 17.77288613  9.57001561
   8.20287052 16.40574104  8.20287052
  12.30430578  9.57001561  4.10143526
  10.93716070  8.20287052  2.73429017
  12.30430578 12.30430578  6.83572544
  10.93716070 10.93716070  5.46858035
  12.30430578 15.03859596  9.57001561
  10.93716070 13.67145087  8.20287052
  12.30430578 17.77288613 12.30430578
  10.93716070 16.40574104 10.93716070
  15.03859596  9.57001561  6.83572544
  13.67145087  8.20287052  5.46858035
  15.03859596 12.30430578  9.57001561
  13.67145087 10.93716070  8.20287052
  15.03859596 15.03859596 12.30430578
  13.67145087 13.67145087 10.93716070
  15.03859596 17.77288613 15.03859596
  13.67145087 16.40574104 13.67145087
  17.77288613  9.57001561  9.57001561
  16.40574104  8.20287052  8.20287052
  17.77288613 12.30430578 12.30430578
  16.40574104 10.93716070 10.93716070
  17.77288613 15.03859596 15.03859596
  16.40574104 13.67145087 13.67145087
  17.77288613 17.77288613 17.77288613
  16.40574104 16.40574104 16.40574104
 


--------------------------------------------------------------------------------------------------------


 k-point  1 :   0.0000 0.0000 0.0000  plane waves:   66299

 maximum and minimum number of plane-waves per node :      3320     3310

 maximum number of plane-waves:     66299
 maximum index in each direction: 
   IXMAX=   28   IYMAX=   28   IZMAX=   28
   IXMIN=  -28   IYMIN=  -28   IZMIN=  -28


 parallel 3D FFT for wavefunctions:
    minimum data exchange during FFTs selected (reduces bandwidth)
 parallel 3D FFT for charge:
    minimum data exchange during FFTs selected (reduces bandwidth)


 total amount of memory used by VASP MPI-rank0   118934. kBytes
=======================================================================

   base      :      30000. kBytes
   nonl-proj :       7011. kBytes
   fftplans  :      53058. kBytes
   grid      :      20148. kBytes
   one-center:         21. kBytes
   wavefun   :       8696. kBytes
 
     INWAV:  cpu time    0.0000: real time    0.0000
 Broyden mixing: mesh for mixing (old mesh)
   NGX = 57   NGY = 57   NGZ = 57
  (NGX  =240   NGY  =240   NGZ  =240)
  gives a total of 185193 points

 initial charge density was supplied:
 charge density of overlapping atoms calculated
 number of electron     512.0000000 magnetization 
 keeping initial charge density in first step


--------------------------------------------------------------------------------------------------------


 Maximum index for augmentation-charges         4439 (set IRDMAX)


--------------------------------------------------------------------------------------------------------


 First call to EWALD:  gamma=   0.129
 Maximum number of real-space cells 3x 3x 3
 Maximum number of reciprocal cells 3x 3x 3

    FEWALD:  cpu time    0.0050: real time    0.0050


--------------------------------------- Iteration      1(   1)  ---------------------------------------


    POTLOK:  cpu time    0.2280: real time    0.2356
    SETDIJ:  cpu time    0.2990: real time    0.2999
     EDDAV:  cpu time    4.8138: real time    4.8273
       DOS:  cpu time    0.0005: real time    0.0005
    --------------------------------------------
      LOOP:  cpu time    5.3414: real time    5.3633

 eigenvalue-minimisations  :   644
 total energy-change (2. order) : 0.1374874E+04  (-0.1908718E+05)
 number of electron     512.0000000 magnetization 
 augmentation part      512.0000000 magnetization 

 Free energy of the ion-electron system (eV)
  ---------------------------------------------------
  alpha Z        PSCENC =       210.78028765
  Ewald energy   TEWEN  =    -14524.86756189
  -Hartree energ DENC   =      -724.61925007
  -exchange      EXHF   =         0.00000000
  -V(xc)+E(xc)   XCENC  =     -1195.83150722
  PAW double counting   =      4221.13331941    -1969.18571412
  entropy T*S    EENTRO =        -0.01563040
  eigenvalues    EBANDS =      2164.99914687
  atomic energy  EATOM  =     13192.48085998
  Solvation  Ediel_sol  =         0.00000000
  ---------------------------------------------------
  free energy    TOTEN  =      1374.87395021 eV

  energy without entropy =     1374.88958061  energy(sigma->0) =     1374.88176541


--------------------------------------------------------------------------------------------------------




--------------------------------------- Iteration      1(   2)  ---------------------------------------


     EDDAV:  cpu time    5.4771: real time    5.4938
       DOS:  cpu time    0.0005: real time    0.0005
    --------------------------------------------
      LOOP:  cpu time    5.4776: real time    5.4943

 eigenvalue-minimisations  :   758
 total energy-change (2. order) :-0.1911892E+04  (-0.1811811E+04)
 number of electron     512.0000000 magnetization 
 augmentation part      512.0000000 magnetization 

 Free energy of the ion-electron system (eV)
  ---------------------------------------------------
  alpha Z        PSCENC =       210.78028765
  Ewald energy   TEWEN  =    -14524.86756189
  -Hartree energ DENC   =      -724.61925007
  -exchange      EXHF   =         0.00000000
  -V(xc)+E(xc)   XCENC  =     -1195.83150722
  PAW double counting   =      4221.13331941    -1969.18571412
  entropy T*S    EENTRO =        -0.00000188
  eigenvalues    EBANDS =       253.09141168
  atomic energy  EATOM  =     13192.48085998
  Solvation  Ediel_sol  =         0.00000000
  ---------------------------------------------------
  free energy    TOTEN  =      -537.01815646 eV

  energy without entropy =     -537.01815457  energy(sigma->0) =     -537.01815552


--------------------------------------------------------------------------------------------------------




--------------------------------------- Iteration      1(   3)  ---------------------------------------


     EDDAV:  cpu time    5.4835: real time    5.4975
       DOS:  cpu time    0.0003: real time    0.0003
    --------------------------------------------
      LOOP:  cpu time    5.4839: real time    5.4978

 eigenvalue-minimisations  :   768
 total energy-change (2. order) :-0.1530056E+03  (-0.1483224E+03)
 number of electron     512.0000000 magnetization 
 augmentation part      512.0000000 magnetization 

 Free energy of the ion-electron system (eV)
  ---------------------------------------------------
  alpha Z        PSCENC =       210.78028765
  Ewald energy   TEWEN  =    -14524.86756189
  -Hartree energ DENC   =      -724.61925007
  -exchange      EXHF   =         0.00000000
  -V(xc)+E(xc)   XCENC  =     -1195.83150722
  PAW double counting   =      4221.13331941    -1969.18571412
  entropy T*S    EENTRO =        -0.00000000
  eigenvalues    EBANDS =       100.08580195
  atomic energy  EATOM  =     13192.48085998
  Solvation  Ediel_sol  =         0.00000000
  ---------------------------------------------------
  free energy    TOTEN  =      -690.02376431 eV

  energy without entropy =     -690.02376431  energy(sigma->0) =     -690.02376431


--------------------------------------------------------------------------------------------------------




--------------------------------------- Iteration      1(   4)  ---------------------------------------


     EDDAV:  cpu time    5.3979: real time    5.4139
       DOS:  cpu time    0.0003: real time    0.0003
    --------------------------------------------
      LOOP:  cpu time    5.3982: real time    5.4143

 eigenvalue-minimisations  :   752
 total energy-change (2. order) :-0.4510120E+01  (-0.4454378E+01)
 number of electron     512.0000000 magnetization 
 augmentation part      512.0000000 magnetization 

 Free energy of the ion-electron system (eV)
  ---------------------------------------------------
  alpha Z        PSCENC =       210.78028765
  Ewald energy   TEWEN  =    -14524.86756189
  -Hartree energ DENC   =      -724.61925007
  -exchange      EXHF   =         0.00000000
  -V(xc)+E(xc)   XCENC  =     -1195.83150722
  PAW double counting   =      4221.13331941    -1969.18571412
  entropy T*S    EENTRO =        -0.00000000
  eigenvalues    EBANDS =        95.57568177
  atomic energy  EATOM  =     13192.48085998
  Solvation  Ediel_sol  =         0.00000000
  ---------------------------------------------------
  free energy    TOTEN  =      -694.53388448 eV

  energy without entropy =     -694.53388448  energy(sigma->0) =     -694.53388448


--------------------------------------------------------------------------------------------------------




--------------------------------------- Iteration      1(   5)  ---------------------------------------


     EDDAV:  cpu time    5.5189: real time    5.5385
       DOS:  cpu time    0.0004: real time    0.0004
    CHARGE:  cpu time    0.5038: real time    0.5050
    MIXING:  cpu time    0.0112: real time    0.0114
    --------------------------------------------
      LOOP:  cpu time    6.0343: real time    6.0552

 eigenvalue-minimisations  :   744
 total energy-change (2. order) :-0.1655615E+00  (-0.1647690E+00)
 number of electron     511.9999999 magnetization 
 augmentation part      -29.7895772 magnetization 

 Broyden mixing:
  rms(total) = 0.24757E+01    rms(broyden)= 0.24757E+01
  rms(prec ) = 0.29957E+01
  weight for this iteration     100.00

 Free energy of the ion-electron system (eV)
  ---------------------------------------------------
  alpha Z        PSCENC =       210.78028765
  Ewald energy   TEWEN  =    -14524.86756189
  -Hartree energ DENC   =      -724.61925007
  -exchange      EXHF   =         0.00000000
  -V(xc)+E(xc)   XCENC  =     -1195.83150722
  PAW double counting   =      4221.13331941    -1969.18571412
  entropy T*S    EENTRO =        -0.00000000
  eigenvalues    EBANDS =        95.41012032
  atomic energy  EATOM  =     13192.48085998
  Solvation  Ediel_sol  =         0.00000000
  ---------------------------------------------------
  free energy    TOTEN  =      -694.69944594 eV

  energy without entropy =     -694.69944594  energy(sigma->0) =     -694.69944594


--------------------------------------------------------------------------------------------------------




--------------------------------------- Iteration      1(   6)  ---------------------------------------


    POTLOK:  cpu time    0.2232: real time    0.2252
    SETDIJ:  cpu time    0.2716: real time    0.2724
     EDDAV:  cpu time    5.1414: real time    5.1704
       DOS:  cpu time    0.0004: real time    0.0004
    CHARGE:  cpu time    0.4911: real time    0.4925
    MIXING:  cpu time    0.0113: real time    0.0114
    --------------------------------------------
      LOOP:  cpu time    6.1390: real time    6.1723

 eigenvalue-minimisations  :   696
 total energy-change (2. order) : 0.8398918E+01  (-0.4783303E+00)
 number of electron     511.9999999 magnetization 
 augmentation part      -29.4083847 magnetization 

 Broyden mixing:
  rms(total) = 0.14789E+01    rms(broyden)= 0.14789E+01
  rms(prec ) = 0.17864E+01
  weight for this iteration     100.00

 eigenvalues of (default mixing * dielectric matrix)
  average eigenvalue GAMMA=   2.4618
  2.4618

 Free energy of the ion-electron system (eV)
  ---------------------------------------------------
  alpha Z        PSCENC =       210.78028765
  Ewald energy   TEWEN  =    -14524.86756189
  -Hartree energ DENC   =      -824.84807104
  -exchange      EXHF   =         0.00000000
  -V(xc)+E(xc)   XCENC  =     -1180.31915525
  PAW double counting   =      4464.76494949    -2219.65189645
  entropy T*S    EENTRO =        -0.00000000
  eigenvalues    EBANDS =       195.36005936
  atomic energy  EATOM  =     13192.48085998
  Solvation  Ediel_sol  =         0.00000000
  ---------------------------------------------------
  free energy    TOTEN  =      -686.30052815 eV

  energy without entropy =     -686.30052815  energy(sigma->0) =     -686.30052815


--------------------------------------------------------------------------------------------------------




--------------------------------------- Iteration      1(   7)  ---------------------------------------


    POTLOK:  cpu time    0.2212: real time    0.2218
    SETDIJ:  cpu time    0.2729: real time    0.2736
     EDDAV:  cpu time    4.9075: real time    4.9191
       DOS:  cpu time    0.0004: real time    0.0004
    CHARGE:  cpu time    0.4848: real time    0.4902
    MIXING:  cpu time    0.0119: real time    0.0119
    --------------------------------------------
      LOOP:  cpu time    5.8987: real time    5.9170

 eigenvalue-minimisations  :   664
 total energy-change (2. order) : 0.3872879E+01  (-0.9700095E+00)
 number of electron     511.9999999 magnetization 
 augmentation part      -28.9140680 magnetization 

 Broyden mixing:
  rms(total) = 0.13040E+00    rms(broyden)= 0.13040E+00
  rms(prec ) = 0.15183E+00
  weight for this iteration     100.00

 eigenvalues of (default mixing * dielectric matrix)
  average eigenvalue GAMMA=   2.4933
  2.4933  2.4933

 Free energy of the ion-electron system (eV)
  ---------------------------------------------------
  alpha Z        PSCENC =       210.78028765
  Ewald energy   TEWEN  =    -14524.86756189
  -Hartree energ DENC   =      -991.88434597
  -exchange      EXHF   =         0.00000000
  -V(xc)+E(xc)   XCENC  =     -1153.93862012
  PAW double counting   =      4789.67311733    -2553.37175804
  entropy T*S    EENTRO =        -0.00000000
  eigenvalues    EBANDS =       348.70037205
  atomic energy  EATOM  =     13192.48085998
  Solvation  Ediel_sol  =         0.00000000
  ---------------------------------------------------
  free energy    TOTEN  =      -682.42764901 eV

  energy without entropy =     -682.42764901  energy(sigma->0) =     -682.42764901


--------------------------------------------------------------------------------------------------------




--------------------------------------- Iteration      1(   8)  ---------------------------------------


    POTLOK:  cpu time    0.2213: real time    0.2220
    SETDIJ:  cpu time    0.2722: real time    0.2728
     EDDAV:  cpu time    5.0379: real time    5.0501
       DOS:  cpu time    0.0004: real time    0.0004
    CHARGE:  cpu time    0.4961: real time    0.4973
    MIXING:  cpu time    0.0120: real time    0.0120
    --------------------------------------------
      LOOP:  cpu time    6.0398: real time    6.0546

 eigenvalue-minimisations  :   680
 total energy-change (2. order) :-0.1320809E+00  (-0.4947992E-01)
 number of electron     511.9999999 magnetization 
 augmentation part      -28.9853462 magnetization 

 Broyden mixing:
  rms(total) = 0.28119E-01    rms(broyden)= 0.28118E-01
  rms(prec ) = 0.37990E-01
  weight for this iteration     100.00

 eigenvalues of (default mixing * dielectric matrix)
  average eigenvalue GAMMA=   2.1009
  1.4521  2.7602  2.0902

 Free energy of the ion-electron system (eV)
  ---------------------------------------------------
  alpha Z        PSCENC =       210.78028765
  Ewald energy   TEWEN  =    -14524.86756189
  -Hartree energ DENC   =      -986.32782169
  -exchange      EXHF   =         0.00000000
  -V(xc)+E(xc)   XCENC  =     -1153.99569140
  PAW double counting   =      4718.72708687    -2480.20781548
  entropy T*S    EENTRO =        -0.00000000
  eigenvalues    EBANDS =       340.85092607
  atomic energy  EATOM  =     13192.48085998
  Solvation  Ediel_sol  =         0.00000000
  ---------------------------------------------------
  free energy    TOTEN  =      -682.55972988 eV

  energy without entropy =     -682.55972988  energy(sigma->0) =     -682.55972988


--------------------------------------------------------------------------------------------------------




--------------------------------------- Iteration      1(   9)  ---------------------------------------


    POTLOK:  cpu time    0.2224: real time    0.2247
    SETDIJ:  cpu time    0.2729: real time    0.2735
     EDDAV:  cpu time    5.4747: real time    5.4907
       DOS:  cpu time    0.0004: real time    0.0004
    CHARGE:  cpu time    0.4911: real time    0.4922
    MIXING:  cpu time    0.0115: real time    0.0115
    --------------------------------------------
      LOOP:  cpu time    6.4730: real time    6.4931

 eigenvalue-minimisations  :   768
 total energy-change (2. order) :-0.6418507E-02  (-0.2455495E-02)
 number of electron     511.9999999 magnetization 
 augmentation part      -28.9800610 magnetization 

 Broyden mixing:
  rms(total) = 0.15923E-01    rms(broyden)= 0.15923E-01
  rms(prec ) = 0.18147E-01
  weight for this iteration     100.00

 eigenvalues of (default mixing * dielectric matrix)
  average eigenvalue GAMMA=   2.2889
  1.0209  3.3937  2.7013  2.0398

 Free energy of the ion-electron system (eV)
  ---------------------------------------------------
  alpha Z        PSCENC =       210.78028765
  Ewald energy   TEWEN  =    -14524.86756189
  -Hartree energ DENC   =      -991.21200122
  -exchange      EXHF   =         0.00000000
  -V(xc)+E(xc)   XCENC  =     -1153.27711019
  PAW double counting   =      4725.23947862    -2486.95836719
  entropy T*S    EENTRO =        -0.00000000
  eigenvalues    EBANDS =       345.24826585
  atomic energy  EATOM  =     13192.48085998
  Solvation  Ediel_sol  =         0.00000000
  ---------------------------------------------------
  free energy    TOTEN  =      -682.56614839 eV

  energy without entropy =     -682.56614839  energy(sigma->0) =     -682.56614839


--------------------------------------------------------------------------------------------------------




--------------------------------------- Iteration      1(  10)  ---------------------------------------


    POTLOK:  cpu time    0.2223: real time    0.2267
    SETDIJ:  cpu time    0.2714: real time    0.2721
     EDDAV:  cpu time    5.0103: real time    5.0221
       DOS:  cpu time    0.0004: real time    0.0004
    CHARGE:  cpu time    0.4939: real time    0.4951
    MIXING:  cpu time    0.0108: real time    0.0108
    --------------------------------------------
      LOOP:  cpu time    6.0092: real time    6.0272

 eigenvalue-minimisations  :   680
 total energy-change (2. order) :-0.2685589E-02  (-0.5921368E-03)
 number of electron     511.9999999 magnetization 
 augmentation part      -28.9811123 magnetization 

 Broyden mixing:
  rms(total) = 0.48201E-02    rms(broyden)= 0.48201E-02
  rms(prec ) = 0.57694E-02
  weight for this iteration     100.00

 eigenvalues of (default mixing * dielectric matrix)
  average eigenvalue GAMMA=   1.9817
  3.2402  2.6130  2.1574  1.0563  0.8416

 Free energy of the ion-electron system (eV)
  ---------------------------------------------------
  alpha Z        PSCENC =       210.78028765
  Ewald energy   TEWEN  =    -14524.86756189
  -Hartree energ DENC   =      -991.21849205
  -exchange      EXHF   =         0.00000000
  -V(xc)+E(xc)   XCENC  =     -1153.35188976
  PAW double counting   =      4721.45836463    -2483.15894491
  entropy T*S    EENTRO =        -0.00000000
  eigenvalues    EBANDS =       345.30854238
  atomic energy  EATOM  =     13192.48085998
  Solvation  Ediel_sol  =         0.00000000
  ---------------------------------------------------
  free energy    TOTEN  =      -682.56883398 eV

  energy without entropy =     -682.56883398  energy(sigma->0) =     -682.56883398


--------------------------------------------------------------------------------------------------------




--------------------------------------- Iteration      1(  11)  ---------------------------------------


    POTLOK:  cpu time    0.2210: real time    0.2217
    SETDIJ:  cpu time    0.2726: real time    0.2733
     EDDAV:  cpu time    5.4659: real time    5.4822
       DOS:  cpu time    0.0004: real time    0.0004
    CHARGE:  cpu time    0.4916: real time    0.4928
    MIXING:  cpu time    0.0113: real time    0.0114
    --------------------------------------------
      LOOP:  cpu time    6.4628: real time    6.4817

 eigenvalue-minimisations  :   760
 total energy-change (2. order) :-0.1312947E-04  (-0.1990195E-04)
 number of electron     511.9999999 magnetization 
 augmentation part      -28.9796316 magnetization 

 Broyden mixing:
  rms(total) = 0.50734E-03    rms(broyden)= 0.50725E-03
  rms(prec ) = 0.58298E-03
  weight for this iteration     100.00

 eigenvalues of (default mixing * dielectric matrix)
  average eigenvalue GAMMA=   2.0447
  3.3674  2.6927  2.2466  2.0066  0.9774  0.9774

 Free energy of the ion-electron system (eV)
  ---------------------------------------------------
  alpha Z        PSCENC =       210.78028765
  Ewald energy   TEWEN  =    -14524.86756189
  -Hartree energ DENC   =      -991.68812950
  -exchange      EXHF   =         0.00000000
  -V(xc)+E(xc)   XCENC  =     -1153.28859633
  PAW double counting   =      4723.29801806    -2485.04315956
  entropy T*S    EENTRO =        -0.00000000
  eigenvalues    EBANDS =       345.75943448
  atomic energy  EATOM  =     13192.48085998
  Solvation  Ediel_sol  =         0.00000000
  ---------------------------------------------------
  free energy    TOTEN  =      -682.56884711 eV

  energy without entropy =     -682.56884711  energy(sigma->0) =     -682.56884711


--------------------------------------------------------------------------------------------------------




--------------------------------------- Iteration      1(  12)  ---------------------------------------


    POTLOK:  cpu time    0.2209: real time    0.2216
    SETDIJ:  cpu time    0.2742: real time    0.2749
     EDDAV:  cpu time    5.2985: real time    5.3142
       DOS:  cpu time    0.0004: real time    0.0004
    CHARGE:  cpu time    0.4910: real time    0.4922
    MIXING:  cpu time    0.0122: real time    0.0123
    --------------------------------------------
      LOOP:  cpu time    6.2973: real time    6.3155

 eigenvalue-minimisations  :   736
 total energy-change (2. order) :-0.6109694E-05  (-0.1297618E-05)
 number of electron     511.9999999 magnetization 
 augmentation part      -28.9793010 magnetization 

 Broyden mixing:
  rms(total) = 0.19493E-03    rms(broyden)= 0.19470E-03
  rms(prec ) = 0.22853E-03
  weight for this iteration     100.00

 eigenvalues of (default mixing * dielectric matrix)
  average eigenvalue GAMMA=   1.9321
  3.3075  2.6990  2.2793  2.2793  1.0279  1.0279  0.9034

 Free energy of the ion-electron system (eV)
  ---------------------------------------------------
  alpha Z        PSCENC =       210.78028765
  Ewald energy   TEWEN  =    -14524.86756189
  -Hartree energ DENC   =      -991.74598104
  -exchange      EXHF   =         0.00000000
  -V(xc)+E(xc)   XCENC  =     -1153.28558780
  PAW double counting   =      4723.46585360    -2485.20835389
  entropy T*S    EENTRO =        -0.00000000
  eigenvalues    EBANDS =       345.81163017
  atomic energy  EATOM  =     13192.48085998
  Solvation  Ediel_sol  =         0.00000000
  ---------------------------------------------------
  free energy    TOTEN  =      -682.56885322 eV

  energy without entropy =     -682.56885322  energy(sigma->0) =     -682.56885322


--------------------------------------------------------------------------------------------------------




--------------------------------------- Iteration      1(  13)  ---------------------------------------


    POTLOK:  cpu time    0.2207: real time    0.2213
    SETDIJ:  cpu time    0.2738: real time    0.2745
     EDDAV:  cpu time    5.3436: real time    5.3562
       DOS:  cpu time    0.0004: real time    0.0004
    CHARGE:  cpu time    0.4912: real time    0.4923
    MIXING:  cpu time    0.0119: real time    0.0119
    --------------------------------------------
      LOOP:  cpu time    6.3416: real time    6.3567

 eigenvalue-minimisations  :   744
 total energy-change (2. order) : 0.5137994E-05  (-0.6082931E-07)
 number of electron     511.9999999 magnetization 
 augmentation part      -28.9794618 magnetization 

 Broyden mixing:
  rms(total) = 0.53464E-04    rms(broyden)= 0.52599E-04
  rms(prec ) = 0.62685E-04
  weight for this iteration     100.00

 eigenvalues of (default mixing * dielectric matrix)
  average eigenvalue GAMMA=   1.8761
  3.3046  2.6982  2.4866  2.1439  0.9658  0.9559  1.2269  1.2269

 Free energy of the ion-electron system (eV)
  ---------------------------------------------------
  alpha Z        PSCENC =       210.78028765
  Ewald energy   TEWEN  =    -14524.86756189
  -Hartree energ DENC   =      -991.72918750
  -exchange      EXHF   =         0.00000000
  -V(xc)+E(xc)   XCENC  =     -1153.28649211
  PAW double counting   =      4723.39854765    -2485.13669408
  entropy T*S    EENTRO =        -0.00000000
  eigenvalues    EBANDS =       345.79139222
  atomic energy  EATOM  =     13192.48085998
  Solvation  Ediel_sol  =         0.00000000
  ---------------------------------------------------
  free energy    TOTEN  =      -682.56884808 eV

  energy without entropy =     -682.56884808  energy(sigma->0) =     -682.56884808


--------------------------------------------------------------------------------------------------------




--------------------------------------- Iteration      1(  14)  ---------------------------------------


    POTLOK:  cpu time    0.2221: real time    0.2227
    SETDIJ:  cpu time    0.2727: real time    0.2733
     EDDAV:  cpu time    5.1311: real time    5.1466
       DOS:  cpu time    0.0004: real time    0.0004
    CHARGE:  cpu time    0.4963: real time    0.4974
    MIXING:  cpu time    0.0132: real time    0.0133
    --------------------------------------------
      LOOP:  cpu time    6.1358: real time    6.1537

 eigenvalue-minimisations  :   696
 total energy-change (2. order) :-0.7132476E-06  (-0.7734006E-08)
 number of electron     511.9999999 magnetization 
 augmentation part      -28.9794372 magnetization 

 Broyden mixing:
  rms(total) = 0.33516E-04    rms(broyden)= 0.32119E-04
  rms(prec ) = 0.41503E-04
  weight for this iteration     100.00

 eigenvalues of (default mixing * dielectric matrix)
  average eigenvalue GAMMA=   1.8200
  3.2920  2.7270  2.4352  2.2578  1.3571  1.3571  0.9353  1.0093  1.0093

 Free energy of the ion-electron system (eV)
  ---------------------------------------------------
  alpha Z        PSCENC =       210.78028765
  Ewald energy   TEWEN  =    -14524.86756189
  -Hartree energ DENC   =      -991.73671221
  -exchange      EXHF   =         0.00000000
  -V(xc)+E(xc)   XCENC  =     -1153.28554263
  PAW double counting   =      4723.42506653    -2485.16362964
  entropy T*S    EENTRO =        -0.00000000
  eigenvalues    EBANDS =       345.79838341
  atomic energy  EATOM  =     13192.48085998
  Solvation  Ediel_sol  =         0.00000000
  ---------------------------------------------------
  free energy    TOTEN  =      -682.56884879 eV

  energy without entropy =     -682.56884879  energy(sigma->0) =     -682.56884879


--------------------------------------------------------------------------------------------------------




--------------------------------------- Iteration      1(  15)  ---------------------------------------


    POTLOK:  cpu time    0.2226: real time    0.2253
    SETDIJ:  cpu time    0.2735: real time    0.2741
     EDDAV:  cpu time    3.5266: real time    3.5351
       DOS:  cpu time    0.0004: real time    0.0004
    CHARGE:  cpu time    0.4926: real time    0.4938
    MIXING:  cpu time    0.0130: real time    0.0131
    --------------------------------------------
      LOOP:  cpu time    4.5286: real time    4.5418

 eigenvalue-minimisations  :   408
 total energy-change (2. order) : 0.8501265E-06  (-0.1951280E-08)
 number of electron     511.9999999 magnetization 
 augmentation part      -28.9794596 magnetization 

 Broyden mixing:
  rms(total) = 0.11507E-04    rms(broyden)= 0.63771E-05
  rms(prec ) = 0.69840E-05
  weight for this iteration     100.00
  WARNING: grid for Broyden might be to small

 eigenvalues of (default mixing * dielectric matrix)
  average eigenvalue GAMMA=   1.8267
  3.2977  2.6772  2.5810  2.1038  2.1038  0.9427  0.9880  1.0321  1.2703  1.2703

 Free energy of the ion-electron system (eV)
  ---------------------------------------------------
  alpha Z        PSCENC =       210.78028765
  Ewald energy   TEWEN  =    -14524.86756189
  -Hartree energ DENC   =      -991.73195601
  -exchange      EXHF   =         0.00000000
  -V(xc)+E(xc)   XCENC  =     -1153.28601676
  PAW double counting   =      4723.40691031    -2485.14487587
  entropy T*S    EENTRO =        -0.00000000
  eigenvalues    EBANDS =       345.79350463
  atomic energy  EATOM  =     13192.48085998
  Solvation  Ediel_sol  =         0.00000000
  ---------------------------------------------------
  free energy    TOTEN  =      -682.56884794 eV

  energy without entropy =     -682.56884794  energy(sigma->0) =     -682.56884794


--------------------------------------------------------------------------------------------------------




--------------------------------------- Iteration      1(  16)  ---------------------------------------


    POTLOK:  cpu time    0.2212: real time    0.2218
    SETDIJ:  cpu time    0.2727: real time    0.2733
     EDDAV:  cpu time    3.3527: real time    3.3638
       DOS:  cpu time    0.0004: real time    0.0004
    CHARGE:  cpu time    0.4918: real time    0.4929
    MIXING:  cpu time    0.0139: real time    0.0139
    --------------------------------------------
      LOOP:  cpu time    4.3526: real time    4.3662

 eigenvalue-minimisations  :   376
 total energy-change (2. order) :-0.6300252E-07  (-0.1767481E-09)
 number of electron     511.9999999 magnetization 
 augmentation part      -28.9794621 magnetization 

 Broyden mixing:
  rms(total) = 0.99294E-05    rms(broyden)= 0.26172E-05
  rms(prec ) = 0.31565E-05
  weight for this iteration     100.00
  WARNING: grid for Broyden might be to small

 eigenvalues of (default mixing * dielectric matrix)
  average eigenvalue GAMMA=   1.7962
  3.2766  2.7727  2.5637  2.2487  2.2487  1.3387  1.3387  1.1354  0.9876  0.9238
  0.9238

 Free energy of the ion-electron system (eV)
  ---------------------------------------------------
  alpha Z        PSCENC =       210.78028765
  Ewald energy   TEWEN  =    -14524.86756189
  -Hartree energ DENC   =      -991.73222945
  -exchange      EXHF   =         0.00000000
  -V(xc)+E(xc)   XCENC  =     -1153.28595509
  PAW double counting   =      4723.40720952    -2485.14528232
  entropy T*S    EENTRO =        -0.00000000
  eigenvalues    EBANDS =       345.79382358
  atomic energy  EATOM  =     13192.48085998
  Solvation  Ediel_sol  =         0.00000000
  ---------------------------------------------------
  free energy    TOTEN  =      -682.56884801 eV

  energy without entropy =     -682.56884801  energy(sigma->0) =     -682.56884801


--------------------------------------------------------------------------------------------------------




--------------------------------------- Iteration      1(  17)  ---------------------------------------


    POTLOK:  cpu time    0.2214: real time    0.2221
    SETDIJ:  cpu time    0.2733: real time    0.2739
     EDDAV:  cpu time    3.4135: real time    3.4215
       DOS:  cpu time    0.0004: real time    0.0004
    CHARGE:  cpu time    0.4914: real time    0.4927
    MIXING:  cpu time    0.0143: real time    0.0144
    --------------------------------------------
      LOOP:  cpu time    4.4143: real time    4.4249

 eigenvalue-minimisations  :   376
 total energy-change (2. order) :-0.3306923E-07  (-0.2076012E-10)
 number of electron     511.9999999 magnetization 
 augmentation part      -28.9794634 magnetization 

 Broyden mixing:
  rms(total) = 0.96668E-05    rms(broyden)= 0.13054E-05
  rms(prec ) = 0.15537E-05
  weight for this iteration     100.00
  WARNING: grid for Broyden might be to small

 eigenvalues of (default mixing * dielectric matrix)
  average eigenvalue GAMMA=   1.7825
  3.2892  2.7290  2.5925  2.1949  2.1949  1.8498  1.2738  1.2738  1.0460  1.0460
  0.9282  0.9716

 Free energy of the ion-electron system (eV)
  ---------------------------------------------------
  alpha Z        PSCENC =       210.78028765
  Ewald energy   TEWEN  =    -14524.86756189
  -Hartree energ DENC   =      -991.73207257
  -exchange      EXHF   =         0.00000000
  -V(xc)+E(xc)   XCENC  =     -1153.28597972
  PAW double counting   =      4723.40749679    -2485.14560489
  entropy T*S    EENTRO =        -0.00000000
  eigenvalues    EBANDS =       345.79372662
  atomic energy  EATOM  =     13192.48085998
  Solvation  Ediel_sol  =         0.00000000
  ---------------------------------------------------
  free energy    TOTEN  =      -682.56884804 eV

  energy without entropy =     -682.56884804  energy(sigma->0) =     -682.56884804


--------------------------------------------------------------------------------------------------------




--------------------------------------- Iteration      1(  18)  ---------------------------------------


    POTLOK:  cpu time    0.2215: real time    0.2221
    SETDIJ:  cpu time    0.2730: real time    0.2736
     EDDAV:  cpu time    3.2851: real time    3.2961
       DOS:  cpu time    0.0004: real time    0.0004
    CHARGE:  cpu time    0.4911: real time    0.4922
    MIXING:  cpu time    0.0137: real time    0.0137
    --------------------------------------------
      LOOP:  cpu time    4.2847: real time    4.2982

 eigenvalue-minimisations  :   360
 total energy-change (2. order) : 0.1445005E-07  (-0.3191780E-11)
 number of electron     511.9999999 magnetization 
 augmentation part      -28.9794637 magnetization 

 Broyden mixing:
  rms(total) = 0.95913E-05    rms(broyden)= 0.49943E-06
  rms(prec ) = 0.60889E-06
  weight for this iteration     100.00
  WARNING: grid for Broyden might be to small

 eigenvalues of (default mixing * dielectric matrix)
  average eigenvalue GAMMA=   1.7930
  3.2965  2.7157  2.7157  2.3871  2.3871  2.1821  1.3391  1.3391  1.0605  1.0605
  1.0117  0.9297  0.8844

 Free energy of the ion-electron system (eV)
  ---------------------------------------------------
  alpha Z        PSCENC =       210.78028765
  Ewald energy   TEWEN  =    -14524.86756189
  -Hartree energ DENC   =      -991.73203778
  -exchange      EXHF   =         0.00000000
  -V(xc)+E(xc)   XCENC  =     -1153.28598608
  PAW double counting   =      4723.40695453    -2485.14505637
  entropy T*S    EENTRO =        -0.00000000
  eigenvalues    EBANDS =       345.79369194
  atomic energy  EATOM  =     13192.48085998
  Solvation  Ediel_sol  =         0.00000000
  ---------------------------------------------------
  free energy    TOTEN  =      -682.56884802 eV

  energy without entropy =     -682.56884802  energy(sigma->0) =     -682.56884802


--------------------------------------------------------------------------------------------------------




--------------------------------------- Iteration      1(  19)  ---------------------------------------


    POTLOK:  cpu time    0.2220: real time    0.2226
    SETDIJ:  cpu time    0.2720: real time    0.2726
     EDDAV:  cpu time    3.2475: real time    3.2553
       DOS:  cpu time    0.0003: real time    0.0003
    --------------------------------------------
      LOOP:  cpu time    3.7418: real time    3.7509

 eigenvalue-minimisations  :   352
 total energy-change (2. order) : 0.5671609E-08  ( 0.3236633E-11)
 number of electron     511.9999999 magnetization 
 augmentation part      -28.9794637 magnetization 

 Free energy of the ion-electron system (eV)
  ---------------------------------------------------
  alpha Z        PSCENC =       210.78028765
  Ewald energy   TEWEN  =    -14524.86756189
  -Hartree energ DENC   =      -991.73200064
  -exchange      EXHF   =         0.00000000
  -V(xc)+E(xc)   XCENC  =     -1153.28599261
  PAW double counting   =      4723.40671908    -2485.14481961
  entropy T*S    EENTRO =        -0.00000000
  eigenvalues    EBANDS =       345.79366001
  atomic energy  EATOM  =     13192.48085998
  Solvation  Ediel_sol  =         0.00000000
  ---------------------------------------------------
  free energy    TOTEN  =      -682.56884802 eV

  energy without entropy =     -682.56884802  energy(sigma->0) =     -682.56884802


--------------------------------------------------------------------------------------------------------




 average (electrostatic) potential at core
  the test charge radii are     0.9892
  (the norm of the test charge is              1.0000)
       1 -83.4138       2 -83.4136       3 -83.4138       4 -83.4139       5 -83.4137
       6 -83.4138       7 -83.4136       8 -83.4136       9 -83.4160      10 -83.4136
      11 -83.4139      12 -83.4140      13 -83.4139      14 -83.4139      15 -83.4136
      16 -83.4140      17 -83.4149      18 -83.4153      19 -83.4139      20 -83.4140
      21 -83.4137      22 -83.4139      23 -83.4140      24 -83.4136      25 -83.4160
      26 -83.4153      27 -83.4138      28 -83.4140      29 -83.4138      30 -83.4138
      31 -83.4140      32 -83.4139      33 -83.4138      34 -83.4139      35 -83.4135
      36 -83.4134      37 -83.4135      38 -83.4135      39 -83.4115      40 -83.4134
      41 -83.4139      42 -83.4140      43 -83.4137      44 -83.4138      45 -83.4135
      46 -83.4137      47 -83.4137      48 -83.4134      49 -83.4139      50 -83.4140
      51 -83.4135      52 -83.4138      53 -83.4137      54 -83.4135      55 -83.4138
      56 -83.4138      57 -83.4138      58 -83.4140      59 -83.4136      60 -83.4134
      61 -83.4137      62 -83.4137      63 -83.4137      64 -83.4138      65 -83.4137
      66 -83.4138      67 -83.4135      68 -83.4135      69 -83.4126      70 -83.4134
      71 -83.4134      72 -83.4122      73 -83.4139      74 -83.4139      75 -83.4135
      76 -83.4137      77 -83.4136      78 -83.4134      79 -83.4137      80 -83.4136
      81 -83.4137      82 -83.4139      83 -83.4137      84 -83.4135      85 -83.4137
      86 -83.4137      87 -83.4137      88 -83.4137      89 -83.4138      90 -83.4138
      91 -83.4137      92 -83.4137      93 -83.4136      94 -83.4137      95 -83.4134
      96 -83.4136      97 -83.4136      98 -83.4136      99 -83.4115     100 -83.4134
     101 -83.4134     102 -83.4122     103 -83.4136     104 -83.4135     105 -83.4136
     106 -83.4140     107 -83.4137     108 -83.4134     109 -83.4137     110 -83.4136
     111 -83.4138     112 -83.4137     113 -83.4140     114 -83.4136     115 -83.4138
     116 -83.4138     117 -83.4137     118 -83.4137     119 -83.4136     120 -83.4137
     121 -83.4140     122 -83.4139     123 -83.4137     124 -83.4138     125 -83.4134
     126 -83.4136     127 -83.4137     128 -83.4135
 
 
 
 E-fermi :   5.9198     XC(G=0):  -9.3007     alpha+bet :-11.7327


 k-point     1 :       0.0000    0.0000    0.0000
  band No.  band energies     occupation 
      1      -6.1630      2.00000
      2      -5.3786      2.00000
      3      -5.3778      2.00000
      4      -5.3776      2.00000
      5      -5.3775      2.00000
      6      -5.3774      2.00000
      7      -5.3774      2.00000
      8      -5.3772      2.00000
      9      -5.3764      2.00000
     10      -5.1005      2.00000
     11      -5.0999      2.00000
     12      -5.0996      2.00000
     13      -5.0996      2.00000
     14      -5.0994      2.00000
     15      -5.0987      2.00000
     16      -4.1590      2.00000
     17      -4.1576      2.00000
     18      -4.1571      2.00000
     19      -4.1570      2.00000
     20      -4.1570      2.00000
     21      -4.1570      2.00000
     22      -4.1569      2.00000
     23      -4.1569      2.00000
     24      -4.1569      2.00000
     25      -4.1568      2.00000
     26      -4.1563      2.00000
     27      -4.1550      2.00000
     28      -3.8818      2.00000
     29      -3.8814      2.00000
     30      -3.8809      2.00000
     31      -3.8806      2.00000
     32      -3.5002      2.00000
     33      -3.4978      2.00000
     34      -3.4966      2.00000
     35      -3.4965      2.00000
     36      -3.4964      2.00000
     37      -3.4964      2.00000
     38      -3.4963      2.00000
     39      -3.4963      2.00000
     40      -3.4963      2.00000
     41      -3.4963      2.00000
     42      -3.4962      2.00000
     43      -3.4962      2.00000
     44      -3.4962      2.00000
     45      -3.4962      2.00000
     46      -3.4962      2.00000
     47      -3.4962      2.00000
     48      -3.4962      2.00000
     49      -3.4961      2.00000
     50      -3.4961      2.00000
     51      -3.4961      2.00000
     52      -3.4959      2.00000
     53      -3.4958      2.00000
     54      -3.4946      2.00000
     55      -3.4923      2.00000
     56      -2.0919      2.00000
     57      -2.0914      2.00000
     58      -2.0909      2.00000
     59      -2.0909      2.00000
     60      -2.0904      2.00000
     61      -2.0900      2.00000
     62      -1.9373      2.00000
     63      -1.9365      2.00000
     64      -1.9356      2.00000
     65      -1.9355      2.00000
     66      -1.9354      2.00000
     67      -1.9354      2.00000
     68      -1.9354      2.00000
     69      -1.9354      2.00000
     70      -1.9353      2.00000
     71      -1.9352      2.00000
     72      -1.9343      2.00000
     73      -1.9335      2.00000
     74      -1.2191      2.00000
     75      -1.2185      2.00000
     76      -1.2183      2.00000
     77      -1.2178      2.00000
     78      -0.6722      2.00000
     79      -0.6709      2.00000
     80      -0.6689      2.00000
     81      -0.6689      2.00000
     82      -0.6689      2.00000
     83      -0.6688      2.00000
     84      -0.6687      2.00000
     85      -0.6687      2.00000
     86      -0.6687      2.00000
     87      -0.6687      2.00000
     88      -0.6687      2.00000
     89      -0.6686      2.00000
     90      -0.6686      2.00000
     91      -0.6686      2.00000
     92      -0.6686      2.00000
     93      -0.6685      2.00000
     94      -0.6685      2.00000
     95      -0.6685      2.00000
     96      -0.6685      2.00000
     97      -0.6684      2.00000
     98      -0.6683      2.00000
     99      -0.6683      2.00000
    100      -0.6663      2.00000
    101      -0.6650      2.00000
    102       0.2152      2.00000
    103       0.2154      2.00000
    104       0.2166      2.00000
    105       0.2167      2.00000
    106       0.2167      2.00000
    107       0.2167      2.00000
    108       0.2167      2.00000
    109       0.2168      2.00000
    110       0.2168      2.00000
    111       0.2169      2.00000
    112       0.2181      2.00000
    113       0.2182      2.00000
    114       1.7669      2.00000
    115       1.7672      2.00000
    116       1.7676      2.00000
    117       1.7678      2.00000
    118       1.7679      2.00000
    119       1.7681      2.00000
    120       1.7685      2.00000
    121       1.7688      2.00000
    122       1.8849      2.00000
    123       1.8856      2.00000
    124       1.8858      2.00000
    125       1.8858      2.00000
    126       1.8859      2.00000
    127       1.8860      2.00000
    128       1.8860      2.00000
    129       1.8861      2.00000
    130       1.8862      2.00000
    131       1.8862      2.00000
    132       1.8864      2.00000
    133       1.8871      2.00000
    134       1.9780      2.00000
    135       1.9780      2.00000
    136       1.9783      2.00000
    137       1.9788      2.00000
    138       1.9789      2.00000
    139       1.9789      2.00000
    140       1.9789      2.00000
    141       1.9789      2.00000
    142       1.9790      2.00000
    143       1.9795      2.00000
    144       1.9797      2.00000
    145       1.9797      2.00000
    146       2.1401      2.00000
    147       2.1406      2.00000
    148       2.1411      2.00000
    149       2.1411      2.00000
    150       2.1416      2.00000
    151       2.1420      2.00000
    152       2.1847      2.00000
    153       2.1853      2.00000
    154       2.1861      2.00000
    155       2.1866      2.00000
    156       2.1866      2.00000
    157       2.1867      2.00000
    158       2.1867      2.00000
    159       2.1868      2.00000
    160       2.1868      2.00000
    161       2.1869      2.00000
    162       2.1869      2.00000
    163       2.1869      2.00000
    164       2.1869      2.00000
    165       2.1869      2.00000
    166       2.1870      2.00000
    167       2.1870      2.00000
    168       2.1871      2.00000
    169       2.1871      2.00000
    170       2.1871      2.00000
    171       2.1872      2.00000
    172       2.1872      2.00000
    173       2.1877      2.00000
    174       2.1887      2.00000
    175       2.1892      2.00000
    176       2.8562      2.00000
    177       2.8566      2.00000
    178       2.8566      2.00000
    179       2.8566      2.00000
    180       2.8567      2.00000
    181       2.8571      2.00000
    182       3.4899      2.00000
    183       3.4913      2.00000
    184       3.4921      2.00000
    185       3.4921      2.00000
    186       3.4922      2.00000
    187       3.4924      2.00000
    188       3.4924      2.00000
    189       3.4924      2.00000
    190       3.4925      2.00000
    191       3.4925      2.00000
    192       3.4925      2.00000
    193       3.4925      2.00000
    194       3.4925      2.00000
    195       3.4925      2.00000
    196       3.4926      2.00000
    197       3.4926      2.00000
    198       3.4926      2.00000
    199       3.4927      2.00000
    200       3.4927      2.00000
    201       3.4928      2.00000
    202       3.4929      2.00000
    203       3.4929      2.00000
    204       3.4938      2.00000
    205       3.4951      2.00000
    206       3.8022      2.00000
    207       3.8034      2.00000
    208       3.8037      2.00000
    209       3.8038      2.00000
    210       3.8038      2.00000
    211       3.8038      2.00000
    212       3.8038      2.00000
    213       3.8038      2.00000
    214       3.8039      2.00000
    215       3.8039      2.00000
    216       3.8043      2.00000
    217       3.8055      2.00000
    218       4.3511      2.00000
    219       4.3520      2.00000
    220       4.3526      2.00000
    221       4.3527      2.00000
    222       4.3527      2.00000
    223       4.3528      2.00000
    224       4.3528      2.00000
    225       4.3529      2.00000
    226       4.3530      2.00000
    227       4.3530      2.00000
    228       4.3536      2.00000
    229       4.3545      2.00000
    230       4.4764      2.00000
    231       4.4773      2.00000
    232       4.4776      2.00000
    233       4.4776      2.00000
    234       4.4778      2.00000
    235       4.4778      2.00000
    236       4.4781      2.00000
    237       4.4790      2.00000
    238       4.9087      2.00000
    239       4.9114      2.00000
    240       4.9115      2.00000
    241       4.9116      2.00000
    242       4.9116      2.00000
    243       4.9117      2.00000
    244       4.9117      2.00000
    245       4.9118      2.00000
    246       4.9118      2.00000
    247       4.9118      2.00000
    248       4.9118      2.00000
    249       4.9119      2.00000
    250       4.9120      2.00000
    251       4.9121      2.00000
    252       4.9122      2.00000
    253       4.9149      2.00000
    254       5.6597      2.00000
    255       5.6604      2.00000
    256       5.6612      2.00000
    257       6.3944      0.00000
    258       6.3947      0.00000
    259       6.3951      0.00000
    260       6.3951      0.00000
    261       6.3956      0.00000
    262       6.3958      0.00000
    263       6.7955      0.00000
    264       6.7957      0.00000
    265       6.7963      0.00000
    266       6.7963      0.00000
    267       6.7968      0.00000
    268       6.7970      0.00000
    269       7.1207      0.00000
    270       7.1208      0.00000
    271       7.1209      0.00000
    272       7.1210      0.00000
    273       7.1833      0.00000
    274       7.1837      0.00000
    275       7.1858      0.00000
    276       7.1858      0.00000
    277       7.1858      0.00000
    278       7.1858      0.00000
    279       7.1859      0.00000
    280       7.1859      0.00000
    281       7.1859      0.00000
    282       7.1859      0.00000
    283       7.1860      0.00000
    284       7.1860      0.00000
    285       7.1860      0.00000
    286       7.1860      0.00000
    287       7.1861      0.00000
    288       7.1861      0.00000
    289       7.1861      0.00000
    290       7.1861      0.00000
    291       7.1862      0.00000
    292       7.1862      0.00000
    293       7.1862      0.00000
    294       7.1862      0.00000
    295       7.1883      0.00000
    296       7.1887      0.00000
    297       7.6116      0.00000
    298       7.6118      0.00000
    299       7.6120      0.00000
    300       7.6122      0.00000
    301       7.6122      0.00000
    302       7.6124      0.00000
    303       7.6127      0.00000
    304       7.6129      0.00000
    305       8.0817      0.00000
    306       8.0818      0.00000
    307       8.0828      0.00000
    308       8.0828      0.00000
    309       8.0829      0.00000
    310       8.0829      0.00000
    311       8.0829      0.00000
    312       8.0830      0.00000
    313       8.0830      0.00000
    314       8.0831      0.00000
    315       8.0841      0.00000
    316       8.0842      0.00000
    317       8.1989      0.00000
    318       8.1993      0.00000
    319       8.1998      0.00000
    320       8.7790      0.00000
    321       8.7793      0.00000
    322       8.7868      0.00000


--------------------------------------------------------------------------------------------------------


 soft charge-density along one line, spin component           1
         0         1         2         3         4         5         6         7         8         9
 total charge-density along one line
 
 pseudopotential strength for first ion, spin component:           1
 18.431  -0.001  -0.000   0.000   0.000   0.000   0.000  -0.000
 -0.001   0.006   0.000  -0.000  -0.000  -0.000  -0.000   0.000
 -0.000   0.000   4.180  -0.000  -0.000  -0.005   0.000   0.000
  0.000  -0.000  -0.000   4.180   0.000   0.000  -0.005  -0.000
  0.000  -0.000  -0.000   0.000   4.180   0.000  -0.000  -0.005
  0.000  -0.000  -0.005   0.000   0.000   0.005  -0.000  -0.000
  0.000  -0.000   0.000  -0.005  -0.000  -0.000   0.005   0.000
 -0.000   0.000   0.000  -0.000  -0.005  -0.000   0.000   0.005
 total augmentation occupancy for first ion, spin component:           1
  1.463  -0.793  -0.003  -0.000  -0.000   0.004   0.000  -0.000
 -0.793   0.732   0.003   0.000  -0.000  -0.004  -0.000   0.000
 -0.003   0.003   1.037   0.000  -0.000  -0.551  -0.000  -0.000
 -0.000   0.000   0.000   1.037   0.004  -0.000  -0.551  -0.005
 -0.000  -0.000  -0.000   0.004   1.037  -0.000  -0.005  -0.551
  0.004  -0.004  -0.551  -0.000  -0.000   0.351   0.000   0.000
  0.000  -0.000  -0.000  -0.551  -0.005   0.000   0.351   0.004
 -0.000   0.000  -0.000  -0.005  -0.551   0.000   0.004   0.351


------------------------ aborting loop because EDIFF is reached ----------------------------------------


    CHARGE:  cpu time    0.4945: real time    0.4957
    FORLOC:  cpu time    0.1925: real time    0.1929
    FORNL :  cpu time    5.3654: real time    5.3813
    STRESS:  cpu time    8.7096: real time    8.7340
    FORCOR:  cpu time    0.4035: real time    0.4044
    FORHAR:  cpu time    0.2407: real time    0.2413
    MIXING:  cpu time    0.0098: real time    0.0099
    OFIELD:  cpu time    0.0001: real time    0.0001

  FORCE on cell =-STRESS in cart. coord.  units (eV):
  Direction    XX          YY          ZZ          XY          YZ          ZX
  --------------------------------------------------------------------------------------
  Alpha Z   210.78029   210.78029   210.78029
  Ewald   -4841.66834 -4841.67766 -4841.66834    -0.00000    -0.00000     0.77485
  Hartree   330.57790   330.57618   330.57790     0.00000     0.00000     0.08844
  E(xc)   -1619.14448 -1619.14439 -1619.14448     0.00001     0.00001    -0.00662
  Local   -1899.80867 -1899.79811 -1899.80867     0.00027     0.00027    -0.81822
  n-local  4936.76691  4936.76505  4936.76692    -0.00000    -0.00000     0.15914
  augment  -736.53085  -736.53076  -736.53085    -0.00027    -0.00027    -0.00729
  Kinetic  3628.38835  3628.38881  3628.38835     0.00000     0.00000    -0.10312
  Fock        0.00000     0.00000     0.00000     0.00000     0.00000     0.00000
  -------------------------------------------------------------------------------------
  Total       9.36111     9.35940     9.36111     0.00001     0.00001     0.08719
  in kB       5.73184     5.73080     5.73184     0.00001     0.00001     0.05339
  external pressure =        5.73 kB  Pullay stress =        0.00 kB


 VOLUME and BASIS-vectors are now :
 -----------------------------------------------------------------------------
  energy-cutoff  :      500.00
  volume of cell :     2616.64
      direct lattice vectors                 reciprocal lattice vectors
     0.000000000 10.937160696 10.937160696    -0.045715704  0.045715704  0.045715704
    10.937160696  0.000000000 10.937160696     0.045715704 -0.045715704  0.045715704
    10.937160696 10.937160696  0.000000000     0.045715704  0.045715704 -0.045715704

  length of vectors
    15.467480990 15.467480990 15.467480990     0.079181922  0.079181922  0.079181922


 FORCES acting on ions
    electron-ion (+dipol)            ewald-force                    non-local-force                 convergence-correction
 -----------------------------------------------------------------------------------------------
   -.888E-07 -.525E+00 0.226E-06   -.715E-15 0.468E+00 -.268E-13   -.149E-07 0.187E+00 0.777E-07   0.792E-07 0.133E-05 -.303E-06
   0.202E+00 0.342E-02 0.202E+00   -.174E+00 -.284E-02 -.174E+00   -.483E-01 -.334E-01 -.483E-01   -.228E-06 0.252E-06 -.390E-06
   0.737E-03 0.252E-01 0.596E-01   0.315E-13 -.236E-01 -.601E-01   0.214E-03 -.311E-02 -.148E-02   0.200E-07 -.251E-06 -.694E-06
   -.201E+00 0.544E-02 0.201E+00   0.173E+00 -.453E-02 -.173E+00   0.476E-01 -.335E-01 -.476E-01   0.500E-06 0.109E-06 -.649E-06
   -.368E-05 0.800E-02 0.123E-01   0.386E-13 -.750E-02 -.127E-01   0.252E-05 -.633E-03 0.270E-04   -.531E-07 0.839E-07 0.449E-07
   -.571E-02 0.873E-02 0.183E-01   0.463E-02 -.843E-02 -.169E-01   0.599E-03 -.506E-03 -.158E-02   0.631E-07 -.642E-07 -.162E-06
   -.797E-03 0.251E-01 0.599E-01   0.522E-13 -.235E-01 -.604E-01   -.165E-03 -.313E-02 -.149E-02   0.237E-08 0.296E-07 -.687E-07
   0.573E-02 0.872E-02 0.183E-01   -.465E-02 -.841E-02 -.169E-01   -.606E-03 -.519E-03 -.159E-02   0.154E-06 0.340E-06 0.374E-06
   0.588E-02 -.247E-01 0.588E-02   -.109E-03 0.361E-01 -.109E-03   -.674E-02 -.646E-02 -.674E-02   0.161E-06 -.176E-06 -.224E-06
   -.202E+00 0.342E-02 -.202E+00   0.174E+00 -.284E-02 0.174E+00   0.483E-01 -.334E-01 0.483E-01   0.496E-06 0.279E-06 0.103E-07
   0.254E-02 0.101E-02 0.783E-02   -.229E-02 -.481E-03 -.804E-02   0.219E-04 -.633E-03 0.627E-04   0.175E-06 -.139E-06 0.944E-07
   0.456E-02 -.124E-01 0.217E-01   -.655E-02 0.139E-01 -.205E-01   0.165E-02 -.118E-02 -.797E-03   0.510E-08 -.950E-07 -.192E-06
   -.738E-02 0.983E-02 0.738E-02   0.805E-02 -.101E-01 -.805E-02   -.459E-03 0.270E-03 0.459E-03   0.918E-07 0.723E-07 0.209E-06
   -.173E-02 0.650E-02 0.935E-02   0.110E-02 -.634E-02 -.900E-02   0.478E-03 -.210E-03 -.271E-03   0.166E-06 -.897E-07 0.703E-07
   -.599E-01 0.251E-01 0.797E-03   0.604E-01 -.235E-01 0.120E-13   0.149E-02 -.313E-02 0.165E-03   0.465E-06 0.124E-06 -.181E-06
   -.211E-01 0.385E-01 0.211E-01   0.206E-01 -.390E-01 -.206E-01   0.237E-03 0.564E-03 -.237E-03   -.163E-06 0.110E-06 0.916E-07
   -.138E-07 0.857E-03 -.263E-06   0.283E-14 0.394E-02 -.140E-13   0.140E-07 -.312E-02 0.410E-07   -.113E-07 0.202E-06 0.188E-06
   -.207E-02 -.121E-01 -.207E-02   0.463E-02 0.580E-02 0.463E-02   -.304E-02 0.428E-02 -.304E-02   -.856E-07 0.104E-06 -.236E-06
   -.783E-02 0.101E-02 -.254E-02   0.804E-02 -.481E-03 0.229E-02   -.627E-04 -.633E-03 -.220E-04   0.223E-07 -.194E-06 0.128E-06
   -.190E-02 -.104E-02 0.190E-02   0.110E-02 0.159E-02 -.110E-02   0.641E-03 -.473E-03 -.641E-03   0.230E-06 -.940E-07 0.139E-06
   -.123E-01 0.800E-02 0.367E-05   0.127E-01 -.750E-02 0.107E-13   -.272E-04 -.633E-03 -.239E-05   0.266E-06 0.171E-06 -.147E-06
   -.935E-02 0.650E-02 0.173E-02   0.900E-02 -.634E-02 -.110E-02   0.271E-03 -.210E-03 -.478E-03   0.157E-06 -.144E-06 0.372E-07
   -.714E-02 -.441E-04 -.323E-02   0.803E-02 -.447E-03 0.229E-02   -.686E-03 0.387E-03 0.671E-03   0.264E-07 0.133E-06 -.231E-06
   -.183E-01 0.872E-02 -.573E-02   0.169E-01 -.841E-02 0.465E-02   0.159E-02 -.519E-03 0.606E-03   0.958E-08 0.304E-06 -.309E-06
   -.588E-02 -.247E-01 -.588E-02   0.109E-03 0.361E-01 0.109E-03   0.674E-02 -.646E-02 0.674E-02   -.545E-07 -.178E-06 0.227E-06
   0.207E-02 -.121E-01 0.207E-02   -.463E-02 0.580E-02 -.463E-02   0.304E-02 0.428E-02 0.304E-02   0.594E-07 0.223E-06 0.357E-06
   -.596E-01 0.252E-01 -.737E-03   0.601E-01 -.236E-01 -.488E-14   0.148E-02 -.311E-02 -.214E-03   0.474E-06 -.172E-06 -.241E-06
   -.217E-01 -.124E-01 -.456E-02   0.205E-01 0.139E-01 0.655E-02   0.797E-03 -.118E-02 -.165E-02   0.398E-07 -.859E-07 -.347E-07
   -.735E-02 0.949E-02 0.735E-02   0.802E-02 -.101E-01 -.802E-02   -.518E-03 0.594E-03 0.518E-03   -.283E-06 0.655E-07 -.198E-06
   -.183E-01 0.873E-02 0.571E-02   0.169E-01 -.843E-02 -.463E-02   0.158E-02 -.506E-03 -.598E-03   -.180E-07 0.162E-06 -.263E-06
   0.323E-02 -.440E-04 0.714E-02   -.229E-02 -.447E-03 -.803E-02   -.671E-03 0.387E-03 0.686E-03   -.774E-07 0.719E-07 0.136E-06
   -.362E-02 0.349E-02 0.362E-02   0.303E-02 -.368E-02 -.303E-02   0.209E-03 0.441E-03 -.209E-03   -.102E-06 0.113E-06 -.149E-06
   0.596E-01 0.252E-01 0.737E-03   -.601E-01 -.236E-01 0.400E-14   -.148E-02 -.311E-02 0.214E-03   -.368E-06 -.314E-06 -.334E-06
   0.201E+00 0.544E-02 -.201E+00   -.173E+00 -.453E-02 0.173E+00   -.476E-01 -.335E-01 0.476E-01   -.347E-06 -.195E-09 0.352E-06
   0.735E-02 0.982E-02 0.735E-02   -.802E-02 -.101E-01 -.802E-02   0.457E-03 0.263E-03 0.457E-03   0.363E-07 -.110E-06 -.312E-06
   0.210E-01 0.383E-01 0.210E-01   -.204E-01 -.388E-01 -.204E-01   -.234E-03 0.571E-03 -.234E-03   -.451E-07 -.253E-06 -.186E-06
   -.253E-02 0.972E-03 0.781E-02   0.229E-02 -.447E-03 -.803E-02   -.265E-04 -.629E-03 0.683E-04   -.602E-07 0.971E-07 0.263E-06
   0.172E-02 0.647E-02 0.933E-02   -.109E-02 -.632E-02 -.898E-02   -.476E-03 -.207E-03 -.268E-03   0.129E-06 -.156E-06 -.840E-07
   -.561E-02 -.247E-01 0.561E-02   -.109E-03 0.361E-01 0.109E-03   0.667E-02 -.646E-02 -.667E-02   -.448E-07 -.677E-07 0.445E-06
   -.454E-02 -.126E-01 0.216E-01   0.653E-02 0.140E-01 -.204E-01   -.165E-02 -.118E-02 -.789E-03   -.656E-07 0.140E-06 0.496E-06
   0.783E-02 0.101E-02 0.254E-02   -.804E-02 -.481E-03 -.229E-02   0.627E-04 -.633E-03 0.220E-04   -.194E-07 -.153E-06 -.132E-06
   0.217E-01 -.124E-01 0.456E-02   -.205E-01 0.139E-01 -.655E-02   -.797E-03 -.118E-02 0.165E-02   -.197E-07 -.214E-06 -.267E-06
   0.149E-06 0.377E-02 -.759E-07   -.666E-14 -.369E-02 0.124E-13   -.314E-07 -.184E-03 -.107E-06   -.980E-07 -.395E-07 0.175E-06
   0.552E-02 0.418E-02 0.552E-02   -.560E-02 -.370E-02 -.560E-02   0.615E-04 -.380E-03 0.616E-04   -.415E-07 -.106E-06 -.151E-06
   -.781E-02 0.972E-03 0.253E-02   0.803E-02 -.447E-03 -.229E-02   -.684E-04 -.629E-03 0.264E-04   -.813E-07 0.151E-06 0.540E-06
   -.553E-02 0.416E-02 0.553E-02   0.561E-02 -.368E-02 -.561E-02   -.602E-04 -.381E-03 0.602E-04   0.150E-06 0.778E-07 0.300E-06
   0.415E-04 -.103E-01 -.462E-03   -.404E-04 0.956E-02 0.666E-14   -.588E-06 0.495E-03 0.462E-03   -.222E-06 -.183E-06 -.287E-06
   -.216E-01 -.126E-01 0.454E-02   0.204E-01 0.140E-01 -.653E-02   0.789E-03 -.118E-02 0.165E-02   0.624E-07 0.102E-06 0.646E-07
   -.254E-02 0.101E-02 -.783E-02   0.229E-02 -.481E-03 0.804E-02   -.219E-04 -.633E-03 -.627E-04   -.176E-06 -.132E-06 0.112E-06
   0.190E-02 -.104E-02 -.190E-02   -.110E-02 0.159E-02 0.110E-02   -.641E-03 -.472E-03 0.641E-03   -.154E-06 -.410E-07 0.776E-07
   -.735E-02 0.982E-02 -.735E-02   0.802E-02 -.101E-01 0.802E-02   -.457E-03 0.263E-03 -.457E-03   0.217E-07 -.428E-07 0.373E-06
   -.552E-02 0.418E-02 -.552E-02   0.560E-02 -.370E-02 0.560E-02   -.614E-04 -.380E-03 -.616E-04   0.165E-06 0.197E-08 0.507E-06
   -.462E-02 0.522E-02 -.136E-03   0.475E-02 -.551E-02 0.195E-13   -.125E-03 0.200E-03 0.149E-03   -.360E-06 -.103E-06 -.205E-06
   -.933E-02 0.647E-02 -.172E-02   0.898E-02 -.632E-02 0.109E-02   0.268E-03 -.207E-03 0.476E-03   0.720E-07 -.860E-07 -.275E-07
   0.206E-03 -.477E-03 -.206E-03   -.544E-05 -.183E-04 0.544E-05   -.188E-03 0.368E-03 0.188E-03   -.116E-06 0.159E-07 -.101E-06
   -.395E-02 -.191E-03 -.434E-03   0.403E-02 0.669E-03 0.241E-04   -.560E-04 -.322E-03 0.418E-03   -.257E-06 -.942E-07 -.244E-06
   -.737E-03 0.252E-01 -.596E-01   0.488E-14 -.236E-01 0.601E-01   -.214E-03 -.311E-02 0.148E-02   0.164E-06 -.116E-06 0.688E-06
   -.456E-02 -.124E-01 -.217E-01   0.655E-02 0.139E-01 0.205E-01   -.165E-02 -.118E-02 0.797E-03   0.539E-07 -.975E-07 0.412E-06
   -.515E-07 0.296E-01 0.240E-06   -.777E-14 -.301E-01 0.309E-13   -.406E-07 0.309E-03 0.838E-07   0.564E-07 -.280E-06 -.349E-06
   -.210E-01 0.383E-01 -.210E-01   0.204E-01 -.388E-01 0.204E-01   0.234E-03 0.571E-03 0.234E-03   -.552E-07 -.164E-06 -.118E-06
   0.136E-03 0.522E-02 0.462E-02   -.395E-13 -.551E-02 -.475E-02   -.149E-03 0.200E-03 0.126E-03   -.860E-07 -.293E-08 -.539E-07
   -.398E-02 0.125E-01 0.398E-02   0.403E-02 -.124E-01 -.403E-02   -.311E-04 -.326E-04 0.314E-04   -.256E-06 -.503E-07 -.316E-06
   0.462E-03 -.103E-01 -.415E-04   0.191E-13 0.956E-02 0.404E-04   -.462E-03 0.495E-03 0.573E-06   0.108E-06 -.724E-08 0.240E-06
   0.434E-03 -.192E-03 0.395E-02   -.241E-04 0.669E-03 -.403E-02   -.418E-03 -.322E-03 0.562E-04   -.162E-06 0.144E-06 0.952E-07
   0.123E-01 0.800E-02 -.352E-05   -.127E-01 -.750E-02 -.178E-14   0.272E-04 -.633E-03 0.250E-05   -.151E-06 -.230E-08 -.192E-06
   0.183E-01 0.873E-02 -.571E-02   -.169E-01 -.843E-02 0.463E-02   -.158E-02 -.506E-03 0.599E-03   -.441E-07 0.717E-07 -.578E-07
   0.781E-02 0.972E-03 -.253E-02   -.803E-02 -.447E-03 0.229E-02   0.683E-04 -.629E-03 -.264E-04   0.658E-07 0.642E-07 -.420E-06
   0.933E-02 0.647E-02 0.172E-02   -.898E-02 -.632E-02 -.109E-02   -.268E-03 -.207E-03 -.476E-03   0.208E-07 -.125E-06 -.296E-06
   -.490E-07 0.861E-03 -.152E-06   0.151E-13 0.394E-02 0.293E-13   -.132E-07 -.313E-02 -.814E-07   0.341E-07 0.220E-06 0.236E-06
   0.188E-02 -.106E-02 0.188E-02   -.109E-02 0.160E-02 -.109E-02   -.639E-03 -.470E-03 -.638E-03   0.238E-07 0.157E-06 -.999E-07
   0.714E-02 -.849E-05 -.323E-02   -.804E-02 -.481E-03 0.229E-02   0.687E-03 0.385E-03 0.668E-03   -.141E-06 -.149E-06 0.277E-06
   0.208E-02 -.121E-01 -.208E-02   -.465E-02 0.576E-02 0.465E-02   0.305E-02 0.429E-02 -.305E-02   -.130E-07 -.422E-07 0.301E-06
   0.738E-02 0.983E-02 -.738E-02   -.805E-02 -.101E-01 0.805E-02   0.459E-03 0.270E-03 -.459E-03   -.919E-07 -.287E-07 -.157E-06
   0.935E-02 0.650E-02 -.173E-02   -.900E-02 -.634E-02 0.110E-02   -.270E-03 -.210E-03 0.478E-03   -.264E-06 -.130E-06 -.309E-06
   0.253E-02 0.972E-03 -.781E-02   -.229E-02 -.447E-03 0.803E-02   0.264E-04 -.629E-03 -.686E-04   0.150E-06 0.780E-07 0.887E-07
   0.553E-02 0.416E-02 -.553E-02   -.561E-02 -.368E-02 0.561E-02   0.603E-04 -.381E-03 -.602E-04   -.519E-07 0.122E-06 -.178E-07
   -.194E-03 -.476E-03 -.194E-03   -.544E-05 -.183E-04 -.544E-05   0.187E-03 0.367E-03 0.187E-03   -.117E-06 0.820E-07 0.218E-06
   -.188E-02 -.106E-02 -.188E-02   0.109E-02 0.160E-02 0.109E-02   0.639E-03 -.470E-03 0.639E-03   -.100E-06 0.154E-06 0.380E-06
   0.464E-02 0.524E-02 -.137E-03   -.477E-02 -.554E-02 0.356E-13   0.125E-03 0.201E-03 0.149E-03   0.161E-07 -.125E-06 -.178E-06
   0.398E-02 -.170E-03 -.435E-03   -.406E-02 0.649E-03 0.233E-04   0.562E-04 -.323E-03 0.419E-03   -.172E-06 -.190E-06 -.467E-07
   0.365E-05 0.800E-02 -.123E-01   0.000E+00 -.750E-02 0.127E-01   -.250E-05 -.633E-03 -.272E-04   0.300E-07 0.381E-08 0.447E-06
   0.173E-02 0.650E-02 -.935E-02   -.110E-02 -.634E-02 0.900E-02   -.478E-03 -.210E-03 0.271E-03   0.197E-07 -.803E-07 0.170E-06
   -.136E-03 0.522E-02 -.462E-02   0.211E-13 -.551E-02 0.475E-02   0.149E-03 0.200E-03 -.126E-03   0.821E-07 0.313E-08 0.592E-07
   -.172E-02 0.647E-02 -.933E-02   0.109E-02 -.632E-02 0.898E-02   0.476E-03 -.207E-03 0.268E-03   0.362E-07 -.152E-06 0.431E-06
   -.401E-07 0.332E-02 0.142E-06   0.207E-13 -.369E-02 0.164E-13   0.455E-07 0.251E-03 0.299E-07   -.439E-07 0.213E-06 -.197E-06
   -.112E-02 0.400E-02 -.112E-02   0.102E-02 -.368E-02 0.102E-02   0.814E-04 -.217E-03 0.815E-04   -.385E-07 -.423E-08 -.195E-06
   0.137E-03 0.524E-02 -.464E-02   0.000E+00 -.554E-02 0.477E-02   -.149E-03 0.201E-03 -.125E-03   0.470E-07 -.194E-06 -.195E-06
   0.113E-02 0.402E-02 -.113E-02   -.102E-02 -.370E-02 0.102E-02   -.805E-04 -.218E-03 0.807E-04   -.189E-07 -.190E-07 -.279E-06
   0.735E-02 0.949E-02 -.735E-02   -.802E-02 -.101E-01 0.802E-02   0.518E-03 0.594E-03 -.518E-03   0.344E-07 -.301E-07 0.146E-06
   0.571E-02 0.873E-02 -.183E-01   -.463E-02 -.843E-02 0.169E-01   -.598E-03 -.506E-03 0.158E-02   0.999E-07 0.169E-07 0.375E-06
   0.462E-02 0.522E-02 0.137E-03   -.475E-02 -.551E-02 0.272E-13   0.125E-03 0.200E-03 -.149E-03   0.124E-06 -.145E-06 -.342E-06
   0.398E-02 0.125E-01 -.398E-02   -.403E-02 -.124E-01 0.403E-02   0.313E-04 -.327E-04 -.310E-04   0.159E-06 -.197E-07 -.155E-06
   0.194E-03 -.476E-03 0.194E-03   0.544E-05 -.183E-04 0.544E-05   -.187E-03 0.367E-03 -.187E-03   0.734E-07 0.131E-06 -.140E-06
   0.112E-02 0.400E-02 0.112E-02   -.102E-02 -.368E-02 -.102E-02   -.814E-04 -.217E-03 -.812E-04   0.191E-06 0.153E-06 -.331E-06
   0.323E-02 -.870E-05 -.714E-02   -.229E-02 -.481E-03 0.804E-02   -.668E-03 0.385E-03 -.687E-03   -.162E-07 -.235E-07 0.348E-06
   0.435E-03 -.170E-03 -.398E-02   -.233E-04 0.649E-03 0.406E-02   -.419E-03 -.323E-03 -.559E-04   0.610E-08 -.408E-07 0.968E-07
   0.599E-01 0.251E-01 -.797E-03   -.604E-01 -.235E-01 -.147E-13   -.149E-02 -.313E-02 -.165E-03   -.401E-06 0.359E-07 -.212E-06
   0.183E-01 0.872E-02 0.573E-02   -.169E-01 -.841E-02 -.465E-02   -.159E-02 -.519E-03 -.606E-03   -.148E-07 0.132E-06 0.218E-06
   0.561E-02 -.247E-01 -.561E-02   0.109E-03 0.361E-01 -.109E-03   -.667E-02 -.646E-02 0.667E-02   0.354E-07 -.117E-06 -.345E-06
   0.216E-01 -.126E-01 -.454E-02   -.204E-01 0.140E-01 0.653E-02   -.789E-03 -.118E-02 -.165E-02   0.375E-07 0.368E-07 -.263E-06
   -.323E-02 -.855E-05 0.714E-02   0.229E-02 -.481E-03 -.804E-02   0.669E-03 0.385E-03 0.687E-03   -.780E-07 -.142E-06 0.170E-06
   -.208E-02 -.121E-01 0.208E-02   0.465E-02 0.576E-02 -.465E-02   -.305E-02 0.429E-02 0.305E-02   -.153E-06 -.104E-06 0.208E-07
   0.738E-02 0.951E-02 0.738E-02   -.805E-02 -.101E-01 -.805E-02   0.519E-03 0.592E-03 0.519E-03   0.537E-08 0.931E-07 0.317E-06
   0.364E-02 0.351E-02 0.364E-02   -.304E-02 -.370E-02 -.304E-02   -.210E-03 0.439E-03 -.210E-03   -.152E-06 -.112E-06 0.249E-06
   0.797E-03 0.251E-01 -.599E-01   0.546E-13 -.235E-01 0.604E-01   0.165E-03 -.313E-02 0.149E-02   0.645E-07 0.258E-07 0.150E-06
   0.211E-01 0.385E-01 -.211E-01   -.206E-01 -.390E-01 0.206E-01   -.237E-03 0.565E-03 0.237E-03   0.666E-07 0.313E-07 -.398E-06
   -.462E-03 -.103E-01 0.411E-04   0.346E-13 0.956E-02 -.404E-04   0.462E-03 0.495E-03 -.561E-06   0.934E-07 -.155E-06 0.143E-06
   0.454E-02 -.126E-01 -.216E-01   -.653E-02 0.140E-01 0.204E-01   0.165E-02 -.118E-02 0.789E-03   -.158E-07 0.259E-07 -.475E-07
   -.137E-03 0.524E-02 0.464E-02   0.294E-13 -.554E-02 -.477E-02   0.149E-03 0.201E-03 0.125E-03   -.816E-07 -.188E-06 0.360E-06
   -.435E-03 -.170E-03 0.398E-02   0.233E-04 0.649E-03 -.406E-02   0.419E-03 -.323E-03 0.561E-04   -.129E-06 -.200E-06 0.244E-06
   -.996E-07 0.298E-01 0.877E-07   0.648E-13 -.303E-01 -.266E-13   -.421E-07 0.311E-03 0.105E-06   0.103E-06 0.531E-08 -.222E-06
   0.400E-02 0.125E-01 0.400E-02   -.405E-02 -.124E-01 -.405E-02   0.337E-04 -.342E-04 0.335E-04   0.254E-07 0.744E-08 0.202E-06
   -.323E-02 -.441E-04 -.714E-02   0.229E-02 -.447E-03 0.803E-02   0.671E-03 0.387E-03 -.686E-03   0.977E-08 0.168E-06 0.193E-06
   -.573E-02 0.872E-02 -.183E-01   0.465E-02 -.841E-02 0.169E-01   0.606E-03 -.519E-03 0.159E-02   0.258E-08 0.180E-06 -.384E-07
   -.206E-03 -.477E-03 0.206E-03   0.544E-05 -.183E-04 -.544E-05   0.188E-03 0.368E-03 -.188E-03   0.990E-07 -.362E-07 0.436E-07
   -.434E-03 -.191E-03 -.395E-02   0.241E-04 0.669E-03 0.403E-02   0.418E-03 -.322E-03 -.560E-04   -.527E-07 -.881E-07 0.178E-06
   -.464E-02 0.524E-02 0.137E-03   0.477E-02 -.554E-02 -.711E-14   -.125E-03 0.201E-03 -.149E-03   0.739E-10 -.421E-07 -.162E-06
   -.113E-02 0.402E-02 0.113E-02   0.102E-02 -.370E-02 -.102E-02   0.806E-04 -.218E-03 -.805E-04   -.755E-08 -.454E-07 0.882E-07
   -.738E-02 0.951E-02 -.738E-02   0.805E-02 -.101E-01 0.805E-02   -.520E-03 0.592E-03 -.519E-03   -.424E-07 0.192E-06 -.305E-06
   -.400E-02 0.125E-01 -.400E-02   0.405E-02 -.124E-01 0.405E-02   -.334E-04 -.341E-04 -.334E-04   -.416E-07 0.957E-07 -.378E-06
   0.714E-02 -.440E-04 0.323E-02   -.803E-02 -.447E-03 -.229E-02   0.686E-03 0.387E-03 -.671E-03   -.370E-07 0.766E-07 0.165E-06
   0.362E-02 0.349E-02 -.363E-02   -.303E-02 -.368E-02 0.303E-02   -.209E-03 0.441E-03 0.209E-03   -.118E-06 -.723E-07 0.345E-06
   -.414E-04 -.103E-01 0.462E-03   0.404E-04 0.956E-02 -.533E-14   0.522E-06 0.495E-03 -.462E-03   0.145E-06 -.531E-07 -.175E-06
   0.395E-02 -.191E-03 0.434E-03   -.403E-02 0.669E-03 -.241E-04   0.562E-04 -.322E-03 -.418E-03   0.533E-07 -.324E-07 0.923E-08
   -.714E-02 -.863E-05 0.323E-02   0.804E-02 -.481E-03 -.229E-02   -.687E-03 0.385E-03 -.668E-03   0.851E-07 -.431E-07 -.104E-06
   -.398E-02 -.170E-03 0.436E-03   0.406E-02 0.649E-03 -.233E-04   -.560E-04 -.323E-03 -.419E-03   0.268E-07 -.122E-06 -.236E-06
   0.146E-06 0.306E-02 -.115E-06   0.568E-13 -.369E-02 -.107E-13   -.834E-07 0.528E-03 -.515E-07   -.768E-07 0.158E-06 0.123E-06
   -.364E-02 0.351E-02 -.364E-02   0.304E-02 -.370E-02 0.304E-02   0.211E-03 0.439E-03 0.211E-03   0.768E-07 -.962E-07 0.170E-06
 -----------------------------------------------------------------------------------------------
   -.320E-05 0.128E-05 -.491E-05   0.249E-12 -.400E-12 -.592E-13   0.353E-05 -.162E-05 0.596E-05   0.444E-07 0.101E-06 -.126E-06
 
 
 POSITION                                       TOTAL-FORCE (eV/Angst)
 -----------------------------------------------------------------------------------
      1.36715      1.35715      1.36715        -0.000000      0.130308     -0.000000
      0.00000      0.00000      0.00000        -0.020521     -0.032858     -0.020521
      1.36715      4.10144      4.10144         0.000951     -0.001571     -0.002018
      0.00000      2.73429      2.73429         0.019949     -0.032561     -0.019949
      1.36715      6.83573      6.83573        -0.000001     -0.000142     -0.000371
      0.00000      5.46858      5.46858        -0.000473     -0.000207     -0.000196
      1.36715      9.57002      9.57002        -0.000962     -0.001585     -0.002034
      0.00000      8.20287      8.20287         0.000474     -0.000210     -0.000198
      4.10144      1.36715      4.10144        -0.000965      0.004920     -0.000965
      2.73429      0.00000      2.73429         0.020521     -0.032858      0.020521
      4.10144      4.10144      6.83573         0.000272     -0.000104     -0.000150
      2.73429      2.73429      5.46858        -0.000343      0.000250      0.000340
      4.10144      6.83573      9.57002         0.000208     -0.000047     -0.000208
      2.73429      5.46858      8.20287        -0.000159     -0.000055      0.000080
      4.10144      9.57002     12.30431         0.002034     -0.001585      0.000962
      2.73429      8.20287     10.93716        -0.000341      0.000077      0.000341
      6.83573      1.36715      6.83573        -0.000000      0.001679     -0.000000
      5.46858      0.00000      5.46858        -0.000474     -0.002054     -0.000474
      6.83573      4.10144      9.57002         0.000150     -0.000104     -0.000272
      5.46858      2.73429      8.20287        -0.000159      0.000078      0.000159
      6.83573      6.83573     12.30431         0.000371     -0.000142      0.000001
      5.46858      5.46858     10.93716        -0.000080     -0.000055      0.000159
      6.83573      9.57002     15.03860         0.000208     -0.000104     -0.000272
      5.46858      8.20287     13.67145         0.000198     -0.000210     -0.000474
      9.57002      1.36715      9.57002         0.000965      0.004920      0.000965
      8.20287      0.00000      8.20287         0.000474     -0.002054      0.000474
      9.57002      4.10144     12.30431         0.002018     -0.001571     -0.000951
      8.20287      2.73429     10.93716        -0.000340      0.000250      0.000343
      9.57002      6.83573     15.03860         0.000150     -0.000048     -0.000150
      8.20287      5.46858     13.67145         0.000196     -0.000207      0.000473
      9.57002      9.57002     17.77289         0.000272     -0.000104     -0.000208
      8.20287      8.20287     16.40574        -0.000385      0.000251      0.000385
      4.10144      4.10144      1.36715        -0.002018     -0.001571      0.000951
      2.73429      2.73429      0.00000        -0.019949     -0.032561      0.019949
      4.10144      6.83573      4.10144        -0.000208     -0.000046     -0.000208
      2.73429      5.46858      2.73429         0.000343      0.000077      0.000343
      4.10144      9.57002      6.83573        -0.000270     -0.000104     -0.000149
      2.73429      8.20287      5.46858         0.000158     -0.000055      0.000081
      4.10144     12.30431      9.57002         0.000948      0.004915     -0.000948
      2.73429     10.93716      8.20287         0.000338      0.000252      0.000344
      6.83573      4.10144      4.10144        -0.000150     -0.000104      0.000272
      5.46858      2.73429      2.73429         0.000340      0.000250     -0.000343
      6.83573      6.83573      6.83573         0.000000     -0.000104     -0.000000
      5.46858      5.46858      5.46858        -0.000019      0.000099     -0.000019
      6.83573      9.57002      9.57002         0.000149     -0.000104      0.000270
      5.46858      8.20287      8.20287         0.000019      0.000099     -0.000018
      6.83573     12.30431     12.30431         0.000000     -0.000252     -0.000000
      5.46858     10.93716     10.93716        -0.000344      0.000252     -0.000338
      9.57002      4.10144      6.83573        -0.000272     -0.000104      0.000150
      8.20287      2.73429      5.46858         0.000159      0.000078     -0.000159
      9.57002      6.83573      9.57002         0.000208     -0.000046      0.000208
      8.20287      5.46858      8.20287         0.000019      0.000099      0.000019
      9.57002      9.57002     12.30431         0.000002     -0.000094      0.000012
      8.20287      8.20287     10.93716        -0.000081     -0.000055     -0.000157
      9.57002     12.30431     15.03860         0.000012     -0.000127     -0.000012
      8.20287     10.93716     13.67145         0.000022      0.000156      0.000008
     12.30431      4.10144      9.57002        -0.000951     -0.001571      0.002018
     10.93716      2.73429      8.20287         0.000343      0.000250     -0.000340
     12.30431      6.83573     12.30431        -0.000000     -0.000166     -0.000000
     10.93716      5.46858     10.93716        -0.000343      0.000077     -0.000343
     12.30431      9.57002     15.03860        -0.000012     -0.000094     -0.000002
     10.93716      8.20287     13.67145         0.000022      0.000064     -0.000022
     12.30431     12.30431     17.77289        -0.000000     -0.000252     -0.000000
     10.93716     10.93716     16.40574        -0.000008      0.000156     -0.000022
      6.83573      6.83573      1.36715        -0.000371     -0.000142     -0.000001
      5.46858      5.46858      0.00000        -0.000196     -0.000207     -0.000473
      6.83573      9.57002      4.10144        -0.000149     -0.000104     -0.000270
      5.46858      8.20287      2.73429         0.000081     -0.000055      0.000158
      6.83573     12.30431      6.83573        -0.000000      0.001670     -0.000000
      5.46858     10.93716      5.46858         0.000158      0.000078      0.000158
      6.83573     15.03860      9.57002        -0.000209     -0.000104     -0.000271
      5.46858     13.67145      8.20287         0.000473     -0.002037     -0.000473
      9.57002      6.83573      4.10144        -0.000208     -0.000047      0.000208
      8.20287      5.46858      2.73429         0.000080     -0.000055     -0.000159
      9.57002      9.57002      6.83573         0.000270     -0.000104      0.000149
      8.20287      8.20287      5.46858        -0.000018      0.000099      0.000019
      9.57002     12.30431      9.57002        -0.000012     -0.000126     -0.000012
      8.20287     10.93716      8.20287        -0.000158      0.000077     -0.000158
      9.57002     15.03860     12.30431        -0.000001     -0.000094      0.000012
      8.20287     13.67145     10.93716        -0.000022      0.000156      0.000007
     12.30431      6.83573      6.83573         0.000001     -0.000142      0.000371
     10.93716      5.46858      5.46858         0.000159     -0.000055     -0.000080
     12.30431      9.57002      9.57002         0.000012     -0.000094      0.000002
     10.93716      8.20287      8.20287        -0.000157     -0.000055     -0.000081
     12.30431     12.30431     12.30431        -0.000000     -0.000113     -0.000000
     10.93716     10.93716     10.93716        -0.000024      0.000106     -0.000024
     12.30431     15.03860     15.03860        -0.000012     -0.000094      0.000001
     10.93716     13.67145     13.67145         0.000024      0.000106     -0.000024
     15.03860      6.83573      9.57002        -0.000150     -0.000048      0.000150
     13.67145      5.46858      8.20287         0.000474     -0.000207      0.000196
     15.03860      9.57002     12.30431        -0.000002     -0.000094     -0.000012
     13.67145      8.20287     10.93716        -0.000022      0.000064      0.000022
     15.03860     12.30431     15.03860         0.000012     -0.000126      0.000012
     13.67145     10.93716     13.67145         0.000024      0.000106      0.000024
     15.03860     15.03860     17.77289         0.000271     -0.000104      0.000209
     13.67145     13.67145     16.40574        -0.000007      0.000156      0.000022
      9.57002      9.57002      1.36715        -0.002034     -0.001585     -0.000962
      8.20287      8.20287      0.00000        -0.000198     -0.000210      0.000474
      9.57002     12.30431      4.10144        -0.000948      0.004915      0.000948
      8.20287     10.93716      2.73429         0.000344      0.000252      0.000338
      9.57002     15.03860      6.83573        -0.000271     -0.000104     -0.000209
      8.20287     13.67145      5.46858        -0.000473     -0.002037      0.000473
      9.57002     17.77289      9.57002        -0.000150     -0.000045     -0.000150
      8.20287     16.40574      8.20287         0.000387      0.000251      0.000387
     12.30431      9.57002      4.10144         0.000962     -0.001585      0.002034
     10.93716      8.20287      2.73429         0.000341      0.000077     -0.000341
     12.30431     12.30431      6.83573        -0.000000     -0.000252      0.000000
     10.93716     10.93716      5.46858        -0.000337      0.000252     -0.000344
     12.30431     15.03860      9.57002         0.000012     -0.000094     -0.000001
     10.93716     13.67145      8.20287         0.000007      0.000156     -0.000022
     12.30431     17.77289     12.30431        -0.000000     -0.000167     -0.000000
     10.93716     16.40574     10.93716        -0.000022      0.000065     -0.000022
     15.03860      9.57002      6.83573        -0.000272     -0.000104      0.000208
     13.67145      8.20287      5.46858        -0.000474     -0.000210      0.000198
     15.03860     12.30431      9.57002        -0.000012     -0.000127      0.000012
     13.67145     10.93716      8.20287         0.000008      0.000156      0.000022
     15.03860     15.03860     12.30431         0.000001     -0.000094     -0.000012
     13.67145     13.67145     10.93716        -0.000024      0.000106      0.000024
     15.03860     17.77289     15.03860         0.000149     -0.000045      0.000149
     13.67145     16.40574     13.67145         0.000022      0.000065      0.000022
     17.77289      9.57002      9.57002        -0.000208     -0.000104      0.000272
     16.40574      8.20287      8.20287         0.000385      0.000251     -0.000385
     17.77289     12.30431     12.30431        -0.000000     -0.000252     -0.000000
     16.40574     10.93716     10.93716        -0.000022      0.000156     -0.000008
     17.77289     15.03860     15.03860         0.000209     -0.000104      0.000270
     16.40574     13.67145     13.67145         0.000022      0.000156     -0.000007
     17.77289     17.77289     17.77289        -0.000000     -0.000104     -0.000000
     16.40574     16.40574     16.40574        -0.000387      0.000251     -0.000387
 -----------------------------------------------------------------------------------
    total drift:                                0.000000     -0.000000      0.000001


--------------------------------------------------------------------------------------------------------



  FREE ENERGIE OF THE ION-ELECTRON SYSTEM (eV)
  ---------------------------------------------------
  free  energy   TOTEN  =      -682.56884802 eV

  energy  without entropy=     -682.56884802  energy(sigma->0) =     -682.56884802
 


--------------------------------------------------------------------------------------------------------


    POTLOK:  cpu time    0.4951: real time    0.4964


--------------------------------------------------------------------------------------------------------


     LOOP+:  cpu time  121.1813: real time  121.5584
    4ORBIT:  cpu time    0.0000: real time    0.0000

 total amount of memory used by VASP MPI-rank0   118934. kBytes
=======================================================================

   base      :      30000. kBytes
   nonl-proj :       7011. kBytes
   fftplans  :      53058. kBytes
   grid      :      20148. kBytes
   one-center:         21. kBytes
   wavefun   :       8696. kBytes
 
  
  
 General timing and accounting informations for this job:
 ========================================================
  
                  Total CPU time used (sec):      129.165
                            User time (sec):      126.426
                          System time (sec):        2.738
                         Elapsed time (sec):      129.521
  
                   Maximum memory used (kb):      235212.
                   Average memory used (kb):           0.
  
                          Minor page faults:       211027
                          Major page faults:            2
                 Voluntary context switches:          492
