<?xml version="1.0" encoding="ISO-8859-1"?>
<modeling>
 <generator>
  <i name="program" type="string">vasp </i>
  <i name="version" type="string">5.4.4.18Apr17-6-g9f103f2a35  </i>
  <i name="subversion" type="string">(build Aug 16 2020 16:33:06) complex            parallel </i>
  <i name="platform" type="string">LinuxIFC </i>
  <i name="date" type="string">2026 08 15 </i>
  <i name="time" type="string">15:43:46 </i>
 </generator>
 <incar>
  <i type="string" name="PREC">accurate</i>
  <i type="logical" name="ADDGRID"> T  </i>
  <i type="int" name="IBRION">    -1</i>
  <i name="EDIFF">      0.00000001</i>
  <i type="int" name="ISYM">     0</i>
  <i name="ENCUT">    500.00000000</i>
  <i type="logical" name="LREAL"> F  </i>
  <i type="int" name="ISMEAR">     0</i>
  <i name="SIGMA">      0.05000000</i>
  <i type="logical" name="LWAVE"> F  </i>
  <i type="logical" name="LCHARG"> F  </i>
  <v type="int" name="KPOINT_BSE">    -1     0     0     0</v>
 </incar>
 <structure name="primitive_cell" >
  <crystal>
   <varray name="basis" >
    <v>       0.00000000      10.93716070      10.93716070 </v>
    <v>      10.93716070       0.00000000      10.93716070 </v>
    <v>      10.93716070      10.93716070       0.00000000 </v>
   </varray>
   <i name="volume">   2616.63878844 </i>
   <varray name="rec_basis" >
    <v>      -0.04571570       0.04571570       0.04571570 </v>
    <v>       0.04571570      -0.04571570       0.04571570 </v>
    <v>       0.04571570       0.04571570      -0.04571570 </v>
   </varray>
  </crystal>
  <varray name="positions" >
   <v>       0.06204284       0.06204284       0.06295716 </v>
   <v>       0.00000000       0.00000000       0.25000000 </v>
   <v>       0.00000000       0.00000000       0.00000000 </v>
   <v>       0.25000000       0.00000000       0.00000000 </v>
   <v>       0.00000000       0.25000000       0.00000000 </v>
   <v>      -0.18750000       0.06250000       0.06250000 </v>
   <v>       0.06250000      -0.18750000       0.06250000 </v>
   <v>      -0.18750000       0.06250000       0.31250000 </v>
   <v>       0.06250000      -0.18750000       0.31250000 </v>
   <v>      -0.18750000       0.31250000       0.06250000 </v>
   <v>       0.31250000      -0.18750000       0.06250000 </v>
   <v>       0.06250000       0.06250000       0.31250000 </v>
   <v>       0.06250000       0.06250000      -0.18750000 </v>
   <v>       0.31250000       0.06250000       0.06250000 </v>
   <v>       0.06250000       0.31250000       0.06250000 </v>
   <v>       0.31250000       0.06250000      -0.18750000 </v>
   <v>       0.06250000       0.31250000      -0.18750000 </v>
   <v>      -0.25000000       0.00000000       0.25000000 </v>
   <v>       0.00000000      -0.25000000       0.25000000 </v>
   <v>      -0.25000000       0.25000000       0.00000000 </v>
   <v>       0.25000000      -0.25000000       0.00000000 </v>
   <v>      -0.25000000       0.25000000       0.25000000 </v>
   <v>       0.25000000      -0.25000000       0.25000000 </v>
   <v>       0.25000000       0.00000000       0.25000000 </v>
   <v>       0.00000000       0.25000000       0.25000000 </v>
   <v>       0.25000000       0.00000000      -0.25000000 </v>
   <v>       0.00000000       0.25000000      -0.25000000 </v>
   <v>       0.25000000       0.25000000       0.00000000 </v>
   <v>       0.25000000       0.25000000      -0.25000000 </v>
   <v>      -0.18750000      -0.18750000       0.31250000 </v>
   <v>      -0.18750000       0.31250000       0.31250000 </v>
   <v>       0.31250000      -0.18750000       0.31250000 </v>
   <v>      -0.18750000       0.31250000      -0.18750000 </v>
   <v>       0.31250000      -0.18750000      -0.18750000 </v>
   <v>       0.31250000       0.31250000      -0.18750000 </v>
   <v>      -0.25000000       0.00000000       0.00000000 </v>
   <v>       0.00000000      -0.25000000       0.00000000 </v>
   <v>      -0.25000000       0.00000000      -0.50000000 </v>
   <v>       0.00000000      -0.25000000      -0.50000000 </v>
   <v>       0.00000000       0.00000000      -0.50000000 </v>
   <v>       0.00000000       0.00000000      -0.25000000 </v>
   <v>       0.49954284       0.00045716      -0.00045716 </v>
   <v>      -0.25000000      -0.50000000       0.00000000 </v>
   <v>      -0.50000000      -0.25000000       0.00000000 </v>
   <v>       0.00000000      -0.50000000       0.00000000 </v>
   <v>      -0.50000000       0.00000000      -0.25000000 </v>
   <v>       0.00000000      -0.50000000      -0.25000000 </v>
   <v>      -0.18750000      -0.18750000       0.06250000 </v>
   <v>      -0.43750000       0.06250000       0.31250000 </v>
   <v>       0.06250000      -0.43750000       0.31250000 </v>
   <v>      -0.18750000      -0.18750000      -0.43750000 </v>
   <v>      -0.43750000       0.31250000       0.06250000 </v>
   <v>       0.31250000      -0.43750000       0.06250000 </v>
   <v>      -0.43750000       0.31250000       0.31250000 </v>
   <v>       0.31250000      -0.43750000       0.31250000 </v>
   <v>      -0.18750000       0.06250000      -0.43750000 </v>
   <v>       0.06250000      -0.18750000      -0.43750000 </v>
   <v>      -0.18750000       0.06250000      -0.18750000 </v>
   <v>       0.06250000      -0.18750000      -0.18750000 </v>
   <v>      -0.18750000      -0.43750000       0.06250000 </v>
   <v>      -0.43750000      -0.18750000       0.06250000 </v>
   <v>       0.31250000       0.06250000       0.31250000 </v>
   <v>       0.06250000       0.31250000       0.31250000 </v>
   <v>       0.31250000       0.06250000      -0.43750000 </v>
   <v>       0.06250000       0.31250000      -0.43750000 </v>
   <v>      -0.18750000      -0.43750000      -0.18750000 </v>
   <v>      -0.43750000      -0.18750000      -0.18750000 </v>
   <v>       0.31250000       0.31250000       0.06250000 </v>
   <v>       0.31250000       0.31250000      -0.43750000 </v>
   <v>      -0.43750000       0.06250000      -0.18750000 </v>
   <v>       0.06250000      -0.43750000      -0.18750000 </v>
   <v>      -0.25000000      -0.25000000      -0.50000000 </v>
   <v>      -0.25000000      -0.25000000       0.25000000 </v>
   <v>      -0.50000000       0.25000000       0.25000000 </v>
   <v>       0.25000000      -0.50000000       0.25000000 </v>
   <v>      -0.25000000       0.25000000      -0.50000000 </v>
   <v>       0.25000000      -0.25000000      -0.50000000 </v>
   <v>      -0.25000000       0.25000000      -0.25000000 </v>
   <v>       0.25000000      -0.25000000      -0.25000000 </v>
   <v>      -0.25000000      -0.50000000       0.25000000 </v>
   <v>      -0.50000000      -0.25000000       0.25000000 </v>
   <v>      -0.25000000      -0.50000000      -0.25000000 </v>
   <v>      -0.50000000      -0.25000000      -0.25000000 </v>
   <v>       0.25000000       0.25000000       0.25000000 </v>
   <v>       0.25000000       0.25000000      -0.50000000 </v>
   <v>      -0.50000000       0.25000000      -0.25000000 </v>
   <v>       0.25000000      -0.50000000      -0.25000000 </v>
   <v>      -0.43750000       0.06250000       0.06250000 </v>
   <v>       0.06250000      -0.43750000       0.06250000 </v>
   <v>      -0.43750000       0.06250000      -0.43750000 </v>
   <v>       0.06250000      -0.43750000      -0.43750000 </v>
   <v>      -0.43750000      -0.43750000       0.06250000 </v>
   <v>       0.06250000       0.06250000      -0.43750000 </v>
   <v>      -0.50000000       0.00000000       0.25000000 </v>
   <v>       0.00000000      -0.50000000       0.25000000 </v>
   <v>      -0.50000000       0.00000000      -0.50000000 </v>
   <v>       0.00000000      -0.50000000      -0.50000000 </v>
   <v>      -0.50000000       0.25000000       0.00000000 </v>
   <v>       0.25000000      -0.50000000       0.00000000 </v>
   <v>      -0.50000000       0.25000000      -0.50000000 </v>
   <v>       0.25000000      -0.50000000      -0.50000000 </v>
   <v>      -0.50000000      -0.50000000       0.00000000 </v>
   <v>      -0.50000000      -0.50000000       0.25000000 </v>
   <v>       0.25000000       0.00000000      -0.50000000 </v>
   <v>       0.00000000       0.25000000      -0.50000000 </v>
   <v>      -0.18750000      -0.43750000       0.31250000 </v>
   <v>      -0.43750000      -0.18750000       0.31250000 </v>
   <v>      -0.18750000      -0.43750000      -0.43750000 </v>
   <v>      -0.43750000      -0.18750000      -0.43750000 </v>
   <v>      -0.43750000       0.31250000      -0.43750000 </v>
   <v>       0.31250000      -0.43750000      -0.43750000 </v>
   <v>      -0.43750000       0.31250000      -0.18750000 </v>
   <v>       0.31250000      -0.43750000      -0.18750000 </v>
   <v>      -0.43750000      -0.43750000       0.31250000 </v>
   <v>      -0.18750000       0.31250000      -0.43750000 </v>
   <v>       0.31250000      -0.18750000      -0.43750000 </v>
   <v>      -0.43750000      -0.43750000      -0.18750000 </v>
   <v>      -0.25000000      -0.25000000       0.00000000 </v>
   <v>      -0.25000000      -0.25000000      -0.25000000 </v>
   <v>      -0.25000000       0.00000000      -0.25000000 </v>
   <v>       0.00000000      -0.25000000      -0.25000000 </v>
   <v>      -0.18750000      -0.18750000      -0.18750000 </v>
   <v>       0.31250000       0.31250000       0.31250000 </v>
   <v>      -0.25000000      -0.50000000      -0.50000000 </v>
   <v>      -0.50000000      -0.25000000      -0.50000000 </v>
   <v>      -0.50000000      -0.50000000      -0.50000000 </v>
   <v>      -0.50000000      -0.50000000      -0.25000000 </v>
   <v>      -0.43750000      -0.43750000      -0.43750000 </v>
  </varray>
 </structure>
 <varray name="primitive_index" >
  <v type="int" >        1 </v>
  <v type="int" >       81 </v>
  <v type="int" >       65 </v>
  <v type="int" >       66 </v>
  <v type="int" >       69 </v>
  <v type="int" >        4 </v>
  <v type="int" >       13 </v>
  <v type="int" >       20 </v>
  <v type="int" >       29 </v>
  <v type="int" >        8 </v>
  <v type="int" >       14 </v>
  <v type="int" >       17 </v>
  <v type="int" >       49 </v>
  <v type="int" >        2 </v>
  <v type="int" >        5 </v>
  <v type="int" >       50 </v>
  <v type="int" >       53 </v>
  <v type="int" >       84 </v>
  <v type="int" >       93 </v>
  <v type="int" >       72 </v>
  <v type="int" >       78 </v>
  <v type="int" >       88 </v>
  <v type="int" >       94 </v>
  <v type="int" >       82 </v>
  <v type="int" >       85 </v>
  <v type="int" >      114 </v>
  <v type="int" >      117 </v>
  <v type="int" >       70 </v>
  <v type="int" >      118 </v>
  <v type="int" >       32 </v>
  <v type="int" >       24 </v>
  <v type="int" >       30 </v>
  <v type="int" >       56 </v>
  <v type="int" >       62 </v>
  <v type="int" >       54 </v>
  <v type="int" >       68 </v>
  <v type="int" >       77 </v>
  <v type="int" >      100 </v>
  <v type="int" >      109 </v>
  <v type="int" >       97 </v>
  <v type="int" >      113 </v>
  <v type="int" >       67 </v>
  <v type="int" >       76 </v>
  <v type="int" >       79 </v>
  <v type="int" >       73 </v>
  <v type="int" >      115 </v>
  <v type="int" >      121 </v>
  <v type="int" >       16 </v>
  <v type="int" >       19 </v>
  <v type="int" >       25 </v>
  <v type="int" >       48 </v>
  <v type="int" >        7 </v>
  <v type="int" >       10 </v>
  <v type="int" >       23 </v>
  <v type="int" >       26 </v>
  <v type="int" >       36 </v>
  <v type="int" >       45 </v>
  <v type="int" >       52 </v>
  <v type="int" >       61 </v>
  <v type="int" >       12 </v>
  <v type="int" >       15 </v>
  <v type="int" >       18 </v>
  <v type="int" >       21 </v>
  <v type="int" >       34 </v>
  <v type="int" >       37 </v>
  <v type="int" >       60 </v>
  <v type="int" >       63 </v>
  <v type="int" >        6 </v>
  <v type="int" >       38 </v>
  <v type="int" >       51 </v>
  <v type="int" >       57 </v>
  <v type="int" >      112 </v>
  <v type="int" >       96 </v>
  <v type="int" >       87 </v>
  <v type="int" >       90 </v>
  <v type="int" >      104 </v>
  <v type="int" >      110 </v>
  <v type="int" >      120 </v>
  <v type="int" >      126 </v>
  <v type="int" >       92 </v>
  <v type="int" >       95 </v>
  <v type="int" >      124 </v>
  <v type="int" >      127 </v>
  <v type="int" >       86 </v>
  <v type="int" >      102 </v>
  <v type="int" >      119 </v>
  <v type="int" >      122 </v>
  <v type="int" >        3 </v>
  <v type="int" >        9 </v>
  <v type="int" >       35 </v>
  <v type="int" >       41 </v>
  <v type="int" >       11 </v>
  <v type="int" >       33 </v>
  <v type="int" >       83 </v>
  <v type="int" >       89 </v>
  <v type="int" >       99 </v>
  <v type="int" >      105 </v>
  <v type="int" >       71 </v>
  <v type="int" >       74 </v>
  <v type="int" >      103 </v>
  <v type="int" >      106 </v>
  <v type="int" >       75 </v>
  <v type="int" >       91 </v>
  <v type="int" >       98 </v>
  <v type="int" >      101 </v>
  <v type="int" >       28 </v>
  <v type="int" >       31 </v>
  <v type="int" >       44 </v>
  <v type="int" >       47 </v>
  <v type="int" >       39 </v>
  <v type="int" >       42 </v>
  <v type="int" >       55 </v>
  <v type="int" >       58 </v>
  <v type="int" >       27 </v>
  <v type="int" >       40 </v>
  <v type="int" >       46 </v>
  <v type="int" >       59 </v>
  <v type="int" >       80 </v>
  <v type="int" >      128 </v>
  <v type="int" >      116 </v>
  <v type="int" >      125 </v>
  <v type="int" >       64 </v>
  <v type="int" >       22 </v>
  <v type="int" >      108 </v>
  <v type="int" >      111 </v>
  <v type="int" >      107 </v>
  <v type="int" >      123 </v>
  <v type="int" >       43 </v>
 </varray>
 <kpoints>
  <generation param="Gamma">
   <v type="int" name="divisions">       1        1        1 </v>
   <v name="usershift">      0.00000000       0.00000000       0.00000000 </v>
   <v name="genvec1">      1.00000000       0.00000000       0.00000000 </v>
   <v name="genvec2">      0.00000000       1.00000000       0.00000000 </v>
   <v name="genvec3">      0.00000000       0.00000000       1.00000000 </v>
   <v name="shift">      0.00000000       0.00000000       0.00000000 </v>
  </generation>
  <varray name="kpointlist" >
   <v>       0.00000000       0.00000000       0.00000000 </v>
  </varray>
  <varray name="weights" >
   <v>       1.00000000 </v>
  </varray>
 </kpoints>
 <parameters>
  <separator name="general" >
   <i type="string" name="SYSTEM">unknown system</i>
   <i type="logical" name="LCOMPAT"> F  </i>
  </separator>
  <separator name="electronic" >
   <i type="string" name="PREC">accura</i>
   <i name="ENMAX">    500.00000000</i>
   <i name="ENAUG">    322.06900000</i>
   <i name="EDIFF">      0.00000001</i>
   <i type="int" name="IALGO">    38</i>
   <i type="int" name="IWAVPR">    10</i>
   <i type="int" name="NBANDS">   322</i>
   <i name="NELECT">    512.00000000</i>
   <i type="int" name="TURBO">     0</i>
   <i type="int" name="IRESTART">     0</i>
   <i type="int" name="NREBOOT">     0</i>
   <i type="int" name="NMIN">     0</i>
   <i name="EREF">      0.00000000</i>
   <separator name="electronic smearing" >
    <i type="int" name="ISMEAR">     0</i>
    <i name="SIGMA">      0.05000000</i>
    <i name="KSPACING">      0.50000000</i>
    <i type="logical" name="KGAMMA"> T  </i>
   </separator>
   <separator name="electronic projectors" >
    <i type="logical" name="LREAL"> F  </i>
    <v name="ROPT">      0.00000000</v>
    <i type="int" name="LMAXPAW">  -100</i>
    <i type="int" name="LMAXMIX">     2</i>
    <i type="logical" name="NLSPLINE"> F  </i>
   </separator>
   <separator name="electronic startup" >
    <i type="int" name="ISTART">     0</i>
    <i type="int" name="ICHARG">     2</i>
    <i type="int" name="INIWAV">     1</i>
   </separator>
   <separator name="electronic spin" >
    <i type="int" name="ISPIN">     1</i>
    <i type="logical" name="LNONCOLLINEAR"> F  </i>
    <v name="MAGMOM">      1.00000000      1.00000000      1.00000000      1.00000000      1.00000000      1.00000000      1.00000000      1.00000000      1.00000000      1.00000000      1.00000000      1.00000000      1.00000000      1.00000000      1.00000000      1.00000000      1.00000000      1.00000000      1.00000000      1.00000000
      1.00000000      1.00000000      1.00000000      1.00000000      1.00000000      1.00000000      1.00000000      1.00000000      1.00000000      1.00000000      1.00000000      1.00000000      1.00000000      1.00000000      1.00000000      1.00000000      1.00000000      1.00000000      1.00000000      1.00000000
      1.00000000      1.00000000      1.00000000      1.00000000      1.00000000      1.00000000      1.00000000      1.00000000      1.00000000      1.00000000      1.00000000      1.00000000      1.00000000      1.00000000      1.00000000      1.00000000      1.00000000      1.00000000      1.00000000      1.00000000
      1.00000000      1.00000000      1.00000000      1.00000000      1.00000000      1.00000000      1.00000000      1.00000000      1.00000000      1.00000000      1.00000000      1.00000000      1.00000000      1.00000000      1.00000000      1.00000000      1.00000000      1.00000000      1.00000000      1.00000000
      1.00000000      1.00000000      1.00000000      1.00000000      1.00000000      1.00000000      1.00000000      1.00000000      1.00000000      1.00000000      1.00000000      1.00000000      1.00000000      1.00000000      1.00000000      1.00000000      1.00000000      1.00000000      1.00000000      1.00000000
      1.00000000      1.00000000      1.00000000      1.00000000      1.00000000      1.00000000      1.00000000      1.00000000      1.00000000      1.00000000      1.00000000      1.00000000      1.00000000      1.00000000      1.00000000      1.00000000      1.00000000      1.00000000      1.00000000      1.00000000
      1.00000000      1.00000000      1.00000000      1.00000000      1.00000000      1.00000000      1.00000000      1.00000000</v>
    <i name="NUPDOWN">     -1.00000000</i>
    <i type="logical" name="LSORBIT"> F  </i>
    <v name="SAXIS">      0.00000000      0.00000000      1.00000000</v>
    <i type="logical" name="LSPIRAL"> F  </i>
    <v name="QSPIRAL">      0.00000000      0.00000000      0.00000000</v>
    <i type="logical" name="LZEROZ"> F  </i>
   </separator>
   <separator name="electronic exchange-correlation" >
    <i type="logical" name="LASPH"> F  </i>
    <i type="logical" name="LMETAGGA"> F  </i>
   </separator>
   <separator name="electronic convergence" >
    <i type="int" name="NELM">    60</i>
    <i type="int" name="NELMDL">    -5</i>
    <i type="int" name="NELMIN">     2</i>
    <i name="ENINI">    500.00000000</i>
    <separator name="electronic convergence detail" >
     <i type="logical" name="LDIAG"> T  </i>
     <i type="logical" name="LSUBROT"> F  </i>
     <i name="WEIMIN">      0.00000000</i>
     <i name="EBREAK">      0.00000000</i>
     <i name="DEPER">      0.30000000</i>
     <i type="int" name="NRMM">     4</i>
     <i name="TIME">      0.40000000</i>
    </separator>
   </separator>
   <separator name="electronic mixer" >
    <i name="AMIX">      0.40000000</i>
    <i name="BMIX">      1.00000000</i>
    <i name="AMIN">      0.10000000</i>
    <i name="AMIX_MAG">      1.60000000</i>
    <i name="BMIX_MAG">      1.00000000</i>
    <separator name="electronic mixer details" >
     <i type="int" name="IMIX">     4</i>
     <i type="logical" name="MIXFIRST"> F  </i>
     <i type="int" name="MAXMIX">   -45</i>
     <i name="WC">    100.00000000</i>
     <i type="int" name="INIMIX">     1</i>
     <i type="int" name="MIXPRE">     1</i>
     <i type="int" name="MREMOVE">     5</i>
    </separator>
   </separator>
   <separator name="electronic dipolcorrection" >
    <i type="logical" name="LDIPOL"> F  </i>
    <i type="logical" name="LMONO"> F  </i>
    <i type="int" name="IDIPOL">     0</i>
    <i name="EPSILON">      1.00000000</i>
    <v name="DIPOL">   -100.00000000   -100.00000000   -100.00000000</v>
    <i name="EFIELD">      0.00000000</i>
   </separator>
  </separator>
  <separator name="grids" >
   <i type="int" name="NGX">   120</i>
   <i type="int" name="NGY">   120</i>
   <i type="int" name="NGZ">   120</i>
   <i type="int" name="NGXF">   240</i>
   <i type="int" name="NGYF">   240</i>
   <i type="int" name="NGZF">   240</i>
   <i type="logical" name="ADDGRID"> T  </i>
  </separator>
  <separator name="ionic" >
   <i type="int" name="NSW">     0</i>
   <i type="int" name="IBRION">    -1</i>
   <i type="int" name="MDALGO">     0</i>
   <i type="int" name="ISIF">     2</i>
   <i name="PSTRESS">      0.00000000</i>
   <i name="EDIFFG">      0.00000010</i>
   <i type="int" name="NFREE">     0</i>
   <i name="POTIM">      0.50000000</i>
   <i name="SMASS">     -3.00000000</i>
   <i name="SCALEE">      1.00000000</i>
  </separator>
  <separator name="ionic md" >
   <i name="TEBEG">      0.00010000</i>
   <i name="TEEND">      0.00010000</i>
   <i type="int" name="NBLOCK">     1</i>
   <i type="int" name="KBLOCK">     1</i>
   <i type="int" name="NPACO">   256</i>
   <i name="APACO">     16.00000000</i>
  </separator>
  <separator name="symmetry" >
   <i type="int" name="ISYM">     0</i>
   <i name="SYMPREC">      0.00001000</i>
  </separator>
  <separator name="dos" >
   <i type="int" name="LORBIT">     0</i>
   <v name="RWIGS">     -1.00000000</v>
   <i type="int" name="NEDOS">   301</i>
   <i name="EMIN">     10.00000000</i>
   <i name="EMAX">    -10.00000000</i>
   <i name="EFERMI">      0.00000000</i>
  </separator>
  <separator name="writing" >
   <i type="int" name="NWRITE">     2</i>
   <i type="logical" name="LWAVE"> F  </i>
   <i type="logical" name="LDOWNSAMPLE"> F  </i>
   <i type="logical" name="LCHARG"> F  </i>
   <i type="logical" name="LPARD"> F  </i>
   <i type="logical" name="LVTOT"> F  </i>
   <i type="logical" name="LVHAR"> F  </i>
   <i type="logical" name="LELF"> F  </i>
   <i type="logical" name="LOPTICS"> F  </i>
   <v name="STM">      0.00000000      0.00000000      0.00000000      0.00000000      0.00000000      0.00000000      0.00000000</v>
  </separator>
  <separator name="performance" >
   <i type="int" name="NPAR">     2</i>
   <i type="int" name="NSIM">     4</i>
   <i type="int" name="NBLK">    -1</i>
   <i type="logical" name="LPLANE"> T  </i>
   <i type="logical" name="LSCALAPACK"> T  </i>
   <i type="logical" name="LSCAAWARE"> F  </i>
   <i type="logical" name="LSCALU"> F  </i>
   <i type="logical" name="LASYNC"> F  </i>
   <i type="logical" name="LORBITALREAL"> F  </i>
  </separator>
  <separator name="miscellaneous" >
   <i type="int" name="IDIOT">     3</i>
   <i type="int" name="ISPECIAL">     0</i>
   <i type="logical" name="LMUSIC"> F  </i>
   <v name="POMASS">     28.08500000</v>
   <v name="DARWINR">      0.00000000</v>
   <v name="DARWINV">      1.00000000</v>
   <i type="logical" name="LCORR"> T  </i>
  </separator>
  <i type="logical" name="GGA_COMPAT"> T  </i>
  <i type="logical" name="LBERRY"> F  </i>
  <i type="int" name="ICORELEVEL">     0</i>
  <i type="logical" name="LDAU"> F  </i>
  <i type="int" name="I_CONSTRAINED_M">     0</i>
  <separator name="electronic exchange-correlation" >
   <i type="string" name="GGA">--</i>
   <i type="int" name="VOSKOWN">     0</i>
   <i type="logical" name="LHFCALC"> F  </i>
   <i type="string" name="PRECFOCK"></i>
   <i type="logical" name="LSYMGRAD"> F  </i>
   <i type="logical" name="LHFONE"> F  </i>
   <i type="logical" name="LRHFCALC"> F  </i>
   <i type="logical" name="LTHOMAS"> F  </i>
   <i type="logical" name="LMODELHF"> F  </i>
   <i name="ENCUT4O">     -1.00000000</i>
   <i type="int" name="EXXOEP">     0</i>
   <i type="int" name="FOURORBIT">     0</i>
   <i name="AEXX">      0.00000000</i>
   <i name="HFALPHA">      0.00000000</i>
   <i name="MCALPHA">      0.00000000</i>
   <i name="ALDAX">      1.00000000</i>
   <i name="AGGAX">      1.00000000</i>
   <i name="ALDAC">      1.00000000</i>
   <i name="AGGAC">      1.00000000</i>
   <i type="int" name="NKREDX">     1</i>
   <i type="int" name="NKREDY">     1</i>
   <i type="int" name="NKREDZ">     1</i>
   <i type="logical" name="SHIFTRED"> F  </i>
   <i type="logical" name="ODDONLY"> F  </i>
   <i type="logical" name="EVENONLY"> F  </i>
   <i type="int" name="LMAXFOCK">     0</i>
   <i type="int" name="NMAXFOCKAE">     0</i>
   <i type="logical" name="LFOCKAEDFT"> F  </i>
   <i name="HFSCREEN">      0.00000000</i>
   <i name="HFSCREENC">      0.00000000</i>
   <i type="int" name="NBANDSGWLOW">     0</i>
  </separator>
  <separator name="vdW DFT" >
   <i type="logical" name="LUSE_VDW"> F  </i>
   <i name="Zab_VDW">     -0.84910000</i>
   <i name="PARAM1">      0.12340000</i>
   <i name="PARAM2">      1.00000000</i>
   <i name="PARAM3">      0.00000000</i>
  </separator>
  <separator name="model GW" >
   <i type="int" name="MODEL_GW">     0</i>
   <i name="MODEL_EPS0">     12.26549432</i>
   <i name="MODEL_ALPHA">      1.00000000</i>
  </separator>
  <separator name="linear response parameters" >
   <i type="logical" name="LEPSILON"> F  </i>
   <i type="logical" name="LRPA"> F  </i>
   <i type="logical" name="LNABLA"> F  </i>
   <i type="logical" name="LVEL"> F  </i>
   <i type="int" name="KINTER">     0</i>
   <i name="CSHIFT">      0.10000000</i>
   <i name="OMEGAMAX">     -1.00000000</i>
   <i name="DEG_THRESHOLD">      0.00200000</i>
   <i name="RTIME">     -0.10000000</i>
   <i name="WPLASMAI">      0.00000000</i>
   <v name="DFIELD">      0.00000000      0.00000000      0.00000000</v>
   <v name="WPLASMA">      0.00000000      0.00000000      0.00000000      0.00000000      0.00000000      0.00000000      0.00000000      0.00000000      0.00000000</v>
  </separator>
  <separator name="orbital magnetization" >
   <i type="logical" name="NUCIND"> F  </i>
   <v name="MAGPOS">      0.00000000      0.00000000      0.00000000</v>
   <i type="logical" name="LNICSALL"> T  </i>
   <i type="logical" name="ORBITALMAG"> F  </i>
   <i type="logical" name="LMAGBLOCH"> F  </i>
   <i type="logical" name="LCHIMAG"> F  </i>
   <i type="logical" name="LGAUGE"> T  </i>
   <i type="int" name="MAGATOM">     0</i>
   <v name="MAGDIPOL">      0.00000000      0.00000000      0.00000000</v>
   <v name="AVECCONST">      0.00000000      0.00000000      0.00000000</v>
  </separator>
  <separator name="response functions" >
   <i type="logical" name="LADDER"> F  </i>
   <i type="logical" name="LRPAFORCE"> F  </i>
   <i type="logical" name="LFXC"> F  </i>
   <i type="logical" name="LHARTREE"> T  </i>
   <i type="int" name="IBSE">     0</i>
   <v type="int" name="KPOINT">    -1     0     0     0</v>
   <i type="logical" name="LTCTE"> F  </i>
   <i type="logical" name="LTETE"> F  </i>
   <i type="logical" name="LTRIPLET"> F  </i>
   <i type="logical" name="LFXCEPS"> F  </i>
   <i type="logical" name="LFXHEG"> F  </i>
   <i type="int" name="NATURALO">     2</i>
   <i type="logical" name="L2ORDER"> F  </i>
   <i type="logical" name="LMP2LT"> F  </i>
   <i type="logical" name="LUSEW"> F  </i>
   <i name="ENCUTGW">     -2.00000000</i>
   <i name="ENCUTGWSOFT">     -2.00000000</i>
   <i name="ENCUTLF">     -1.00000000</i>
   <i type="int" name="LMAXMP2">    -1</i>
   <i name="SCISSOR">      0.00000000</i>
   <i type="int" name="NOMEGA">     0</i>
   <i type="int" name="NOMEGAR">     0</i>
   <i type="int" name="NBANDSGW">    -1</i>
   <i type="int" name="NBANDSO">    -1</i>
   <i type="int" name="NBANDSV">    -1</i>
   <i type="int" name="NELM">     1</i>
   <i type="int" name="NELMHF">     1</i>
   <i type="int" name="DIM">     3</i>
   <i type="int" name="ANTIRES">     0</i>
   <i name="OMEGAMAX">    -30.00000000</i>
   <i name="OMEGAMIN">    -30.00000000</i>
   <i name="OMEGATL">   -200.00000000</i>
   <i type="int" name="OMEGAGRID">   140</i>
   <i name="CSHIFT">     -0.10000000</i>
   <i type="logical" name="SELFENERGY"> F  </i>
   <i type="logical" name="LSPECTRAL"> F  </i>
   <i type="logical" name="LSPECTRALGW"> F  </i>
   <i type="logical" name="LSINGLES"> F  </i>
   <i type="logical" name="LFERMIGW"> F  </i>
   <i type="logical" name="ODDONLYGW"> F  </i>
   <i type="logical" name="EVENONLYGW"> F  </i>
   <i type="int" name="NKREDLFX">     1</i>
   <i type="int" name="NKREDLFY">     1</i>
   <i type="int" name="NKREDLFZ">     1</i>
   <i type="int" name="MAXMEM">  2800</i>
   <i type="int" name="TELESCOPE">     0</i>
   <i type="int" name="TAUPAR">     1</i>
   <i type="int" name="OMEGAPAR">    -1</i>
   <i name="LAMBDA">      1.00000000</i>
  </separator>
  <separator name="External order field" >
   <i name="OFIELD_KAPPA">      0.00000000</i>
   <v name="OFIELD_K">      0.00000000      0.00000000      0.00000000</v>
   <i name="OFIELD_Q6_NEAR">      0.00000000</i>
   <i name="OFIELD_Q6_FAR">      0.00000000</i>
   <i name="OFIELD_A">      0.00000000</i>
  </separator>
 </parameters>
 <atominfo>
  <atoms>     128 </atoms>
  <types>       1 </types>
  <array name="atoms" >
   <dimension dim="1">ion</dimension>
   <field type="string">element</field>
   <field type="int">atomtype</field>
   <set>
    <rc><c>Si</c><c>   1</c></rc>
    <rc><c>Si</c><c>   1</c></rc>
    <rc><c>Si</c><c>   1</c></rc>
    <rc><c>Si</c><c>   1</c></rc>
    <rc><c>Si</c><c>   1</c></rc>
    <rc><c>Si</c><c>   1</c></rc>
    <rc><c>Si</c><c>   1</c></rc>
    <rc><c>Si</c><c>   1</c></rc>
    <rc><c>Si</c><c>   1</c></rc>
    <rc><c>Si</c><c>   1</c></rc>
    <rc><c>Si</c><c>   1</c></rc>
    <rc><c>Si</c><c>   1</c></rc>
    <rc><c>Si</c><c>   1</c></rc>
    <rc><c>Si</c><c>   1</c></rc>
    <rc><c>Si</c><c>   1</c></rc>
    <rc><c>Si</c><c>   1</c></rc>
    <rc><c>Si</c><c>   1</c></rc>
    <rc><c>Si</c><c>   1</c></rc>
    <rc><c>Si</c><c>   1</c></rc>
    <rc><c>Si</c><c>   1</c></rc>
    <rc><c>Si</c><c>   1</c></rc>
    <rc><c>Si</c><c>   1</c></rc>
    <rc><c>Si</c><c>   1</c></rc>
    <rc><c>Si</c><c>   1</c></rc>
    <rc><c>Si</c><c>   1</c></rc>
    <rc><c>Si</c><c>   1</c></rc>
    <rc><c>Si</c><c>   1</c></rc>
    <rc><c>Si</c><c>   1</c></rc>
    <rc><c>Si</c><c>   1</c></rc>
    <rc><c>Si</c><c>   1</c></rc>
    <rc><c>Si</c><c>   1</c></rc>
    <rc><c>Si</c><c>   1</c></rc>
    <rc><c>Si</c><c>   1</c></rc>
    <rc><c>Si</c><c>   1</c></rc>
    <rc><c>Si</c><c>   1</c></rc>
    <rc><c>Si</c><c>   1</c></rc>
    <rc><c>Si</c><c>   1</c></rc>
    <rc><c>Si</c><c>   1</c></rc>
    <rc><c>Si</c><c>   1</c></rc>
    <rc><c>Si</c><c>   1</c></rc>
    <rc><c>Si</c><c>   1</c></rc>
    <rc><c>Si</c><c>   1</c></rc>
    <rc><c>Si</c><c>   1</c></rc>
    <rc><c>Si</c><c>   1</c></rc>
    <rc><c>Si</c><c>   1</c></rc>
    <rc><c>Si</c><c>   1</c></rc>
    <rc><c>Si</c><c>   1</c></rc>
    <rc><c>Si</c><c>   1</c></rc>
    <rc><c>Si</c><c>   1</c></rc>
    <rc><c>Si</c><c>   1</c></rc>
    <rc><c>Si</c><c>   1</c></rc>
    <rc><c>Si</c><c>   1</c></rc>
    <rc><c>Si</c><c>   1</c></rc>
    <rc><c>Si</c><c>   1</c></rc>
    <rc><c>Si</c><c>   1</c></rc>
    <rc><c>Si</c><c>   1</c></rc>
    <rc><c>Si</c><c>   1</c></rc>
    <rc><c>Si</c><c>   1</c></rc>
    <rc><c>Si</c><c>   1</c></rc>
    <rc><c>Si</c><c>   1</c></rc>
    <rc><c>Si</c><c>   1</c></rc>
    <rc><c>Si</c><c>   1</c></rc>
    <rc><c>Si</c><c>   1</c></rc>
    <rc><c>Si</c><c>   1</c></rc>
    <rc><c>Si</c><c>   1</c></rc>
    <rc><c>Si</c><c>   1</c></rc>
    <rc><c>Si</c><c>   1</c></rc>
    <rc><c>Si</c><c>   1</c></rc>
    <rc><c>Si</c><c>   1</c></rc>
    <rc><c>Si</c><c>   1</c></rc>
    <rc><c>Si</c><c>   1</c></rc>
    <rc><c>Si</c><c>   1</c></rc>
    <rc><c>Si</c><c>   1</c></rc>
    <rc><c>Si</c><c>   1</c></rc>
    <rc><c>Si</c><c>   1</c></rc>
    <rc><c>Si</c><c>   1</c></rc>
    <rc><c>Si</c><c>   1</c></rc>
    <rc><c>Si</c><c>   1</c></rc>
    <rc><c>Si</c><c>   1</c></rc>
    <rc><c>Si</c><c>   1</c></rc>
    <rc><c>Si</c><c>   1</c></rc>
    <rc><c>Si</c><c>   1</c></rc>
    <rc><c>Si</c><c>   1</c></rc>
    <rc><c>Si</c><c>   1</c></rc>
    <rc><c>Si</c><c>   1</c></rc>
    <rc><c>Si</c><c>   1</c></rc>
    <rc><c>Si</c><c>   1</c></rc>
    <rc><c>Si</c><c>   1</c></rc>
    <rc><c>Si</c><c>   1</c></rc>
    <rc><c>Si</c><c>   1</c></rc>
    <rc><c>Si</c><c>   1</c></rc>
    <rc><c>Si</c><c>   1</c></rc>
    <rc><c>Si</c><c>   1</c></rc>
    <rc><c>Si</c><c>   1</c></rc>
    <rc><c>Si</c><c>   1</c></rc>
    <rc><c>Si</c><c>   1</c></rc>
    <rc><c>Si</c><c>   1</c></rc>
    <rc><c>Si</c><c>   1</c></rc>
    <rc><c>Si</c><c>   1</c></rc>
    <rc><c>Si</c><c>   1</c></rc>
    <rc><c>Si</c><c>   1</c></rc>
    <rc><c>Si</c><c>   1</c></rc>
    <rc><c>Si</c><c>   1</c></rc>
    <rc><c>Si</c><c>   1</c></rc>
    <rc><c>Si</c><c>   1</c></rc>
    <rc><c>Si</c><c>   1</c></rc>
    <rc><c>Si</c><c>   1</c></rc>
    <rc><c>Si</c><c>   1</c></rc>
    <rc><c>Si</c><c>   1</c></rc>
    <rc><c>Si</c><c>   1</c></rc>
    <rc><c>Si</c><c>   1</c></rc>
    <rc><c>Si</c><c>   1</c></rc>
    <rc><c>Si</c><c>   1</c></rc>
    <rc><c>Si</c><c>   1</c></rc>
    <rc><c>Si</c><c>   1</c></rc>
    <rc><c>Si</c><c>   1</c></rc>
    <rc><c>Si</c><c>   1</c></rc>
    <rc><c>Si</c><c>   1</c></rc>
    <rc><c>Si</c><c>   1</c></rc>
    <rc><c>Si</c><c>   1</c></rc>
    <rc><c>Si</c><c>   1</c></rc>
    <rc><c>Si</c><c>   1</c></rc>
    <rc><c>Si</c><c>   1</c></rc>
    <rc><c>Si</c><c>   1</c></rc>
    <rc><c>Si</c><c>   1</c></rc>
    <rc><c>Si</c><c>   1</c></rc>
    <rc><c>Si</c><c>   1</c></rc>
    <rc><c>Si</c><c>   1</c></rc>
   </set>
  </array>
  <array name="atomtypes" >
   <dimension dim="1">type</dimension>
   <field type="int">atomspertype</field>
   <field type="string">element</field>
   <field>mass</field>
   <field>valence</field>
   <field type="string">pseudopotential</field>
   <set>
    <rc><c> 128</c><c>Si</c><c>     28.08500000</c><c>      4.00000000</c><c> PAW_PBE Si 05Jan2001                   </c></rc>
   </set>
  </array>
 </atominfo>
 <structure name="initialpos" >
  <crystal>
   <varray name="basis" >
    <v>       0.00000000      10.93716070      10.93716070 </v>
    <v>      10.93716070       0.00000000      10.93716070 </v>
    <v>      10.93716070      10.93716070       0.00000000 </v>
   </varray>
   <i name="volume">   2616.63878844 </i>
   <varray name="rec_basis" >
    <v>      -0.04571570       0.04571570       0.04571570 </v>
    <v>       0.04571570      -0.04571570       0.04571570 </v>
    <v>       0.04571570       0.04571570      -0.04571570 </v>
   </varray>
  </crystal>
  <varray name="positions" >
   <v>       0.06204284       0.06204284       0.06295716 </v>
   <v>       0.31250000       0.06250000       0.06250000 </v>
   <v>       0.56250000       0.06250000       0.06250000 </v>
   <v>       0.81250000       0.06250000       0.06250000 </v>
   <v>       0.06250000       0.31250000       0.06250000 </v>
   <v>       0.31250000       0.31250000       0.06250000 </v>
   <v>       0.56250000       0.31250000       0.06250000 </v>
   <v>       0.81250000       0.31250000       0.06250000 </v>
   <v>       0.06250000       0.56250000       0.06250000 </v>
   <v>       0.31250000       0.56250000       0.06250000 </v>
   <v>       0.56250000       0.56250000       0.06250000 </v>
   <v>       0.81250000       0.56250000       0.06250000 </v>
   <v>       0.06250000       0.81250000       0.06250000 </v>
   <v>       0.31250000       0.81250000       0.06250000 </v>
   <v>       0.56250000       0.81250000       0.06250000 </v>
   <v>       0.81250000       0.81250000       0.06250000 </v>
   <v>       0.06250000       0.06250000       0.31250000 </v>
   <v>       0.31250000       0.06250000       0.31250000 </v>
   <v>       0.56250000       0.06250000       0.31250000 </v>
   <v>       0.81250000       0.06250000       0.31250000 </v>
   <v>       0.06250000       0.31250000       0.31250000 </v>
   <v>       0.31250000       0.31250000       0.31250000 </v>
   <v>       0.56250000       0.31250000       0.31250000 </v>
   <v>       0.81250000       0.31250000       0.31250000 </v>
   <v>       0.06250000       0.56250000       0.31250000 </v>
   <v>       0.31250000       0.56250000       0.31250000 </v>
   <v>       0.56250000       0.56250000       0.31250000 </v>
   <v>       0.81250000       0.56250000       0.31250000 </v>
   <v>       0.06250000       0.81250000       0.31250000 </v>
   <v>       0.31250000       0.81250000       0.31250000 </v>
   <v>       0.56250000       0.81250000       0.31250000 </v>
   <v>       0.81250000       0.81250000       0.31250000 </v>
   <v>       0.06250000       0.06250000       0.56250000 </v>
   <v>       0.31250000       0.06250000       0.56250000 </v>
   <v>       0.56250000       0.06250000       0.56250000 </v>
   <v>       0.81250000       0.06250000       0.56250000 </v>
   <v>       0.06250000       0.31250000       0.56250000 </v>
   <v>       0.31250000       0.31250000       0.56250000 </v>
   <v>       0.56250000       0.31250000       0.56250000 </v>
   <v>       0.81250000       0.31250000       0.56250000 </v>
   <v>       0.06250000       0.56250000       0.56250000 </v>
   <v>       0.31250000       0.56250000       0.56250000 </v>
   <v>       0.56250000       0.56250000       0.56250000 </v>
   <v>       0.81250000       0.56250000       0.56250000 </v>
   <v>       0.06250000       0.81250000       0.56250000 </v>
   <v>       0.31250000       0.81250000       0.56250000 </v>
   <v>       0.56250000       0.81250000       0.56250000 </v>
   <v>       0.81250000       0.81250000       0.56250000 </v>
   <v>       0.06250000       0.06250000       0.81250000 </v>
   <v>       0.31250000       0.06250000       0.81250000 </v>
   <v>       0.56250000       0.06250000       0.81250000 </v>
   <v>       0.81250000       0.06250000       0.81250000 </v>
   <v>       0.06250000       0.31250000       0.81250000 </v>
   <v>       0.31250000       0.31250000       0.81250000 </v>
   <v>       0.56250000       0.31250000       0.81250000 </v>
   <v>       0.81250000       0.31250000       0.81250000 </v>
   <v>       0.06250000       0.56250000       0.81250000 </v>
   <v>       0.31250000       0.56250000       0.81250000 </v>
   <v>       0.56250000       0.56250000       0.81250000 </v>
   <v>       0.81250000       0.56250000       0.81250000 </v>
   <v>       0.06250000       0.81250000       0.81250000 </v>
   <v>       0.31250000       0.81250000       0.81250000 </v>
   <v>       0.56250000       0.81250000       0.81250000 </v>
   <v>       0.81250000       0.81250000       0.81250000 </v>
   <v>       0.00000000       0.00000000       0.00000000 </v>
   <v>       0.25000000       0.00000000       0.00000000 </v>
   <v>       0.49954284       0.00045716       0.99954284 </v>
   <v>       0.75000000       0.00000000       0.00000000 </v>
   <v>       0.00000000       0.25000000       0.00000000 </v>
   <v>       0.25000000       0.25000000       0.00000000 </v>
   <v>       0.50000000       0.25000000       0.00000000 </v>
   <v>       0.75000000       0.25000000       0.00000000 </v>
   <v>       0.00000000       0.50000000       0.00000000 </v>
   <v>       0.25000000       0.50000000       0.00000000 </v>
   <v>       0.50000000       0.50000000       0.00000000 </v>
   <v>       0.75000000       0.50000000       0.00000000 </v>
   <v>       0.00000000       0.75000000       0.00000000 </v>
   <v>       0.25000000       0.75000000       0.00000000 </v>
   <v>       0.50000000       0.75000000       0.00000000 </v>
   <v>       0.75000000       0.75000000       0.00000000 </v>
   <v>       0.00000000       0.00000000       0.25000000 </v>
   <v>       0.25000000       0.00000000       0.25000000 </v>
   <v>       0.50000000       0.00000000       0.25000000 </v>
   <v>       0.75000000       0.00000000       0.25000000 </v>
   <v>       0.00000000       0.25000000       0.25000000 </v>
   <v>       0.25000000       0.25000000       0.25000000 </v>
   <v>       0.50000000       0.25000000       0.25000000 </v>
   <v>       0.75000000       0.25000000       0.25000000 </v>
   <v>       0.00000000       0.50000000       0.25000000 </v>
   <v>       0.25000000       0.50000000       0.25000000 </v>
   <v>       0.50000000       0.50000000       0.25000000 </v>
   <v>       0.75000000       0.50000000       0.25000000 </v>
   <v>       0.00000000       0.75000000       0.25000000 </v>
   <v>       0.25000000       0.75000000       0.25000000 </v>
   <v>       0.50000000       0.75000000       0.25000000 </v>
   <v>       0.75000000       0.75000000       0.25000000 </v>
   <v>       0.00000000       0.00000000       0.50000000 </v>
   <v>       0.25000000       0.00000000       0.50000000 </v>
   <v>       0.50000000       0.00000000       0.50000000 </v>
   <v>       0.75000000       0.00000000       0.50000000 </v>
   <v>       0.00000000       0.25000000       0.50000000 </v>
   <v>       0.25000000       0.25000000       0.50000000 </v>
   <v>       0.50000000       0.25000000       0.50000000 </v>
   <v>       0.75000000       0.25000000       0.50000000 </v>
   <v>       0.00000000       0.50000000       0.50000000 </v>
   <v>       0.25000000       0.50000000       0.50000000 </v>
   <v>       0.50000000       0.50000000       0.50000000 </v>
   <v>       0.75000000       0.50000000       0.50000000 </v>
   <v>       0.00000000       0.75000000       0.50000000 </v>
   <v>       0.25000000       0.75000000       0.50000000 </v>
   <v>       0.50000000       0.75000000       0.50000000 </v>
   <v>       0.75000000       0.75000000       0.50000000 </v>
   <v>       0.00000000       0.00000000       0.75000000 </v>
   <v>       0.25000000       0.00000000       0.75000000 </v>
   <v>       0.50000000       0.00000000       0.75000000 </v>
   <v>       0.75000000       0.00000000       0.75000000 </v>
   <v>       0.00000000       0.25000000       0.75000000 </v>
   <v>       0.25000000       0.25000000       0.75000000 </v>
   <v>       0.50000000       0.25000000       0.75000000 </v>
   <v>       0.75000000       0.25000000       0.75000000 </v>
   <v>       0.00000000       0.50000000       0.75000000 </v>
   <v>       0.25000000       0.50000000       0.75000000 </v>
   <v>       0.50000000       0.50000000       0.75000000 </v>
   <v>       0.75000000       0.50000000       0.75000000 </v>
   <v>       0.00000000       0.75000000       0.75000000 </v>
   <v>       0.25000000       0.75000000       0.75000000 </v>
   <v>       0.50000000       0.75000000       0.75000000 </v>
   <v>       0.75000000       0.75000000       0.75000000 </v>
  </varray>
 </structure>
 <calculation>
  <scstep>
   <time name="dav">    4.81    4.82</time>
   <time name="total">    5.34    5.36</time>
   <energy>
    <i name="alphaZ">    210.78028765 </i>
    <i name="ewald"> -14524.86538913 </i>
    <i name="hartreedc">   -724.62036057 </i>
    <i name="XCdc">  -1195.83148089 </i>
    <i name="pawpsdc">   4221.13331941 </i>
    <i name="pawaedc">  -1969.18571412 </i>
    <i name="eentropy">     -0.01567268 </i>
    <i name="bandstr">   2165.00849517 </i>
    <i name="atom">  13192.48085998 </i>
    <i name="e_fr_energy">   1374.88434483 </i>
    <i name="e_wo_entrp">   1374.90001751 </i>
    <i name="e_0_energy">   1374.89218117 </i>
   </energy>
  </scstep>
  <scstep>
   <time name="dav">    5.51    5.52</time>
   <time name="total">    5.51    5.52</time>
   <energy>
    <i name="e_fr_energy">   -537.01893581 </i>
    <i name="e_wo_entrp">   -537.01893389 </i>
    <i name="e_0_energy">   -537.01893485 </i>
   </energy>
  </scstep>
  <scstep>
   <time name="dav">    5.50    5.52</time>
   <time name="total">    5.50    5.52</time>
   <energy>
    <i name="e_fr_energy">   -690.02379575 </i>
    <i name="e_wo_entrp">   -690.02379575 </i>
    <i name="e_0_energy">   -690.02379575 </i>
   </energy>
  </scstep>
  <scstep>
   <time name="dav">    5.39    5.41</time>
   <time name="total">    5.39    5.41</time>
   <energy>
    <i name="e_fr_energy">   -694.53325793 </i>
    <i name="e_wo_entrp">   -694.53325793 </i>
    <i name="e_0_energy">   -694.53325793 </i>
   </energy>
  </scstep>
  <scstep>
   <time name="dav">    5.40    5.41</time>
   <time name="total">    5.92    5.94</time>
   <energy>
    <i name="e_fr_energy">   -694.69874951 </i>
    <i name="e_wo_entrp">   -694.69874951 </i>
    <i name="e_0_energy">   -694.69874951 </i>
   </energy>
  </scstep>
  <scstep>
   <time name="dav">    5.06    5.07</time>
   <time name="total">    6.07    6.09</time>
   <energy>
    <i name="e_fr_energy">   -686.29988582 </i>
    <i name="e_wo_entrp">   -686.29988582 </i>
    <i name="e_0_energy">   -686.29988582 </i>
   </energy>
  </scstep>
  <scstep>
   <time name="dav">    4.92    4.93</time>
   <time name="total">    5.93    5.95</time>
   <energy>
    <i name="e_fr_energy">   -682.42699699 </i>
    <i name="e_wo_entrp">   -682.42699699 </i>
    <i name="e_0_energy">   -682.42699699 </i>
   </energy>
  </scstep>
  <scstep>
   <time name="dav">    5.08    5.09</time>
   <time name="total">    6.09    6.11</time>
   <energy>
    <i name="e_fr_energy">   -682.55905980 </i>
    <i name="e_wo_entrp">   -682.55905980 </i>
    <i name="e_0_energy">   -682.55905980 </i>
   </energy>
  </scstep>
  <scstep>
   <time name="dav">    5.49    5.51</time>
   <time name="total">    6.51    6.53</time>
   <energy>
    <i name="e_fr_energy">   -682.56550044 </i>
    <i name="e_wo_entrp">   -682.56550044 </i>
    <i name="e_0_energy">   -682.56550044 </i>
   </energy>
  </scstep>
  <scstep>
   <time name="dav">    5.01    5.02</time>
   <time name="total">    6.01    6.12</time>
   <energy>
    <i name="e_fr_energy">   -682.56818472 </i>
    <i name="e_wo_entrp">   -682.56818472 </i>
    <i name="e_0_energy">   -682.56818472 </i>
   </energy>
  </scstep>
  <scstep>
   <time name="dav">    5.44    5.46</time>
   <time name="total">    6.45    6.48</time>
   <energy>
    <i name="e_fr_energy">   -682.56819817 </i>
    <i name="e_wo_entrp">   -682.56819817 </i>
    <i name="e_0_energy">   -682.56819817 </i>
   </energy>
  </scstep>
  <scstep>
   <time name="dav">    5.56    5.57</time>
   <time name="total">    6.57    6.59</time>
   <energy>
    <i name="e_fr_energy">   -682.56820267 </i>
    <i name="e_wo_entrp">   -682.56820267 </i>
    <i name="e_0_energy">   -682.56820267 </i>
   </energy>
  </scstep>
  <scstep>
   <time name="dav">    5.36    5.38</time>
   <time name="total">    6.37    6.39</time>
   <energy>
    <i name="e_fr_energy">   -682.56819881 </i>
    <i name="e_wo_entrp">   -682.56819881 </i>
    <i name="e_0_energy">   -682.56819881 </i>
   </energy>
  </scstep>
  <scstep>
   <time name="dav">    5.27    5.28</time>
   <time name="total">    6.29    6.31</time>
   <energy>
    <i name="e_fr_energy">   -682.56819941 </i>
    <i name="e_wo_entrp">   -682.56819941 </i>
    <i name="e_0_energy">   -682.56819941 </i>
   </energy>
  </scstep>
  <scstep>
   <time name="dav">    3.80    3.81</time>
   <time name="total">    4.82    4.84</time>
   <energy>
    <i name="e_fr_energy">   -682.56819837 </i>
    <i name="e_wo_entrp">   -682.56819837 </i>
    <i name="e_0_energy">   -682.56819837 </i>
   </energy>
  </scstep>
  <scstep>
   <time name="dav">    3.36    3.37</time>
   <time name="total">    4.37    4.39</time>
   <energy>
    <i name="e_fr_energy">   -682.56819844 </i>
    <i name="e_wo_entrp">   -682.56819844 </i>
    <i name="e_0_energy">   -682.56819844 </i>
   </energy>
  </scstep>
  <scstep>
   <time name="dav">    3.36    3.37</time>
   <time name="total">    4.37    4.39</time>
   <energy>
    <i name="e_fr_energy">   -682.56819848 </i>
    <i name="e_wo_entrp">   -682.56819848 </i>
    <i name="e_0_energy">   -682.56819848 </i>
   </energy>
  </scstep>
  <scstep>
   <time name="dav">    3.27    3.28</time>
   <time name="total">    4.29    4.30</time>
   <energy>
    <i name="e_fr_energy">   -682.56819847 </i>
    <i name="e_wo_entrp">   -682.56819847 </i>
    <i name="e_0_energy">   -682.56819847 </i>
   </energy>
  </scstep>
  <scstep>
   <time name="dav">    3.27    3.28</time>
   <time name="total">    3.77    3.79</time>
   <energy>
    <i name="alphaZ">    210.78028765 </i>
    <i name="ewald"> -14524.86538913 </i>
    <i name="hartreedc">   -991.73306724 </i>
    <i name="XCdc">  -1153.28598668 </i>
    <i name="pawpsdc">   4723.40772195 </i>
    <i name="pawaedc">  -2485.14584869 </i>
    <i name="eentropy">     -0.00000000 </i>
    <i name="bandstr">    345.79322369 </i>
    <i name="atom">  13192.48085998 </i>
    <i name="e_fr_energy">   -682.56819846 </i>
    <i name="e_wo_entrp">   -682.56819846 </i>
    <i name="e_0_energy">   -682.56819846 </i>
   </energy>
  </scstep>
  <structure>
   <crystal>
    <varray name="basis" >
     <v>       0.00000000      10.93716070      10.93716070 </v>
     <v>      10.93716070       0.00000000      10.93716070 </v>
     <v>      10.93716070      10.93716070       0.00000000 </v>
    </varray>
    <i name="volume">   2616.63878844 </i>
    <varray name="rec_basis" >
     <v>      -0.04571570       0.04571570       0.04571570 </v>
     <v>       0.04571570      -0.04571570       0.04571570 </v>
     <v>       0.04571570       0.04571570      -0.04571570 </v>
    </varray>
   </crystal>
   <varray name="positions" >
    <v>       0.06204284       0.06204284       0.06295716 </v>
    <v>       0.31250000       0.06250000       0.06250000 </v>
    <v>       0.56250000       0.06250000       0.06250000 </v>
    <v>       0.81250000       0.06250000       0.06250000 </v>
    <v>       0.06250000       0.31250000       0.06250000 </v>
    <v>       0.31250000       0.31250000       0.06250000 </v>
    <v>       0.56250000       0.31250000       0.06250000 </v>
    <v>       0.81250000       0.31250000       0.06250000 </v>
    <v>       0.06250000       0.56250000       0.06250000 </v>
    <v>       0.31250000       0.56250000       0.06250000 </v>
    <v>       0.56250000       0.56250000       0.06250000 </v>
    <v>       0.81250000       0.56250000       0.06250000 </v>
    <v>       0.06250000       0.81250000       0.06250000 </v>
    <v>       0.31250000       0.81250000       0.06250000 </v>
    <v>       0.56250000       0.81250000       0.06250000 </v>
    <v>       0.81250000       0.81250000       0.06250000 </v>
    <v>       0.06250000       0.06250000       0.31250000 </v>
    <v>       0.31250000       0.06250000       0.31250000 </v>
    <v>       0.56250000       0.06250000       0.31250000 </v>
    <v>       0.81250000       0.06250000       0.31250000 </v>
    <v>       0.06250000       0.31250000       0.31250000 </v>
    <v>       0.31250000       0.31250000       0.31250000 </v>
    <v>       0.56250000       0.31250000       0.31250000 </v>
    <v>       0.81250000       0.31250000       0.31250000 </v>
    <v>       0.06250000       0.56250000       0.31250000 </v>
    <v>       0.31250000       0.56250000       0.31250000 </v>
    <v>       0.56250000       0.56250000       0.31250000 </v>
    <v>       0.81250000       0.56250000       0.31250000 </v>
    <v>       0.06250000       0.81250000       0.31250000 </v>
    <v>       0.31250000       0.81250000       0.31250000 </v>
    <v>       0.56250000       0.81250000       0.31250000 </v>
    <v>       0.81250000       0.81250000       0.31250000 </v>
    <v>       0.06250000       0.06250000       0.56250000 </v>
    <v>       0.31250000       0.06250000       0.56250000 </v>
    <v>       0.56250000       0.06250000       0.56250000 </v>
    <v>       0.81250000       0.06250000       0.56250000 </v>
    <v>       0.06250000       0.31250000       0.56250000 </v>
    <v>       0.31250000       0.31250000       0.56250000 </v>
    <v>       0.56250000       0.31250000       0.56250000 </v>
    <v>       0.81250000       0.31250000       0.56250000 </v>
    <v>       0.06250000       0.56250000       0.56250000 </v>
    <v>       0.31250000       0.56250000       0.56250000 </v>
    <v>       0.56250000       0.56250000       0.56250000 </v>
    <v>       0.81250000       0.56250000       0.56250000 </v>
    <v>       0.06250000       0.81250000       0.56250000 </v>
    <v>       0.31250000       0.81250000       0.56250000 </v>
    <v>       0.56250000       0.81250000       0.56250000 </v>
    <v>       0.81250000       0.81250000       0.56250000 </v>
    <v>       0.06250000       0.06250000       0.81250000 </v>
    <v>       0.31250000       0.06250000       0.81250000 </v>
    <v>       0.56250000       0.06250000       0.81250000 </v>
    <v>       0.81250000       0.06250000       0.81250000 </v>
    <v>       0.06250000       0.31250000       0.81250000 </v>
    <v>       0.31250000       0.31250000       0.81250000 </v>
    <v>       0.56250000       0.31250000       0.81250000 </v>
    <v>       0.81250000       0.31250000       0.81250000 </v>
    <v>       0.06250000       0.56250000       0.81250000 </v>
    <v>       0.31250000       0.56250000       0.81250000 </v>
    <v>       0.56250000       0.56250000       0.81250000 </v>
    <v>       0.81250000       0.56250000       0.81250000 </v>
    <v>       0.06250000       0.81250000       0.81250000 </v>
    <v>       0.31250000       0.81250000       0.81250000 </v>
    <v>       0.56250000       0.81250000       0.81250000 </v>
    <v>       0.81250000       0.81250000       0.81250000 </v>
    <v>       0.00000000       0.00000000       0.00000000 </v>
    <v>       0.25000000       0.00000000       0.00000000 </v>
    <v>       0.49954284       0.00045716       0.99954284 </v>
    <v>       0.75000000       0.00000000       0.00000000 </v>
    <v>       0.00000000       0.25000000       0.00000000 </v>
    <v>       0.25000000       0.25000000       0.00000000 </v>
    <v>       0.50000000       0.25000000       0.00000000 </v>
    <v>       0.75000000       0.25000000       0.00000000 </v>
    <v>       0.00000000       0.50000000       0.00000000 </v>
    <v>       0.25000000       0.50000000       0.00000000 </v>
    <v>       0.50000000       0.50000000       0.00000000 </v>
    <v>       0.75000000       0.50000000       0.00000000 </v>
    <v>       0.00000000       0.75000000       0.00000000 </v>
    <v>       0.25000000       0.75000000       0.00000000 </v>
    <v>       0.50000000       0.75000000       0.00000000 </v>
    <v>       0.75000000       0.75000000       0.00000000 </v>
    <v>       0.00000000       0.00000000       0.25000000 </v>
    <v>       0.25000000       0.00000000       0.25000000 </v>
    <v>       0.50000000       0.00000000       0.25000000 </v>
    <v>       0.75000000       0.00000000       0.25000000 </v>
    <v>       0.00000000       0.25000000       0.25000000 </v>
    <v>       0.25000000       0.25000000       0.25000000 </v>
    <v>       0.50000000       0.25000000       0.25000000 </v>
    <v>       0.75000000       0.25000000       0.25000000 </v>
    <v>       0.00000000       0.50000000       0.25000000 </v>
    <v>       0.25000000       0.50000000       0.25000000 </v>
    <v>       0.50000000       0.50000000       0.25000000 </v>
    <v>       0.75000000       0.50000000       0.25000000 </v>
    <v>       0.00000000       0.75000000       0.25000000 </v>
    <v>       0.25000000       0.75000000       0.25000000 </v>
    <v>       0.50000000       0.75000000       0.25000000 </v>
    <v>       0.75000000       0.75000000       0.25000000 </v>
    <v>       0.00000000       0.00000000       0.50000000 </v>
    <v>       0.25000000       0.00000000       0.50000000 </v>
    <v>       0.50000000       0.00000000       0.50000000 </v>
    <v>       0.75000000       0.00000000       0.50000000 </v>
    <v>       0.00000000       0.25000000       0.50000000 </v>
    <v>       0.25000000       0.25000000       0.50000000 </v>
    <v>       0.50000000       0.25000000       0.50000000 </v>
    <v>       0.75000000       0.25000000       0.50000000 </v>
    <v>       0.00000000       0.50000000       0.50000000 </v>
    <v>       0.25000000       0.50000000       0.50000000 </v>
    <v>       0.50000000       0.50000000       0.50000000 </v>
    <v>       0.75000000       0.50000000       0.50000000 </v>
    <v>       0.00000000       0.75000000       0.50000000 </v>
    <v>       0.25000000       0.75000000       0.50000000 </v>
    <v>       0.50000000       0.75000000       0.50000000 </v>
    <v>       0.75000000       0.75000000       0.50000000 </v>
    <v>       0.00000000       0.00000000       0.75000000 </v>
    <v>       0.25000000       0.00000000       0.75000000 </v>
    <v>       0.50000000       0.00000000       0.75000000 </v>
    <v>       0.75000000       0.00000000       0.75000000 </v>
    <v>       0.00000000       0.25000000       0.75000000 </v>
    <v>       0.25000000       0.25000000       0.75000000 </v>
    <v>       0.50000000       0.25000000       0.75000000 </v>
    <v>       0.75000000       0.25000000       0.75000000 </v>
    <v>       0.00000000       0.50000000       0.75000000 </v>
    <v>       0.25000000       0.50000000       0.75000000 </v>
    <v>       0.50000000       0.50000000       0.75000000 </v>
    <v>       0.75000000       0.50000000       0.75000000 </v>
    <v>       0.00000000       0.75000000       0.75000000 </v>
    <v>       0.25000000       0.75000000       0.75000000 </v>
    <v>       0.50000000       0.75000000       0.75000000 </v>
    <v>       0.75000000       0.75000000       0.75000000 </v>
   </varray>
  </structure>
  <varray name="forces" >
   <v>      -0.00047304      -0.00020718       0.13011188 </v>
   <v>       0.02147337      -0.03487929      -0.02209476 </v>
   <v>      -0.01994878      -0.03293257      -0.02009270 </v>
   <v>      -0.00048845      -0.00224092      -0.00178143 </v>
   <v>      -0.00182096       0.00073917      -0.00109906 </v>
   <v>      -0.00055213       0.00004338       0.00029175 </v>
   <v>       0.00020273      -0.00218487       0.00036960 </v>
   <v>       0.00056112      -0.00069708       0.00530153 </v>
   <v>      -0.00045149      -0.00005608       0.00001606 </v>
   <v>      -0.00030686      -0.00019255       0.00005363 </v>
   <v>      -0.00047251      -0.00203744       0.00119500 </v>
   <v>      -0.00001282      -0.00047689      -0.00057769 </v>
   <v>      -0.00219160      -0.00101707      -0.00150480 </v>
   <v>      -0.00128386       0.00120038       0.00525910 </v>
   <v>       0.01967728      -0.03276858       0.01984542 </v>
   <v>      -0.00049256      -0.00007258       0.00029821 </v>
   <v>      -0.00143919      -0.00301812       0.00539496 </v>
   <v>       0.00061184       0.00009968       0.00023944 </v>
   <v>       0.00001159      -0.00041506       0.00042688 </v>
   <v>       0.00241950       0.00121367      -0.00119842 </v>
   <v>      -0.00012803       0.00042746      -0.00011205 </v>
   <v>      -0.00002199       0.00015599      -0.00011105 </v>
   <v>       0.00053618       0.00052101      -0.00049102 </v>
   <v>      -0.00038487       0.00025043      -0.00063713 </v>
   <v>      -0.00023240       0.00031382      -0.00002253 </v>
   <v>       0.00027681       0.00030509      -0.00008225 </v>
   <v>      -0.00048548      -0.00021887       0.00006988 </v>
   <v>       0.00002052       0.00007654      -0.00007276 </v>
   <v>       0.00097024       0.00218961      -0.00160658 </v>
   <v>      -0.00034350       0.00025013      -0.00059175 </v>
   <v>       0.00035575       0.00007598      -0.00043776 </v>
   <v>      -0.00002178       0.00006424      -0.00018884 </v>
   <v>       0.00015944       0.00007807       0.00183782 </v>
   <v>       0.00022954      -0.00032733       0.00005461 </v>
   <v>       0.00017319      -0.00020770      -0.00061547 </v>
   <v>       0.00068256      -0.00232599      -0.00057947 </v>
   <v>      -0.00024836       0.00025586      -0.00008080 </v>
   <v>       0.00018620       0.00027321      -0.00002381 </v>
   <v>       0.00047563      -0.00019763       0.00010362 </v>
   <v>       0.00000448       0.00014321      -0.00010466 </v>
   <v>      -0.00002236       0.00047684      -0.00016581 </v>
   <v>      -0.00014676      -0.00005326      -0.00017379 </v>
   <v>       0.00015752      -0.00005533      -0.00019379 </v>
   <v>       0.00001175       0.00010662      -0.00011865 </v>
   <v>      -0.00043058       0.00028596      -0.00026288 </v>
   <v>      -0.00003112       0.00011099      -0.00010784 </v>
   <v>       0.00008153      -0.00006761      -0.00025209 </v>
   <v>       0.00012758       0.00030511      -0.00003740 </v>
   <v>       0.00112374       0.00091026       0.00500045 </v>
   <v>       0.00235800      -0.00087557      -0.00123177 </v>
   <v>      -0.02037091      -0.03301051       0.02047217 </v>
   <v>       0.00061425       0.00004201       0.00023601 </v>
   <v>      -0.00092893       0.00208281      -0.00159353 </v>
   <v>      -0.00034065       0.00007688      -0.00050593 </v>
   <v>       0.00032538       0.00024983      -0.00043795 </v>
   <v>      -0.00000704       0.00015550      -0.00027393 </v>
   <v>      -0.00022962       0.00009465      -0.00020686 </v>
   <v>       0.00001676       0.00008684      -0.00007555 </v>
   <v>       0.00016984       0.00008970      -0.00028409 </v>
   <v>       0.00029242       0.00036471      -0.00009720 </v>
   <v>      -0.00018904       0.00037029      -0.00012289 </v>
   <v>      -0.00001892       0.00009905      -0.00027038 </v>
   <v>       0.00055257       0.00052260      -0.00044200 </v>
   <v>      -0.00034014       0.00024983      -0.00044742 </v>
   <v>      -0.02052083      -0.02066104      -0.03322818 </v>
   <v>       0.02090917      -0.02153128      -0.03459212 </v>
   <v>      -0.00047469       0.13011064      -0.00020921 </v>
   <v>      -0.00047657      -0.00176881      -0.00222754 </v>
   <v>      -0.01979970       0.01990458      -0.03270811 </v>
   <v>       0.00237817      -0.00124044      -0.00088317 </v>
   <v>       0.00110529       0.00499489       0.00089201 </v>
   <v>       0.00060883       0.00023978       0.00004294 </v>
   <v>       0.00017417      -0.00061629      -0.00020872 </v>
   <v>       0.00022996       0.00005354      -0.00032506 </v>
   <v>       0.00015704       0.00182764       0.00007773 </v>
   <v>       0.00068178      -0.00057663      -0.00230615 </v>
   <v>       0.00001098       0.00042794      -0.00041794 </v>
   <v>       0.00061442       0.00023321       0.00010265 </v>
   <v>      -0.00142116       0.00538775      -0.00298451 </v>
   <v>       0.00240499      -0.00118540       0.00120078 </v>
   <v>       0.02025037       0.02041597      -0.03306733 </v>
   <v>      -0.00130962       0.00525992       0.00121351 </v>
   <v>      -0.00217698      -0.00149120      -0.00100597 </v>
   <v>      -0.00049073       0.00029288      -0.00007257 </v>
   <v>       0.00054812      -0.00044738       0.00052087 </v>
   <v>      -0.00001835      -0.00027085       0.00009869 </v>
   <v>      -0.00019022      -0.00012268       0.00036956 </v>
   <v>      -0.00034400      -0.00044132       0.00025162 </v>
   <v>       0.00008159      -0.00025287      -0.00006732 </v>
   <v>      -0.00003080      -0.00010787       0.00011139 </v>
   <v>      -0.00042801      -0.00026194       0.00028641 </v>
   <v>       0.00012770      -0.00004056       0.00030548 </v>
   <v>       0.00035297      -0.00043479       0.00007520 </v>
   <v>      -0.00033749      -0.00059635       0.00025133 </v>
   <v>       0.00095752      -0.00159362       0.00217384 </v>
   <v>      -0.00002204      -0.00018745       0.00006485 </v>
   <v>      -0.00047527       0.00120605      -0.00205266 </v>
   <v>      -0.00030882       0.00005451      -0.00019380 </v>
   <v>      -0.00045025       0.00001646      -0.00005423 </v>
   <v>      -0.00000979      -0.00057849      -0.00048163 </v>
   <v>       0.00017128      -0.00028543       0.00009071 </v>
   <v>       0.00001771      -0.00007559       0.00008627 </v>
   <v>      -0.00022993      -0.00020266       0.00009424 </v>
   <v>       0.00029357      -0.00009612       0.00036329 </v>
   <v>       0.00015899      -0.00019273      -0.00005499 </v>
   <v>      -0.00014514      -0.00017496      -0.00005424 </v>
   <v>      -0.00002553      -0.00016607       0.00047631 </v>
   <v>       0.00001150      -0.00011766       0.00010794 </v>
   <v>      -0.00048696       0.00007102      -0.00022220 </v>
   <v>       0.00028030      -0.00008219       0.00030550 </v>
   <v>      -0.00023204      -0.00002262       0.00031447 </v>
   <v>       0.00002049      -0.00007185       0.00007715 </v>
   <v>       0.00020290       0.00036987      -0.00220434 </v>
   <v>      -0.00054855       0.00029623       0.00004147 </v>
   <v>      -0.00183708      -0.00110950       0.00075721 </v>
   <v>       0.00057895       0.00530582      -0.00071370 </v>
   <v>       0.00033103      -0.00043459       0.00024881 </v>
   <v>      -0.00034344      -0.00051064       0.00007711 </v>
   <v>      -0.00093998      -0.00160668       0.00209830 </v>
   <v>      -0.00000792      -0.00027391       0.00015596 </v>
   <v>       0.00047496       0.00010192      -0.00019417 </v>
   <v>       0.00018657      -0.00002537       0.00027247 </v>
   <v>      -0.00024588      -0.00007972       0.00025503 </v>
   <v>       0.00000515      -0.00010446       0.00014361 </v>
   <v>       0.00053538      -0.00048974       0.00052284 </v>
   <v>      -0.00002187      -0.00011160       0.00015546 </v>
   <v>      -0.00012722      -0.00011133       0.00042609 </v>
   <v>      -0.00038757      -0.00063927       0.00025128 </v>
  </varray>
  <varray name="stress" >
   <v>       5.73277305       0.05338751      -0.05336827 </v>
   <v>       0.05338751       5.73172426      -0.00000303 </v>
   <v>      -0.05336826      -0.00000303       5.73172476 </v>
  </varray>
  <energy>
   <i name="e_fr_energy">   -682.56819846 </i>
   <i name="e_wo_entrp">   -682.56819846 </i>
   <i name="e_0_energy">     -0.00000000 </i>
  </energy>
  <time name="totalsc">  122.26  122.74</time>
  <eigenvalues>
   <array>
    <dimension dim="1">band</dimension>
    <dimension dim="2">kpoint</dimension>
    <dimension dim="3">spin</dimension>
    <field>eigene</field>
    <field>occ</field>
    <set>
     <set comment="spin 1">
      <set comment="kpoint 1">
       <r>   -6.1630    1.0000 </r>
       <r>   -5.3788    1.0000 </r>
       <r>   -5.3781    1.0000 </r>
       <r>   -5.3778    1.0000 </r>
       <r>   -5.3775    1.0000 </r>
       <r>   -5.3775    1.0000 </r>
       <r>   -5.3771    1.0000 </r>
       <r>   -5.3768    1.0000 </r>
       <r>   -5.3762    1.0000 </r>
       <r>   -5.1005    1.0000 </r>
       <r>   -5.1002    1.0000 </r>
       <r>   -5.0999    1.0000 </r>
       <r>   -5.0994    1.0000 </r>
       <r>   -5.0990    1.0000 </r>
       <r>   -5.0987    1.0000 </r>
       <r>   -4.1595    1.0000 </r>
       <r>   -4.1582    1.0000 </r>
       <r>   -4.1575    1.0000 </r>
       <r>   -4.1574    1.0000 </r>
       <r>   -4.1571    1.0000 </r>
       <r>   -4.1570    1.0000 </r>
       <r>   -4.1570    1.0000 </r>
       <r>   -4.1568    1.0000 </r>
       <r>   -4.1565    1.0000 </r>
       <r>   -4.1564    1.0000 </r>
       <r>   -4.1557    1.0000 </r>
       <r>   -4.1545    1.0000 </r>
       <r>   -3.8820    1.0000 </r>
       <r>   -3.8816    1.0000 </r>
       <r>   -3.8807    1.0000 </r>
       <r>   -3.8804    1.0000 </r>
       <r>   -3.5005    1.0000 </r>
       <r>   -3.5000    1.0000 </r>
       <r>   -3.4978    1.0000 </r>
       <r>   -3.4974    1.0000 </r>
       <r>   -3.4968    1.0000 </r>
       <r>   -3.4966    1.0000 </r>
       <r>   -3.4965    1.0000 </r>
       <r>   -3.4964    1.0000 </r>
       <r>   -3.4964    1.0000 </r>
       <r>   -3.4963    1.0000 </r>
       <r>   -3.4963    1.0000 </r>
       <r>   -3.4962    1.0000 </r>
       <r>   -3.4962    1.0000 </r>
       <r>   -3.4962    1.0000 </r>
       <r>   -3.4961    1.0000 </r>
       <r>   -3.4961    1.0000 </r>
       <r>   -3.4960    1.0000 </r>
       <r>   -3.4959    1.0000 </r>
       <r>   -3.4958    1.0000 </r>
       <r>   -3.4957    1.0000 </r>
       <r>   -3.4951    1.0000 </r>
       <r>   -3.4946    1.0000 </r>
       <r>   -3.4925    1.0000 </r>
       <r>   -3.4919    1.0000 </r>
       <r>   -2.0920    1.0000 </r>
       <r>   -2.0916    1.0000 </r>
       <r>   -2.0914    1.0000 </r>
       <r>   -2.0905    1.0000 </r>
       <r>   -2.0903    1.0000 </r>
       <r>   -2.0899    1.0000 </r>
       <r>   -1.9374    1.0000 </r>
       <r>   -1.9374    1.0000 </r>
       <r>   -1.9362    1.0000 </r>
       <r>   -1.9361    1.0000 </r>
       <r>   -1.9356    1.0000 </r>
       <r>   -1.9355    1.0000 </r>
       <r>   -1.9353    1.0000 </r>
       <r>   -1.9352    1.0000 </r>
       <r>   -1.9347    1.0000 </r>
       <r>   -1.9346    1.0000 </r>
       <r>   -1.9333    1.0000 </r>
       <r>   -1.9333    1.0000 </r>
       <r>   -1.2193    1.0000 </r>
       <r>   -1.2186    1.0000 </r>
       <r>   -1.2183    1.0000 </r>
       <r>   -1.2175    1.0000 </r>
       <r>   -0.6725    1.0000 </r>
       <r>   -0.6720    1.0000 </r>
       <r>   -0.6709    1.0000 </r>
       <r>   -0.6706    1.0000 </r>
       <r>   -0.6691    1.0000 </r>
       <r>   -0.6690    1.0000 </r>
       <r>   -0.6689    1.0000 </r>
       <r>   -0.6689    1.0000 </r>
       <r>   -0.6688    1.0000 </r>
       <r>   -0.6687    1.0000 </r>
       <r>   -0.6687    1.0000 </r>
       <r>   -0.6686    1.0000 </r>
       <r>   -0.6686    1.0000 </r>
       <r>   -0.6685    1.0000 </r>
       <r>   -0.6685    1.0000 </r>
       <r>   -0.6685    1.0000 </r>
       <r>   -0.6684    1.0000 </r>
       <r>   -0.6684    1.0000 </r>
       <r>   -0.6682    1.0000 </r>
       <r>   -0.6682    1.0000 </r>
       <r>   -0.6666    1.0000 </r>
       <r>   -0.6664    1.0000 </r>
       <r>   -0.6652    1.0000 </r>
       <r>   -0.6648    1.0000 </r>
       <r>    0.2147    1.0000 </r>
       <r>    0.2154    1.0000 </r>
       <r>    0.2157    1.0000 </r>
       <r>    0.2160    1.0000 </r>
       <r>    0.2166    1.0000 </r>
       <r>    0.2167    1.0000 </r>
       <r>    0.2167    1.0000 </r>
       <r>    0.2169    1.0000 </r>
       <r>    0.2175    1.0000 </r>
       <r>    0.2177    1.0000 </r>
       <r>    0.2181    1.0000 </r>
       <r>    0.2188    1.0000 </r>
       <r>    1.7665    1.0000 </r>
       <r>    1.7670    1.0000 </r>
       <r>    1.7674    1.0000 </r>
       <r>    1.7676    1.0000 </r>
       <r>    1.7680    1.0000 </r>
       <r>    1.7683    1.0000 </r>
       <r>    1.7686    1.0000 </r>
       <r>    1.7692    1.0000 </r>
       <r>    1.8846    1.0000 </r>
       <r>    1.8852    1.0000 </r>
       <r>    1.8857    1.0000 </r>
       <r>    1.8858    1.0000 </r>
       <r>    1.8859    1.0000 </r>
       <r>    1.8860    1.0000 </r>
       <r>    1.8860    1.0000 </r>
       <r>    1.8861    1.0000 </r>
       <r>    1.8862    1.0000 </r>
       <r>    1.8863    1.0000 </r>
       <r>    1.8868    1.0000 </r>
       <r>    1.8873    1.0000 </r>
       <r>    1.9776    1.0000 </r>
       <r>    1.9780    1.0000 </r>
       <r>    1.9782    1.0000 </r>
       <r>    1.9784    1.0000 </r>
       <r>    1.9788    1.0000 </r>
       <r>    1.9789    1.0000 </r>
       <r>    1.9789    1.0000 </r>
       <r>    1.9790    1.0000 </r>
       <r>    1.9794    1.0000 </r>
       <r>    1.9796    1.0000 </r>
       <r>    1.9797    1.0000 </r>
       <r>    1.9802    1.0000 </r>
       <r>    2.1396    1.0000 </r>
       <r>    2.1402    1.0000 </r>
       <r>    2.1409    1.0000 </r>
       <r>    2.1413    1.0000 </r>
       <r>    2.1419    1.0000 </r>
       <r>    2.1425    1.0000 </r>
       <r>    2.1842    1.0000 </r>
       <r>    2.1846    1.0000 </r>
       <r>    2.1856    1.0000 </r>
       <r>    2.1857    1.0000 </r>
       <r>    2.1861    1.0000 </r>
       <r>    2.1864    1.0000 </r>
       <r>    2.1866    1.0000 </r>
       <r>    2.1867    1.0000 </r>
       <r>    2.1867    1.0000 </r>
       <r>    2.1868    1.0000 </r>
       <r>    2.1868    1.0000 </r>
       <r>    2.1869    1.0000 </r>
       <r>    2.1870    1.0000 </r>
       <r>    2.1870    1.0000 </r>
       <r>    2.1871    1.0000 </r>
       <r>    2.1872    1.0000 </r>
       <r>    2.1872    1.0000 </r>
       <r>    2.1872    1.0000 </r>
       <r>    2.1874    1.0000 </r>
       <r>    2.1877    1.0000 </r>
       <r>    2.1881    1.0000 </r>
       <r>    2.1883    1.0000 </r>
       <r>    2.1893    1.0000 </r>
       <r>    2.1898    1.0000 </r>
       <r>    2.8561    1.0000 </r>
       <r>    2.8563    1.0000 </r>
       <r>    2.8566    1.0000 </r>
       <r>    2.8566    1.0000 </r>
       <r>    2.8569    1.0000 </r>
       <r>    2.8571    1.0000 </r>
       <r>    3.4893    1.0000 </r>
       <r>    3.4904    1.0000 </r>
       <r>    3.4913    1.0000 </r>
       <r>    3.4914    1.0000 </r>
       <r>    3.4921    1.0000 </r>
       <r>    3.4921    1.0000 </r>
       <r>    3.4922    1.0000 </r>
       <r>    3.4922    1.0000 </r>
       <r>    3.4923    1.0000 </r>
       <r>    3.4924    1.0000 </r>
       <r>    3.4924    1.0000 </r>
       <r>    3.4925    1.0000 </r>
       <r>    3.4926    1.0000 </r>
       <r>    3.4926    1.0000 </r>
       <r>    3.4927    1.0000 </r>
       <r>    3.4928    1.0000 </r>
       <r>    3.4928    1.0000 </r>
       <r>    3.4929    1.0000 </r>
       <r>    3.4929    1.0000 </r>
       <r>    3.4929    1.0000 </r>
       <r>    3.4936    1.0000 </r>
       <r>    3.4938    1.0000 </r>
       <r>    3.4946    1.0000 </r>
       <r>    3.4957    1.0000 </r>
       <r>    3.8016    1.0000 </r>
       <r>    3.8028    1.0000 </r>
       <r>    3.8034    1.0000 </r>
       <r>    3.8036    1.0000 </r>
       <r>    3.8038    1.0000 </r>
       <r>    3.8038    1.0000 </r>
       <r>    3.8039    1.0000 </r>
       <r>    3.8039    1.0000 </r>
       <r>    3.8040    1.0000 </r>
       <r>    3.8043    1.0000 </r>
       <r>    3.8049    1.0000 </r>
       <r>    3.8060    1.0000 </r>
       <r>    4.3505    1.0000 </r>
       <r>    4.3518    1.0000 </r>
       <r>    4.3520    1.0000 </r>
       <r>    4.3523    1.0000 </r>
       <r>    4.3526    1.0000 </r>
       <r>    4.3528    1.0000 </r>
       <r>    4.3528    1.0000 </r>
       <r>    4.3530    1.0000 </r>
       <r>    4.3534    1.0000 </r>
       <r>    4.3536    1.0000 </r>
       <r>    4.3539    1.0000 </r>
       <r>    4.3551    1.0000 </r>
       <r>    4.4763    1.0000 </r>
       <r>    4.4767    1.0000 </r>
       <r>    4.4773    1.0000 </r>
       <r>    4.4776    1.0000 </r>
       <r>    4.4778    1.0000 </r>
       <r>    4.4781    1.0000 </r>
       <r>    4.4788    1.0000 </r>
       <r>    4.4791    1.0000 </r>
       <r>    4.9086    1.0000 </r>
       <r>    4.9089    1.0000 </r>
       <r>    4.9114    1.0000 </r>
       <r>    4.9114    1.0000 </r>
       <r>    4.9115    1.0000 </r>
       <r>    4.9117    1.0000 </r>
       <r>    4.9117    1.0000 </r>
       <r>    4.9118    1.0000 </r>
       <r>    4.9118    1.0000 </r>
       <r>    4.9119    1.0000 </r>
       <r>    4.9119    1.0000 </r>
       <r>    4.9121    1.0000 </r>
       <r>    4.9122    1.0000 </r>
       <r>    4.9122    1.0000 </r>
       <r>    4.9148    1.0000 </r>
       <r>    4.9150    1.0000 </r>
       <r>    5.6594    1.0000 </r>
       <r>    5.6604    1.0000 </r>
       <r>    5.6615    1.0000 </r>
       <r>    6.3942    0.0000 </r>
       <r>    6.3944    0.0000 </r>
       <r>    6.3950    0.0000 </r>
       <r>    6.3953    0.0000 </r>
       <r>    6.3959    0.0000 </r>
       <r>    6.3960    0.0000 </r>
       <r>    6.7951    0.0000 </r>
       <r>    6.7955    0.0000 </r>
       <r>    6.7961    0.0000 </r>
       <r>    6.7964    0.0000 </r>
       <r>    6.7971    0.0000 </r>
       <r>    6.7974    0.0000 </r>
       <r>    7.1206    0.0000 </r>
       <r>    7.1208    0.0000 </r>
       <r>    7.1209    0.0000 </r>
       <r>    7.1211    0.0000 </r>
       <r>    7.1822    0.0000 </r>
       <r>    7.1835    0.0000 </r>
       <r>    7.1839    0.0000 </r>
       <r>    7.1848    0.0000 </r>
       <r>    7.1857    0.0000 </r>
       <r>    7.1857    0.0000 </r>
       <r>    7.1858    0.0000 </r>
       <r>    7.1858    0.0000 </r>
       <r>    7.1858    0.0000 </r>
       <r>    7.1859    0.0000 </r>
       <r>    7.1860    0.0000 </r>
       <r>    7.1860    0.0000 </r>
       <r>    7.1860    0.0000 </r>
       <r>    7.1860    0.0000 </r>
       <r>    7.1861    0.0000 </r>
       <r>    7.1862    0.0000 </r>
       <r>    7.1862    0.0000 </r>
       <r>    7.1862    0.0000 </r>
       <r>    7.1863    0.0000 </r>
       <r>    7.1863    0.0000 </r>
       <r>    7.1872    0.0000 </r>
       <r>    7.1881    0.0000 </r>
       <r>    7.1885    0.0000 </r>
       <r>    7.1898    0.0000 </r>
       <r>    7.6112    0.0000 </r>
       <r>    7.6117    0.0000 </r>
       <r>    7.6119    0.0000 </r>
       <r>    7.6120    0.0000 </r>
       <r>    7.6125    0.0000 </r>
       <r>    7.6126    0.0000 </r>
       <r>    7.6128    0.0000 </r>
       <r>    7.6133    0.0000 </r>
       <r>    8.0809    0.0000 </r>
       <r>    8.0818    0.0000 </r>
       <r>    8.0819    0.0000 </r>
       <r>    8.0826    0.0000 </r>
       <r>    8.0828    0.0000 </r>
       <r>    8.0829    0.0000 </r>
       <r>    8.0829    0.0000 </r>
       <r>    8.0831    0.0000 </r>
       <r>    8.0833    0.0000 </r>
       <r>    8.0839    0.0000 </r>
       <r>    8.0841    0.0000 </r>
       <r>    8.0850    0.0000 </r>
       <r>    8.1987    0.0000 </r>
       <r>    8.1993    0.0000 </r>
       <r>    8.2000    0.0000 </r>
       <r>    8.7788    0.0000 </r>
       <r>    8.7794    0.0000 </r>
       <r>    8.7867    0.0000 </r>
      </set>
     </set>
    </set>
   </array>
  </eigenvalues>
  <separator name="orbital magnetization" >
   <v name="MAGDIPOLOUT">      0.00000000      0.00000000      0.00000000</v>
  </separator>
  <dos>
   <i name="efermi">      5.91975112 </i>
   <total>
    <array>
     <dimension dim="1">gridpoints</dimension>
     <dimension dim="2">spin</dimension>
     <field>energy</field>
     <field>total</field>
     <field>integrated</field>
     <set>
      <set comment="spin 1">
       <r>    -6.9105     0.0000     0.0000 </r>
       <r>    -6.8557     0.0000     0.0000 </r>
       <r>    -6.8009     0.0000     0.0000 </r>
       <r>    -6.7461     0.0000     0.0000 </r>
       <r>    -6.6912     0.0000     0.0000 </r>
       <r>    -6.6364     0.0000     0.0000 </r>
       <r>    -6.5816     0.0000     0.0000 </r>
       <r>    -6.5268     0.0000     0.0000 </r>
       <r>    -6.4720     0.0000     0.0000 </r>
       <r>    -6.4172     0.0000     0.0000 </r>
       <r>    -6.3623     0.0000     0.0000 </r>
       <r>    -6.3075     0.0008     0.0000 </r>
       <r>    -6.2527     0.2031     0.0112 </r>
       <r>    -6.1979     5.7036     0.3238 </r>
       <r>    -6.1431    20.1271     1.4271 </r>
       <r>    -6.0883     9.8221     1.9655 </r>
       <r>    -6.0335     0.6248     1.9998 </r>
       <r>    -5.9786     0.0045     2.0000 </r>
       <r>    -5.9238     0.0000     2.0000 </r>
       <r>    -5.8690     0.0000     2.0000 </r>
       <r>    -5.8142     0.0000     2.0000 </r>
       <r>    -5.7594     0.0000     2.0000 </r>
       <r>    -5.7046     0.0000     2.0000 </r>
       <r>    -5.6497     0.0000     2.0000 </r>
       <r>    -5.5949     0.0000     2.0000 </r>
       <r>    -5.5401     0.0006     2.0000 </r>
       <r>    -5.4853     0.3345     2.0184 </r>
       <r>    -5.4305    19.2071     3.0712 </r>
       <r>    -5.3757   132.3573    10.3265 </r>
       <r>    -5.3209   124.0329    17.1254 </r>
       <r>    -5.2660    15.7188    17.9870 </r>
       <r>    -5.2112     0.4120    18.0096 </r>
       <r>    -5.1564    11.6923    18.6505 </r>
       <r>    -5.1016    92.7744    23.7360 </r>
       <r>    -5.0468    99.5067    29.1905 </r>
       <r>    -4.9920    14.5132    29.9860 </r>
       <r>    -4.9371     0.2541    30.0000 </r>
       <r>    -4.8823     0.0005    30.0000 </r>
       <r>    -4.8275     0.0000    30.0000 </r>
       <r>    -4.7727     0.0000    30.0000 </r>
       <r>    -4.7179     0.0000    30.0000 </r>
       <r>    -4.6631     0.0000    30.0000 </r>
       <r>    -4.6083     0.0000    30.0000 </r>
       <r>    -4.5534     0.0000    30.0000 </r>
       <r>    -4.4986     0.0000    30.0000 </r>
       <r>    -4.4438     0.0000    30.0000 </r>
       <r>    -4.3890     0.0000    30.0000 </r>
       <r>    -4.3342     0.0001    30.0000 </r>
       <r>    -4.2794     0.1182    30.0065 </r>
       <r>    -4.2245    12.1594    30.6730 </r>
       <r>    -4.1697   144.9515    38.6186 </r>
       <r>    -4.1149   229.2543    51.1853 </r>
       <r>    -4.0601    49.9966    53.9259 </r>
       <r>    -4.0053     1.3810    54.0016 </r>
       <r>    -3.9505     3.6232    54.2002 </r>
       <r>    -3.8956    46.1327    56.7290 </r>
       <r>    -3.8408    77.6268    60.9841 </r>
       <r>    -3.7860    18.0128    61.9715 </r>
       <r>    -3.7312     0.5183    61.9999 </r>
       <r>    -3.6764     0.0018    62.0000 </r>
       <r>    -3.6216     0.1745    62.0096 </r>
       <r>    -3.5668    20.1129    63.1121 </r>
       <r>    -3.5119   267.4387    77.7719 </r>
       <r>    -3.4571   470.0244   103.5365 </r>
       <r>    -3.4023   114.4223   109.8086 </r>
       <r>    -3.3475     3.4802   109.9994 </r>
       <r>    -3.2927     0.0116   110.0000 </r>
       <r>    -3.2379     0.0000   110.0000 </r>
       <r>    -3.1830     0.0000   110.0000 </r>
       <r>    -3.1282     0.0000   110.0000 </r>
       <r>    -3.0734     0.0000   110.0000 </r>
       <r>    -3.0186     0.0000   110.0000 </r>
       <r>    -2.9638     0.0000   110.0000 </r>
       <r>    -2.9090     0.0000   110.0000 </r>
       <r>    -2.8542     0.0000   110.0000 </r>
       <r>    -2.7993     0.0000   110.0000 </r>
       <r>    -2.7445     0.0000   110.0000 </r>
       <r>    -2.6897     0.0000   110.0000 </r>
       <r>    -2.6349     0.0000   110.0000 </r>
       <r>    -2.5801     0.0000   110.0000 </r>
       <r>    -2.5253     0.0000   110.0000 </r>
       <r>    -2.4704     0.0000   110.0000 </r>
       <r>    -2.4156     0.0000   110.0000 </r>
       <r>    -2.3608     0.0000   110.0000 </r>
       <r>    -2.3060     0.0000   110.0000 </r>
       <r>    -2.2512     0.0006   110.0000 </r>
       <r>    -2.1964     0.3136   110.0172 </r>
       <r>    -2.1416    16.3654   110.9143 </r>
       <r>    -2.0867   103.1423   116.5681 </r>
       <r>    -2.0319    90.0745   121.5056 </r>
       <r>    -1.9771    61.0551   124.8523 </r>
       <r>    -1.9223   230.1085   137.4659 </r>
       <r>    -1.8675   143.6708   145.3412 </r>
       <r>    -1.8127    11.9033   145.9937 </r>
       <r>    -1.7578     0.1142   146.0000 </r>
       <r>    -1.7030     0.0001   146.0000 </r>
       <r>    -1.6482     0.0000   146.0000 </r>
       <r>    -1.5934     0.0000   146.0000 </r>
       <r>    -1.5386     0.0000   146.0000 </r>
       <r>    -1.4838     0.0000   146.0000 </r>
       <r>    -1.4290     0.0000   146.0000 </r>
       <r>    -1.3741     0.0008   146.0000 </r>
       <r>    -1.3193     0.3146   146.0173 </r>
       <r>    -1.2645    13.7241   146.7696 </r>
       <r>    -1.2097    73.1472   150.7792 </r>
       <r>    -1.1549    53.4763   153.7105 </r>
       <r>    -1.1001     5.2216   153.9967 </r>
       <r>    -1.0452     0.0596   154.0000 </r>
       <r>    -0.9904     0.0001   154.0000 </r>
       <r>    -0.9356     0.0000   154.0000 </r>
       <r>    -0.8808     0.0000   154.0000 </r>
       <r>    -0.8260     0.0038   154.0002 </r>
       <r>    -0.7712     1.6467   154.0905 </r>
       <r>    -0.7164    76.0999   158.2619 </r>
       <r>    -0.6615   429.5964   181.8105 </r>
       <r>    -0.6067   333.1548   200.0725 </r>
       <r>    -0.5519    34.7358   201.9766 </r>
       <r>    -0.4971     0.4266   202.0000 </r>
       <r>    -0.4423     0.0006   202.0000 </r>
       <r>    -0.3875     0.0000   202.0000 </r>
       <r>    -0.3326     0.0000   202.0000 </r>
       <r>    -0.2778     0.0000   202.0000 </r>
       <r>    -0.2230     0.0000   202.0000 </r>
       <r>    -0.1682     0.0000   202.0000 </r>
       <r>    -0.1134     0.0000   202.0000 </r>
       <r>    -0.0586     0.0000   202.0000 </r>
       <r>    -0.0037     0.0000   202.0000 </r>
       <r>     0.0511     0.0006   202.0000 </r>
       <r>     0.1059     0.3772   202.0207 </r>
       <r>     0.1607    24.3951   203.3579 </r>
       <r>     0.2155   188.1146   213.6695 </r>
       <r>     0.2703   196.5410   224.4430 </r>
       <r>     0.3251    27.9269   225.9739 </r>
       <r>     0.3800     0.4761   226.0000 </r>
       <r>     0.4348     0.0009   226.0000 </r>
       <r>     0.4896     0.0000   226.0000 </r>
       <r>     0.5444     0.0000   226.0000 </r>
       <r>     0.5992     0.0000   226.0000 </r>
       <r>     0.6540     0.0000   226.0000 </r>
       <r>     0.7089     0.0000   226.0000 </r>
       <r>     0.7637     0.0000   226.0000 </r>
       <r>     0.8185     0.0000   226.0000 </r>
       <r>     0.8733     0.0000   226.0000 </r>
       <r>     0.9281     0.0000   226.0000 </r>
       <r>     0.9829     0.0000   226.0000 </r>
       <r>     1.0377     0.0000   226.0000 </r>
       <r>     1.0926     0.0000   226.0000 </r>
       <r>     1.1474     0.0000   226.0000 </r>
       <r>     1.2022     0.0000   226.0000 </r>
       <r>     1.2570     0.0000   226.0000 </r>
       <r>     1.3118     0.0000   226.0000 </r>
       <r>     1.3666     0.0000   226.0000 </r>
       <r>     1.4215     0.0000   226.0000 </r>
       <r>     1.4763     0.0000   226.0000 </r>
       <r>     1.5311     0.0000   226.0000 </r>
       <r>     1.5859     0.0000   226.0000 </r>
       <r>     1.6407     0.0475   226.0026 </r>
       <r>     1.6955     5.9267   226.3275 </r>
       <r>     1.7503    84.7086   230.9708 </r>
       <r>     1.8052   163.6004   239.9387 </r>
       <r>     1.8600   137.5575   247.4789 </r>
       <r>     1.9148   262.2555   261.8546 </r>
       <r>     1.9696   245.3287   275.3024 </r>
       <r>     2.0244   224.9273   287.6319 </r>
       <r>     2.0792    52.0307   290.4840 </r>
       <r>     2.1341   142.5168   298.2961 </r>
       <r>     2.1889   505.2248   325.9903 </r>
       <r>     2.2437   390.0364   347.3703 </r>
       <r>     2.2985    47.2665   349.9613 </r>
       <r>     2.3533     0.7054   349.9999 </r>
       <r>     2.4081     0.0011   350.0000 </r>
       <r>     2.4629     0.0000   350.0000 </r>
       <r>     2.5178     0.0000   350.0000 </r>
       <r>     2.5726     0.0000   350.0000 </r>
       <r>     2.6274     0.0000   350.0000 </r>
       <r>     2.6822     0.0001   350.0000 </r>
       <r>     2.7370     0.0786   350.0043 </r>
       <r>     2.7918     7.2531   350.4019 </r>
       <r>     2.8467    77.8675   354.6702 </r>
       <r>     2.9015   111.3356   360.7732 </r>
       <r>     2.9563    21.8544   361.9711 </r>
       <r>     3.0111     0.5255   361.9999 </r>
       <r>     3.0659     0.0014   362.0000 </r>
       <r>     3.1207     0.0000   362.0000 </r>
       <r>     3.1756     0.0000   362.0000 </r>
       <r>     3.2304     0.0000   362.0000 </r>
       <r>     3.2852     0.0000   362.0000 </r>
       <r>     3.3400     0.0071   362.0004 </r>
       <r>     3.3948     2.5097   362.1380 </r>
       <r>     3.4496    96.1635   367.4092 </r>
       <r>     3.5044   454.7333   392.3356 </r>
       <r>     3.5593   296.3258   408.5789 </r>
       <r>     3.6141    25.6670   409.9858 </r>
       <r>     3.6689     0.2879   410.0016 </r>
       <r>     3.7237     5.1112   410.2818 </r>
       <r>     3.7785    98.6625   415.6900 </r>
       <r>     3.8333   245.5335   429.1491 </r>
       <r>     3.8882    84.7449   433.7944 </r>
       <r>     3.9430     3.7324   433.9990 </r>
       <r>     3.9978     0.0183   434.0000 </r>
       <r>     4.0526     0.0000   434.0000 </r>
       <r>     4.1074     0.0000   434.0000 </r>
       <r>     4.1622     0.0000   434.0000 </r>
       <r>     4.2170     0.0271   434.0015 </r>
       <r>     4.2719     4.8114   434.2652 </r>
       <r>     4.3267    95.8542   439.5195 </r>
       <r>     4.3815   246.6899   453.0420 </r>
       <r>     4.4363   121.7365   459.7150 </r>
       <r>     4.4911   157.7692   468.3632 </r>
       <r>     4.5459    94.9944   473.5704 </r>
       <r>     4.6008     7.7644   473.9960 </r>
       <r>     4.6556     0.0733   474.0000 </r>
       <r>     4.7104     0.0001   474.0000 </r>
       <r>     4.7652     0.0100   474.0006 </r>
       <r>     4.8200     2.7656   474.1521 </r>
       <r>     4.8748    83.7301   478.7419 </r>
       <r>     4.9296   318.1115   496.1793 </r>
       <r>     4.9845   167.4790   505.3597 </r>
       <r>     5.0393    11.5882   505.9950 </r>
       <r>     5.0941     0.0919   506.0000 </r>
       <r>     5.1489     0.0001   506.0000 </r>
       <r>     5.2037     0.0000   506.0000 </r>
       <r>     5.2585     0.0000   506.0000 </r>
       <r>     5.3134     0.0000   506.0000 </r>
       <r>     5.3682     0.0000   506.0000 </r>
       <r>     5.4230     0.0000   506.0000 </r>
       <r>     5.4778     0.0000   506.0000 </r>
       <r>     5.5326     0.0165   506.0009 </r>
       <r>     5.5874     2.1178   506.1170 </r>
       <r>     5.6422    31.0903   507.8212 </r>
       <r>     5.6971    59.7960   511.0990 </r>
       <r>     5.7519    15.9055   511.9708 </r>
       <r>     5.8067     0.5300   511.9999 </r>
       <r>     5.8615     0.0019   512.0000 </r>
       <r>     5.9163     0.0000   512.0000 </r>
       <r>     5.9711     0.0000   512.0000 </r>
       <r>     6.0260     0.0000   512.0000 </r>
       <r>     6.0808     0.0000   512.0000 </r>
       <r>     6.1356     0.0000   512.0000 </r>
       <r>     6.1904     0.0000   512.0000 </r>
       <r>     6.2452     0.0025   512.0001 </r>
       <r>     6.3000     0.7819   512.0430 </r>
       <r>     6.3548    27.0996   513.5285 </r>
       <r>     6.4097   116.5020   519.9146 </r>
       <r>     6.4645    69.0752   523.7010 </r>
       <r>     6.5193     5.4062   523.9973 </r>
       <r>     6.5741     0.0487   524.0000 </r>
       <r>     6.6289     0.0003   524.0000 </r>
       <r>     6.6837     0.1602   524.0088 </r>
       <r>     6.7386    11.0913   524.6168 </r>
       <r>     6.7934    91.1005   529.6105 </r>
       <r>     6.8482   101.0257   535.1483 </r>
       <r>     6.9030    15.2602   535.9848 </r>
       <r>     6.9578     0.2778   536.0000 </r>
       <r>     7.0126     0.1620   536.0089 </r>
       <r>     7.0675     9.7543   536.5435 </r>
       <r>     7.1223    96.8025   541.8498 </r>
       <r>     7.1771   381.8196   562.7795 </r>
       <r>     7.2319   447.7453   587.3228 </r>
       <r>     7.2867    83.3876   591.8938 </r>
       <r>     7.3415     1.9331   591.9997 </r>
       <r>     7.3963     0.0048   592.0000 </r>
       <r>     7.4512     0.0008   592.0000 </r>
       <r>     7.5060     0.3869   592.0213 </r>
       <r>     7.5608    20.8815   593.1659 </r>
       <r>     7.6156   135.7672   600.6080 </r>
       <r>     7.6704   120.2788   607.2012 </r>
       <r>     7.7252    14.3695   607.9888 </r>
       <r>     7.7801     0.2033   608.0000 </r>
       <r>     7.8349     0.0003   608.0000 </r>
       <r>     7.8897     0.0000   608.0000 </r>
       <r>     7.9445     0.0199   608.0011 </r>
       <r>     7.9993     3.9368   608.2169 </r>
       <r>     8.0541    86.9896   612.9853 </r>
       <r>     8.1089   246.2975   626.4862 </r>
       <r>     8.1638   112.9093   632.6754 </r>
       <r>     8.2186    65.0194   636.2394 </r>
       <r>     8.2734    30.1353   637.8913 </r>
       <r>     8.3282     1.9680   637.9992 </r>
       <r>     8.3830     0.0146   638.0000 </r>
       <r>     8.4378     0.0000   638.0000 </r>
       <r>     8.4927     0.0000   638.0000 </r>
       <r>     8.5475     0.0000   638.0000 </r>
       <r>     8.6023     0.0000   638.0000 </r>
       <r>     8.6571     0.0250   638.0014 </r>
       <r>     8.7119     2.7036   638.1496 </r>
       <r>     8.7667    34.2557   640.0273 </r>
       <r>     8.8215    58.1909   643.2171 </r>
       <r>     8.8764    13.8627   643.9770 </r>
       <r>     8.9312     0.4187   643.9999 </r>
       <r>     8.9860     0.0014   644.0000 </r>
       <r>     9.0408     0.0000   644.0000 </r>
       <r>     9.0956     0.0000   644.0000 </r>
       <r>     9.1504     0.0000   644.0000 </r>
       <r>     9.2053     0.0000   644.0000 </r>
       <r>     9.2601     0.0000   644.0000 </r>
       <r>     9.3149     0.0000   644.0000 </r>
       <r>     9.3697     0.0000   644.0000 </r>
       <r>     9.4245     0.0000   644.0000 </r>
       <r>     9.4793     0.0000   644.0000 </r>
       <r>     9.5341     0.0000   644.0000 </r>
      </set>
     </set>
    </array>
   </total>
  </dos>
 </calculation>
 <structure name="finalpos" >
  <crystal>
   <varray name="basis" >
    <v>       0.00000000      10.93716070      10.93716070 </v>
    <v>      10.93716070       0.00000000      10.93716070 </v>
    <v>      10.93716070      10.93716070       0.00000000 </v>
   </varray>
   <i name="volume">   2616.63878844 </i>
   <varray name="rec_basis" >
    <v>      -0.04571570       0.04571570       0.04571570 </v>
    <v>       0.04571570      -0.04571570       0.04571570 </v>
    <v>       0.04571570       0.04571570      -0.04571570 </v>
   </varray>
  </crystal>
  <varray name="positions" >
   <v>       0.06204284       0.06204284       0.06295716 </v>
   <v>       0.31250000       0.06250000       0.06250000 </v>
   <v>       0.56250000       0.06250000       0.06250000 </v>
   <v>       0.81250000       0.06250000       0.06250000 </v>
   <v>       0.06250000       0.31250000       0.06250000 </v>
   <v>       0.31250000       0.31250000       0.06250000 </v>
   <v>       0.56250000       0.31250000       0.06250000 </v>
   <v>       0.81250000       0.31250000       0.06250000 </v>
   <v>       0.06250000       0.56250000       0.06250000 </v>
   <v>       0.31250000       0.56250000       0.06250000 </v>
   <v>       0.56250000       0.56250000       0.06250000 </v>
   <v>       0.81250000       0.56250000       0.06250000 </v>
   <v>       0.06250000       0.81250000       0.06250000 </v>
   <v>       0.31250000       0.81250000       0.06250000 </v>
   <v>       0.56250000       0.81250000       0.06250000 </v>
   <v>       0.81250000       0.81250000       0.06250000 </v>
   <v>       0.06250000       0.06250000       0.31250000 </v>
   <v>       0.31250000       0.06250000       0.31250000 </v>
   <v>       0.56250000       0.06250000       0.31250000 </v>
   <v>       0.81250000       0.06250000       0.31250000 </v>
   <v>       0.06250000       0.31250000       0.31250000 </v>
   <v>       0.31250000       0.31250000       0.31250000 </v>
   <v>       0.56250000       0.31250000       0.31250000 </v>
   <v>       0.81250000       0.31250000       0.31250000 </v>
   <v>       0.06250000       0.56250000       0.31250000 </v>
   <v>       0.31250000       0.56250000       0.31250000 </v>
   <v>       0.56250000       0.56250000       0.31250000 </v>
   <v>       0.81250000       0.56250000       0.31250000 </v>
   <v>       0.06250000       0.81250000       0.31250000 </v>
   <v>       0.31250000       0.81250000       0.31250000 </v>
   <v>       0.56250000       0.81250000       0.31250000 </v>
   <v>       0.81250000       0.81250000       0.31250000 </v>
   <v>       0.06250000       0.06250000       0.56250000 </v>
   <v>       0.31250000       0.06250000       0.56250000 </v>
   <v>       0.56250000       0.06250000       0.56250000 </v>
   <v>       0.81250000       0.06250000       0.56250000 </v>
   <v>       0.06250000       0.31250000       0.56250000 </v>
   <v>       0.31250000       0.31250000       0.56250000 </v>
   <v>       0.56250000       0.31250000       0.56250000 </v>
   <v>       0.81250000       0.31250000       0.56250000 </v>
   <v>       0.06250000       0.56250000       0.56250000 </v>
   <v>       0.31250000       0.56250000       0.56250000 </v>
   <v>       0.56250000       0.56250000       0.56250000 </v>
   <v>       0.81250000       0.56250000       0.56250000 </v>
   <v>       0.06250000       0.81250000       0.56250000 </v>
   <v>       0.31250000       0.81250000       0.56250000 </v>
   <v>       0.56250000       0.81250000       0.56250000 </v>
   <v>       0.81250000       0.81250000       0.56250000 </v>
   <v>       0.06250000       0.06250000       0.81250000 </v>
   <v>       0.31250000       0.06250000       0.81250000 </v>
   <v>       0.56250000       0.06250000       0.81250000 </v>
   <v>       0.81250000       0.06250000       0.81250000 </v>
   <v>       0.06250000       0.31250000       0.81250000 </v>
   <v>       0.31250000       0.31250000       0.81250000 </v>
   <v>       0.56250000       0.31250000       0.81250000 </v>
   <v>       0.81250000       0.31250000       0.81250000 </v>
   <v>       0.06250000       0.56250000       0.81250000 </v>
   <v>       0.31250000       0.56250000       0.81250000 </v>
   <v>       0.56250000       0.56250000       0.81250000 </v>
   <v>       0.81250000       0.56250000       0.81250000 </v>
   <v>       0.06250000       0.81250000       0.81250000 </v>
   <v>       0.31250000       0.81250000       0.81250000 </v>
   <v>       0.56250000       0.81250000       0.81250000 </v>
   <v>       0.81250000       0.81250000       0.81250000 </v>
   <v>       0.00000000       0.00000000       0.00000000 </v>
   <v>       0.25000000       0.00000000       0.00000000 </v>
   <v>       0.49954284       0.00045716       0.99954284 </v>
   <v>       0.75000000       0.00000000       0.00000000 </v>
   <v>       0.00000000       0.25000000       0.00000000 </v>
   <v>       0.25000000       0.25000000       0.00000000 </v>
   <v>       0.50000000       0.25000000       0.00000000 </v>
   <v>       0.75000000       0.25000000       0.00000000 </v>
   <v>       0.00000000       0.50000000       0.00000000 </v>
   <v>       0.25000000       0.50000000       0.00000000 </v>
   <v>       0.50000000       0.50000000       0.00000000 </v>
   <v>       0.75000000       0.50000000       0.00000000 </v>
   <v>       0.00000000       0.75000000       0.00000000 </v>
   <v>       0.25000000       0.75000000       0.00000000 </v>
   <v>       0.50000000       0.75000000       0.00000000 </v>
   <v>       0.75000000       0.75000000       0.00000000 </v>
   <v>       0.00000000       0.00000000       0.25000000 </v>
   <v>       0.25000000       0.00000000       0.25000000 </v>
   <v>       0.50000000       0.00000000       0.25000000 </v>
   <v>       0.75000000       0.00000000       0.25000000 </v>
   <v>       0.00000000       0.25000000       0.25000000 </v>
   <v>       0.25000000       0.25000000       0.25000000 </v>
   <v>       0.50000000       0.25000000       0.25000000 </v>
   <v>       0.75000000       0.25000000       0.25000000 </v>
   <v>       0.00000000       0.50000000       0.25000000 </v>
   <v>       0.25000000       0.50000000       0.25000000 </v>
   <v>       0.50000000       0.50000000       0.25000000 </v>
   <v>       0.75000000       0.50000000       0.25000000 </v>
   <v>       0.00000000       0.75000000       0.25000000 </v>
   <v>       0.25000000       0.75000000       0.25000000 </v>
   <v>       0.50000000       0.75000000       0.25000000 </v>
   <v>       0.75000000       0.75000000       0.25000000 </v>
   <v>       0.00000000       0.00000000       0.50000000 </v>
   <v>       0.25000000       0.00000000       0.50000000 </v>
   <v>       0.50000000       0.00000000       0.50000000 </v>
   <v>       0.75000000       0.00000000       0.50000000 </v>
   <v>       0.00000000       0.25000000       0.50000000 </v>
   <v>       0.25000000       0.25000000       0.50000000 </v>
   <v>       0.50000000       0.25000000       0.50000000 </v>
   <v>       0.75000000       0.25000000       0.50000000 </v>
   <v>       0.00000000       0.50000000       0.50000000 </v>
   <v>       0.25000000       0.50000000       0.50000000 </v>
   <v>       0.50000000       0.50000000       0.50000000 </v>
   <v>       0.75000000       0.50000000       0.50000000 </v>
   <v>       0.00000000       0.75000000       0.50000000 </v>
   <v>       0.25000000       0.75000000       0.50000000 </v>
   <v>       0.50000000       0.75000000       0.50000000 </v>
   <v>       0.75000000       0.75000000       0.50000000 </v>
   <v>       0.00000000       0.00000000       0.75000000 </v>
   <v>       0.25000000       0.00000000       0.75000000 </v>
   <v>       0.50000000       0.00000000       0.75000000 </v>
   <v>       0.75000000       0.00000000       0.75000000 </v>
   <v>       0.00000000       0.25000000       0.75000000 </v>
   <v>       0.25000000       0.25000000       0.75000000 </v>
   <v>       0.50000000       0.25000000       0.75000000 </v>
   <v>       0.75000000       0.25000000       0.75000000 </v>
   <v>       0.00000000       0.50000000       0.75000000 </v>
   <v>       0.25000000       0.50000000       0.75000000 </v>
   <v>       0.50000000       0.50000000       0.75000000 </v>
   <v>       0.75000000       0.50000000       0.75000000 </v>
   <v>       0.00000000       0.75000000       0.75000000 </v>
   <v>       0.25000000       0.75000000       0.75000000 </v>
   <v>       0.50000000       0.75000000       0.75000000 </v>
   <v>       0.75000000       0.75000000       0.75000000 </v>
  </varray>
 </structure>
</modeling>
