<?xml version="1.0" encoding="ISO-8859-1"?>
<modeling>
 <generator>
  <i name="program" type="string">vasp </i>
  <i name="version" type="string">5.4.4.18Apr17-6-g9f103f2a35  </i>
  <i name="subversion" type="string">(build Aug 16 2020 16:33:06) complex            parallel </i>
  <i name="platform" type="string">LinuxIFC </i>
  <i name="date" type="string">2026 08 15 </i>
  <i name="time" type="string">15:56:32 </i>
 </generator>
 <incar>
  <i type="string" name="PREC">accurate</i>
  <i type="logical" name="ADDGRID"> T  </i>
  <i type="int" name="IBRION">    -1</i>
  <i name="EDIFF">      0.00000001</i>
  <i type="int" name="ISYM">     0</i>
  <i name="ENCUT">    500.00000000</i>
  <i type="logical" name="LREAL"> F  </i>
  <i type="int" name="ISMEAR">     0</i>
  <i name="SIGMA">      0.05000000</i>
  <i type="logical" name="LWAVE"> F  </i>
  <i type="logical" name="LCHARG"> F  </i>
  <v type="int" name="KPOINT_BSE">    -1     0     0     0</v>
 </incar>
 <structure name="primitive_cell" >
  <crystal>
   <varray name="basis" >
    <v>       0.00000000      10.93716070      10.93716070 </v>
    <v>      10.93716070       0.00000000      10.93716070 </v>
    <v>      10.93716070      10.93716070       0.00000000 </v>
   </varray>
   <i name="volume">   2616.63878844 </i>
   <varray name="rec_basis" >
    <v>      -0.04571570       0.04571570       0.04571570 </v>
    <v>       0.04571570      -0.04571570       0.04571570 </v>
    <v>       0.04571570       0.04571570      -0.04571570 </v>
   </varray>
  </crystal>
  <varray name="positions" >
   <v>       0.06295716       0.06295716       0.06204284 </v>
   <v>       0.25000000       0.00000000       0.00000000 </v>
   <v>       0.00000000       0.25000000       0.00000000 </v>
   <v>       0.00000000       0.00000000       0.00000000 </v>
   <v>       0.00000000       0.00000000       0.25000000 </v>
   <v>       0.31250000       0.06250000       0.06250000 </v>
   <v>       0.06250000       0.31250000       0.06250000 </v>
   <v>       0.31250000       0.06250000      -0.18750000 </v>
   <v>       0.06250000       0.31250000      -0.18750000 </v>
   <v>      -0.18750000       0.31250000       0.06250000 </v>
   <v>       0.31250000      -0.18750000       0.06250000 </v>
   <v>       0.06250000       0.06250000       0.31250000 </v>
   <v>       0.06250000       0.06250000      -0.18750000 </v>
   <v>      -0.18750000       0.06250000       0.06250000 </v>
   <v>       0.06250000      -0.18750000       0.06250000 </v>
   <v>      -0.18750000       0.06250000       0.31250000 </v>
   <v>       0.06250000      -0.18750000       0.31250000 </v>
   <v>       0.25000000       0.25000000       0.00000000 </v>
   <v>       0.25000000       0.25000000      -0.25000000 </v>
   <v>       0.25000000       0.00000000       0.25000000 </v>
   <v>       0.00000000       0.25000000       0.25000000 </v>
   <v>       0.25000000       0.00000000      -0.25000000 </v>
   <v>       0.00000000       0.25000000      -0.25000000 </v>
   <v>      -0.25000000       0.25000000       0.25000000 </v>
   <v>       0.25000000      -0.25000000       0.25000000 </v>
   <v>      -0.25000000       0.25000000       0.00000000 </v>
   <v>       0.25000000      -0.25000000       0.00000000 </v>
   <v>      -0.25000000       0.00000000       0.25000000 </v>
   <v>       0.00000000      -0.25000000       0.25000000 </v>
   <v>       0.31250000       0.31250000      -0.18750000 </v>
   <v>      -0.18750000       0.31250000       0.31250000 </v>
   <v>       0.31250000      -0.18750000       0.31250000 </v>
   <v>      -0.18750000       0.31250000      -0.18750000 </v>
   <v>       0.31250000      -0.18750000      -0.18750000 </v>
   <v>      -0.18750000      -0.18750000       0.31250000 </v>
   <v>       0.49954284      -0.00045716       0.00045716 </v>
   <v>       0.00000000      -0.50000000       0.00000000 </v>
   <v>      -0.50000000       0.00000000      -0.25000000 </v>
   <v>       0.00000000      -0.50000000      -0.25000000 </v>
   <v>      -0.25000000      -0.50000000       0.00000000 </v>
   <v>      -0.50000000      -0.25000000       0.00000000 </v>
   <v>       0.00000000       0.00000000      -0.50000000 </v>
   <v>       0.00000000       0.00000000      -0.25000000 </v>
   <v>      -0.25000000       0.00000000      -0.50000000 </v>
   <v>       0.00000000      -0.25000000      -0.50000000 </v>
   <v>      -0.25000000       0.00000000       0.00000000 </v>
   <v>       0.00000000      -0.25000000       0.00000000 </v>
   <v>       0.31250000       0.31250000       0.06250000 </v>
   <v>       0.31250000       0.31250000      -0.43750000 </v>
   <v>      -0.43750000       0.06250000      -0.18750000 </v>
   <v>       0.06250000      -0.43750000      -0.18750000 </v>
   <v>      -0.18750000      -0.43750000       0.06250000 </v>
   <v>      -0.43750000      -0.18750000       0.06250000 </v>
   <v>       0.31250000       0.06250000       0.31250000 </v>
   <v>       0.06250000       0.31250000       0.31250000 </v>
   <v>       0.31250000       0.06250000      -0.43750000 </v>
   <v>       0.06250000       0.31250000      -0.43750000 </v>
   <v>      -0.18750000      -0.43750000      -0.18750000 </v>
   <v>      -0.43750000      -0.18750000      -0.18750000 </v>
   <v>      -0.43750000       0.31250000       0.06250000 </v>
   <v>       0.31250000      -0.43750000       0.06250000 </v>
   <v>      -0.43750000       0.31250000       0.31250000 </v>
   <v>       0.31250000      -0.43750000       0.31250000 </v>
   <v>      -0.18750000       0.06250000      -0.43750000 </v>
   <v>       0.06250000      -0.18750000      -0.43750000 </v>
   <v>      -0.18750000       0.06250000      -0.18750000 </v>
   <v>       0.06250000      -0.18750000      -0.18750000 </v>
   <v>      -0.18750000      -0.18750000       0.06250000 </v>
   <v>      -0.43750000       0.06250000       0.31250000 </v>
   <v>       0.06250000      -0.43750000       0.31250000 </v>
   <v>      -0.18750000      -0.18750000      -0.43750000 </v>
   <v>      -0.50000000       0.25000000      -0.25000000 </v>
   <v>       0.25000000      -0.50000000      -0.25000000 </v>
   <v>       0.25000000       0.25000000       0.25000000 </v>
   <v>       0.25000000       0.25000000      -0.50000000 </v>
   <v>      -0.25000000      -0.50000000       0.25000000 </v>
   <v>      -0.50000000      -0.25000000       0.25000000 </v>
   <v>      -0.25000000      -0.50000000      -0.25000000 </v>
   <v>      -0.50000000      -0.25000000      -0.25000000 </v>
   <v>      -0.25000000       0.25000000      -0.50000000 </v>
   <v>       0.25000000      -0.25000000      -0.50000000 </v>
   <v>      -0.25000000       0.25000000      -0.25000000 </v>
   <v>       0.25000000      -0.25000000      -0.25000000 </v>
   <v>      -0.50000000       0.25000000       0.25000000 </v>
   <v>       0.25000000      -0.50000000       0.25000000 </v>
   <v>      -0.25000000      -0.25000000      -0.50000000 </v>
   <v>      -0.25000000      -0.25000000       0.25000000 </v>
   <v>      -0.43750000       0.06250000       0.06250000 </v>
   <v>       0.06250000      -0.43750000       0.06250000 </v>
   <v>      -0.43750000       0.06250000      -0.43750000 </v>
   <v>       0.06250000      -0.43750000      -0.43750000 </v>
   <v>      -0.43750000      -0.43750000       0.06250000 </v>
   <v>       0.06250000       0.06250000      -0.43750000 </v>
   <v>      -0.50000000       0.25000000       0.00000000 </v>
   <v>       0.25000000      -0.50000000       0.00000000 </v>
   <v>      -0.50000000       0.25000000      -0.50000000 </v>
   <v>       0.25000000      -0.50000000      -0.50000000 </v>
   <v>      -0.50000000       0.00000000       0.25000000 </v>
   <v>       0.00000000      -0.50000000       0.25000000 </v>
   <v>      -0.50000000       0.00000000      -0.50000000 </v>
   <v>       0.00000000      -0.50000000      -0.50000000 </v>
   <v>       0.25000000       0.00000000      -0.50000000 </v>
   <v>       0.00000000       0.25000000      -0.50000000 </v>
   <v>      -0.50000000      -0.50000000       0.00000000 </v>
   <v>      -0.50000000      -0.50000000       0.25000000 </v>
   <v>      -0.43750000       0.31250000      -0.43750000 </v>
   <v>       0.31250000      -0.43750000      -0.43750000 </v>
   <v>      -0.43750000       0.31250000      -0.18750000 </v>
   <v>       0.31250000      -0.43750000      -0.18750000 </v>
   <v>      -0.18750000      -0.43750000       0.31250000 </v>
   <v>      -0.43750000      -0.18750000       0.31250000 </v>
   <v>      -0.18750000      -0.43750000      -0.43750000 </v>
   <v>      -0.43750000      -0.18750000      -0.43750000 </v>
   <v>      -0.43750000      -0.43750000       0.31250000 </v>
   <v>      -0.18750000       0.31250000      -0.43750000 </v>
   <v>       0.31250000      -0.18750000      -0.43750000 </v>
   <v>      -0.43750000      -0.43750000      -0.18750000 </v>
   <v>      -0.25000000       0.00000000      -0.25000000 </v>
   <v>       0.00000000      -0.25000000      -0.25000000 </v>
   <v>      -0.25000000      -0.25000000       0.00000000 </v>
   <v>      -0.25000000      -0.25000000      -0.25000000 </v>
   <v>       0.31250000       0.31250000       0.31250000 </v>
   <v>      -0.18750000      -0.18750000      -0.18750000 </v>
   <v>      -0.50000000      -0.50000000      -0.50000000 </v>
   <v>      -0.50000000      -0.50000000      -0.25000000 </v>
   <v>      -0.25000000      -0.50000000      -0.50000000 </v>
   <v>      -0.50000000      -0.25000000      -0.50000000 </v>
   <v>      -0.43750000      -0.43750000      -0.43750000 </v>
  </varray>
 </structure>
 <varray name="primitive_index" >
  <v type="int" >        1 </v>
  <v type="int" >       66 </v>
  <v type="int" >       69 </v>
  <v type="int" >       65 </v>
  <v type="int" >       81 </v>
  <v type="int" >        2 </v>
  <v type="int" >        5 </v>
  <v type="int" >       50 </v>
  <v type="int" >       53 </v>
  <v type="int" >        8 </v>
  <v type="int" >       14 </v>
  <v type="int" >       17 </v>
  <v type="int" >       49 </v>
  <v type="int" >        4 </v>
  <v type="int" >       13 </v>
  <v type="int" >       20 </v>
  <v type="int" >       29 </v>
  <v type="int" >       70 </v>
  <v type="int" >      118 </v>
  <v type="int" >       82 </v>
  <v type="int" >       85 </v>
  <v type="int" >      114 </v>
  <v type="int" >      117 </v>
  <v type="int" >       88 </v>
  <v type="int" >       94 </v>
  <v type="int" >       72 </v>
  <v type="int" >       78 </v>
  <v type="int" >       84 </v>
  <v type="int" >       93 </v>
  <v type="int" >       54 </v>
  <v type="int" >       24 </v>
  <v type="int" >       30 </v>
  <v type="int" >       56 </v>
  <v type="int" >       62 </v>
  <v type="int" >       32 </v>
  <v type="int" >       67 </v>
  <v type="int" >       73 </v>
  <v type="int" >      115 </v>
  <v type="int" >      121 </v>
  <v type="int" >       76 </v>
  <v type="int" >       79 </v>
  <v type="int" >       97 </v>
  <v type="int" >      113 </v>
  <v type="int" >      100 </v>
  <v type="int" >      109 </v>
  <v type="int" >       68 </v>
  <v type="int" >       77 </v>
  <v type="int" >        6 </v>
  <v type="int" >       38 </v>
  <v type="int" >       51 </v>
  <v type="int" >       57 </v>
  <v type="int" >       12 </v>
  <v type="int" >       15 </v>
  <v type="int" >       18 </v>
  <v type="int" >       21 </v>
  <v type="int" >       34 </v>
  <v type="int" >       37 </v>
  <v type="int" >       60 </v>
  <v type="int" >       63 </v>
  <v type="int" >        7 </v>
  <v type="int" >       10 </v>
  <v type="int" >       23 </v>
  <v type="int" >       26 </v>
  <v type="int" >       36 </v>
  <v type="int" >       45 </v>
  <v type="int" >       52 </v>
  <v type="int" >       61 </v>
  <v type="int" >       16 </v>
  <v type="int" >       19 </v>
  <v type="int" >       25 </v>
  <v type="int" >       48 </v>
  <v type="int" >      119 </v>
  <v type="int" >      122 </v>
  <v type="int" >       86 </v>
  <v type="int" >      102 </v>
  <v type="int" >       92 </v>
  <v type="int" >       95 </v>
  <v type="int" >      124 </v>
  <v type="int" >      127 </v>
  <v type="int" >      104 </v>
  <v type="int" >      110 </v>
  <v type="int" >      120 </v>
  <v type="int" >      126 </v>
  <v type="int" >       87 </v>
  <v type="int" >       90 </v>
  <v type="int" >      112 </v>
  <v type="int" >       96 </v>
  <v type="int" >        3 </v>
  <v type="int" >        9 </v>
  <v type="int" >       35 </v>
  <v type="int" >       41 </v>
  <v type="int" >       11 </v>
  <v type="int" >       33 </v>
  <v type="int" >       71 </v>
  <v type="int" >       74 </v>
  <v type="int" >      103 </v>
  <v type="int" >      106 </v>
  <v type="int" >       83 </v>
  <v type="int" >       89 </v>
  <v type="int" >       99 </v>
  <v type="int" >      105 </v>
  <v type="int" >       98 </v>
  <v type="int" >      101 </v>
  <v type="int" >       75 </v>
  <v type="int" >       91 </v>
  <v type="int" >       39 </v>
  <v type="int" >       42 </v>
  <v type="int" >       55 </v>
  <v type="int" >       58 </v>
  <v type="int" >       28 </v>
  <v type="int" >       31 </v>
  <v type="int" >       44 </v>
  <v type="int" >       47 </v>
  <v type="int" >       27 </v>
  <v type="int" >       40 </v>
  <v type="int" >       46 </v>
  <v type="int" >       59 </v>
  <v type="int" >      116 </v>
  <v type="int" >      125 </v>
  <v type="int" >       80 </v>
  <v type="int" >      128 </v>
  <v type="int" >       22 </v>
  <v type="int" >       64 </v>
  <v type="int" >      107 </v>
  <v type="int" >      123 </v>
  <v type="int" >      108 </v>
  <v type="int" >      111 </v>
  <v type="int" >       43 </v>
 </varray>
 <kpoints>
  <generation param="Gamma">
   <v type="int" name="divisions">       1        1        1 </v>
   <v name="usershift">      0.00000000       0.00000000       0.00000000 </v>
   <v name="genvec1">      1.00000000       0.00000000       0.00000000 </v>
   <v name="genvec2">      0.00000000       1.00000000       0.00000000 </v>
   <v name="genvec3">      0.00000000       0.00000000       1.00000000 </v>
   <v name="shift">      0.00000000       0.00000000       0.00000000 </v>
  </generation>
  <varray name="kpointlist" >
   <v>       0.00000000       0.00000000       0.00000000 </v>
  </varray>
  <varray name="weights" >
   <v>       1.00000000 </v>
  </varray>
 </kpoints>
 <parameters>
  <separator name="general" >
   <i type="string" name="SYSTEM">unknown system</i>
   <i type="logical" name="LCOMPAT"> F  </i>
  </separator>
  <separator name="electronic" >
   <i type="string" name="PREC">accura</i>
   <i name="ENMAX">    500.00000000</i>
   <i name="ENAUG">    322.06900000</i>
   <i name="EDIFF">      0.00000001</i>
   <i type="int" name="IALGO">    38</i>
   <i type="int" name="IWAVPR">    10</i>
   <i type="int" name="NBANDS">   322</i>
   <i name="NELECT">    512.00000000</i>
   <i type="int" name="TURBO">     0</i>
   <i type="int" name="IRESTART">     0</i>
   <i type="int" name="NREBOOT">     0</i>
   <i type="int" name="NMIN">     0</i>
   <i name="EREF">      0.00000000</i>
   <separator name="electronic smearing" >
    <i type="int" name="ISMEAR">     0</i>
    <i name="SIGMA">      0.05000000</i>
    <i name="KSPACING">      0.50000000</i>
    <i type="logical" name="KGAMMA"> T  </i>
   </separator>
   <separator name="electronic projectors" >
    <i type="logical" name="LREAL"> F  </i>
    <v name="ROPT">      0.00000000</v>
    <i type="int" name="LMAXPAW">  -100</i>
    <i type="int" name="LMAXMIX">     2</i>
    <i type="logical" name="NLSPLINE"> F  </i>
   </separator>
   <separator name="electronic startup" >
    <i type="int" name="ISTART">     0</i>
    <i type="int" name="ICHARG">     2</i>
    <i type="int" name="INIWAV">     1</i>
   </separator>
   <separator name="electronic spin" >
    <i type="int" name="ISPIN">     1</i>
    <i type="logical" name="LNONCOLLINEAR"> F  </i>
    <v name="MAGMOM">      1.00000000      1.00000000      1.00000000      1.00000000      1.00000000      1.00000000      1.00000000      1.00000000      1.00000000      1.00000000      1.00000000      1.00000000      1.00000000      1.00000000      1.00000000      1.00000000      1.00000000      1.00000000      1.00000000      1.00000000
      1.00000000      1.00000000      1.00000000      1.00000000      1.00000000      1.00000000      1.00000000      1.00000000      1.00000000      1.00000000      1.00000000      1.00000000      1.00000000      1.00000000      1.00000000      1.00000000      1.00000000      1.00000000      1.00000000      1.00000000
      1.00000000      1.00000000      1.00000000      1.00000000      1.00000000      1.00000000      1.00000000      1.00000000      1.00000000      1.00000000      1.00000000      1.00000000      1.00000000      1.00000000      1.00000000      1.00000000      1.00000000      1.00000000      1.00000000      1.00000000
      1.00000000      1.00000000      1.00000000      1.00000000      1.00000000      1.00000000      1.00000000      1.00000000      1.00000000      1.00000000      1.00000000      1.00000000      1.00000000      1.00000000      1.00000000      1.00000000      1.00000000      1.00000000      1.00000000      1.00000000
      1.00000000      1.00000000      1.00000000      1.00000000      1.00000000      1.00000000      1.00000000      1.00000000      1.00000000      1.00000000      1.00000000      1.00000000      1.00000000      1.00000000      1.00000000      1.00000000      1.00000000      1.00000000      1.00000000      1.00000000
      1.00000000      1.00000000      1.00000000      1.00000000      1.00000000      1.00000000      1.00000000      1.00000000      1.00000000      1.00000000      1.00000000      1.00000000      1.00000000      1.00000000      1.00000000      1.00000000      1.00000000      1.00000000      1.00000000      1.00000000
      1.00000000      1.00000000      1.00000000      1.00000000      1.00000000      1.00000000      1.00000000      1.00000000</v>
    <i name="NUPDOWN">     -1.00000000</i>
    <i type="logical" name="LSORBIT"> F  </i>
    <v name="SAXIS">      0.00000000      0.00000000      1.00000000</v>
    <i type="logical" name="LSPIRAL"> F  </i>
    <v name="QSPIRAL">      0.00000000      0.00000000      0.00000000</v>
    <i type="logical" name="LZEROZ"> F  </i>
   </separator>
   <separator name="electronic exchange-correlation" >
    <i type="logical" name="LASPH"> F  </i>
    <i type="logical" name="LMETAGGA"> F  </i>
   </separator>
   <separator name="electronic convergence" >
    <i type="int" name="NELM">    60</i>
    <i type="int" name="NELMDL">    -5</i>
    <i type="int" name="NELMIN">     2</i>
    <i name="ENINI">    500.00000000</i>
    <separator name="electronic convergence detail" >
     <i type="logical" name="LDIAG"> T  </i>
     <i type="logical" name="LSUBROT"> F  </i>
     <i name="WEIMIN">      0.00000000</i>
     <i name="EBREAK">      0.00000000</i>
     <i name="DEPER">      0.30000000</i>
     <i type="int" name="NRMM">     4</i>
     <i name="TIME">      0.40000000</i>
    </separator>
   </separator>
   <separator name="electronic mixer" >
    <i name="AMIX">      0.40000000</i>
    <i name="BMIX">      1.00000000</i>
    <i name="AMIN">      0.10000000</i>
    <i name="AMIX_MAG">      1.60000000</i>
    <i name="BMIX_MAG">      1.00000000</i>
    <separator name="electronic mixer details" >
     <i type="int" name="IMIX">     4</i>
     <i type="logical" name="MIXFIRST"> F  </i>
     <i type="int" name="MAXMIX">   -45</i>
     <i name="WC">    100.00000000</i>
     <i type="int" name="INIMIX">     1</i>
     <i type="int" name="MIXPRE">     1</i>
     <i type="int" name="MREMOVE">     5</i>
    </separator>
   </separator>
   <separator name="electronic dipolcorrection" >
    <i type="logical" name="LDIPOL"> F  </i>
    <i type="logical" name="LMONO"> F  </i>
    <i type="int" name="IDIPOL">     0</i>
    <i name="EPSILON">      1.00000000</i>
    <v name="DIPOL">   -100.00000000   -100.00000000   -100.00000000</v>
    <i name="EFIELD">      0.00000000</i>
   </separator>
  </separator>
  <separator name="grids" >
   <i type="int" name="NGX">   120</i>
   <i type="int" name="NGY">   120</i>
   <i type="int" name="NGZ">   120</i>
   <i type="int" name="NGXF">   240</i>
   <i type="int" name="NGYF">   240</i>
   <i type="int" name="NGZF">   240</i>
   <i type="logical" name="ADDGRID"> T  </i>
  </separator>
  <separator name="ionic" >
   <i type="int" name="NSW">     0</i>
   <i type="int" name="IBRION">    -1</i>
   <i type="int" name="MDALGO">     0</i>
   <i type="int" name="ISIF">     2</i>
   <i name="PSTRESS">      0.00000000</i>
   <i name="EDIFFG">      0.00000010</i>
   <i type="int" name="NFREE">     0</i>
   <i name="POTIM">      0.50000000</i>
   <i name="SMASS">     -3.00000000</i>
   <i name="SCALEE">      1.00000000</i>
  </separator>
  <separator name="ionic md" >
   <i name="TEBEG">      0.00010000</i>
   <i name="TEEND">      0.00010000</i>
   <i type="int" name="NBLOCK">     1</i>
   <i type="int" name="KBLOCK">     1</i>
   <i type="int" name="NPACO">   256</i>
   <i name="APACO">     16.00000000</i>
  </separator>
  <separator name="symmetry" >
   <i type="int" name="ISYM">     0</i>
   <i name="SYMPREC">      0.00001000</i>
  </separator>
  <separator name="dos" >
   <i type="int" name="LORBIT">     0</i>
   <v name="RWIGS">     -1.00000000</v>
   <i type="int" name="NEDOS">   301</i>
   <i name="EMIN">     10.00000000</i>
   <i name="EMAX">    -10.00000000</i>
   <i name="EFERMI">      0.00000000</i>
  </separator>
  <separator name="writing" >
   <i type="int" name="NWRITE">     2</i>
   <i type="logical" name="LWAVE"> F  </i>
   <i type="logical" name="LDOWNSAMPLE"> F  </i>
   <i type="logical" name="LCHARG"> F  </i>
   <i type="logical" name="LPARD"> F  </i>
   <i type="logical" name="LVTOT"> F  </i>
   <i type="logical" name="LVHAR"> F  </i>
   <i type="logical" name="LELF"> F  </i>
   <i type="logical" name="LOPTICS"> F  </i>
   <v name="STM">      0.00000000      0.00000000      0.00000000      0.00000000      0.00000000      0.00000000      0.00000000</v>
  </separator>
  <separator name="performance" >
   <i type="int" name="NPAR">     2</i>
   <i type="int" name="NSIM">     4</i>
   <i type="int" name="NBLK">    -1</i>
   <i type="logical" name="LPLANE"> T  </i>
   <i type="logical" name="LSCALAPACK"> T  </i>
   <i type="logical" name="LSCAAWARE"> F  </i>
   <i type="logical" name="LSCALU"> F  </i>
   <i type="logical" name="LASYNC"> F  </i>
   <i type="logical" name="LORBITALREAL"> F  </i>
  </separator>
  <separator name="miscellaneous" >
   <i type="int" name="IDIOT">     3</i>
   <i type="int" name="ISPECIAL">     0</i>
   <i type="logical" name="LMUSIC"> F  </i>
   <v name="POMASS">     28.08500000</v>
   <v name="DARWINR">      0.00000000</v>
   <v name="DARWINV">      1.00000000</v>
   <i type="logical" name="LCORR"> T  </i>
  </separator>
  <i type="logical" name="GGA_COMPAT"> T  </i>
  <i type="logical" name="LBERRY"> F  </i>
  <i type="int" name="ICORELEVEL">     0</i>
  <i type="logical" name="LDAU"> F  </i>
  <i type="int" name="I_CONSTRAINED_M">     0</i>
  <separator name="electronic exchange-correlation" >
   <i type="string" name="GGA">--</i>
   <i type="int" name="VOSKOWN">     0</i>
   <i type="logical" name="LHFCALC"> F  </i>
   <i type="string" name="PRECFOCK"></i>
   <i type="logical" name="LSYMGRAD"> F  </i>
   <i type="logical" name="LHFONE"> F  </i>
   <i type="logical" name="LRHFCALC"> F  </i>
   <i type="logical" name="LTHOMAS"> F  </i>
   <i type="logical" name="LMODELHF"> F  </i>
   <i name="ENCUT4O">     -1.00000000</i>
   <i type="int" name="EXXOEP">     0</i>
   <i type="int" name="FOURORBIT">     0</i>
   <i name="AEXX">      0.00000000</i>
   <i name="HFALPHA">      0.00000000</i>
   <i name="MCALPHA">      0.00000000</i>
   <i name="ALDAX">      1.00000000</i>
   <i name="AGGAX">      1.00000000</i>
   <i name="ALDAC">      1.00000000</i>
   <i name="AGGAC">      1.00000000</i>
   <i type="int" name="NKREDX">     1</i>
   <i type="int" name="NKREDY">     1</i>
   <i type="int" name="NKREDZ">     1</i>
   <i type="logical" name="SHIFTRED"> F  </i>
   <i type="logical" name="ODDONLY"> F  </i>
   <i type="logical" name="EVENONLY"> F  </i>
   <i type="int" name="LMAXFOCK">     0</i>
   <i type="int" name="NMAXFOCKAE">     0</i>
   <i type="logical" name="LFOCKAEDFT"> F  </i>
   <i name="HFSCREEN">      0.00000000</i>
   <i name="HFSCREENC">      0.00000000</i>
   <i type="int" name="NBANDSGWLOW">     0</i>
  </separator>
  <separator name="vdW DFT" >
   <i type="logical" name="LUSE_VDW"> F  </i>
   <i name="Zab_VDW">     -0.84910000</i>
   <i name="PARAM1">      0.12340000</i>
   <i name="PARAM2">      1.00000000</i>
   <i name="PARAM3">      0.00000000</i>
  </separator>
  <separator name="model GW" >
   <i type="int" name="MODEL_GW">     0</i>
   <i name="MODEL_EPS0">     12.26549432</i>
   <i name="MODEL_ALPHA">      1.00000000</i>
  </separator>
  <separator name="linear response parameters" >
   <i type="logical" name="LEPSILON"> F  </i>
   <i type="logical" name="LRPA"> F  </i>
   <i type="logical" name="LNABLA"> F  </i>
   <i type="logical" name="LVEL"> F  </i>
   <i type="int" name="KINTER">     0</i>
   <i name="CSHIFT">      0.10000000</i>
   <i name="OMEGAMAX">     -1.00000000</i>
   <i name="DEG_THRESHOLD">      0.00200000</i>
   <i name="RTIME">     -0.10000000</i>
   <i name="WPLASMAI">      0.00000000</i>
   <v name="DFIELD">      0.00000000      0.00000000      0.00000000</v>
   <v name="WPLASMA">      0.00000000      0.00000000      0.00000000      0.00000000      0.00000000      0.00000000      0.00000000      0.00000000      0.00000000</v>
  </separator>
  <separator name="orbital magnetization" >
   <i type="logical" name="NUCIND"> F  </i>
   <v name="MAGPOS">      0.00000000      0.00000000      0.00000000</v>
   <i type="logical" name="LNICSALL"> T  </i>
   <i type="logical" name="ORBITALMAG"> F  </i>
   <i type="logical" name="LMAGBLOCH"> F  </i>
   <i type="logical" name="LCHIMAG"> F  </i>
   <i type="logical" name="LGAUGE"> T  </i>
   <i type="int" name="MAGATOM">     0</i>
   <v name="MAGDIPOL">      0.00000000      0.00000000      0.00000000</v>
   <v name="AVECCONST">      0.00000000      0.00000000      0.00000000</v>
  </separator>
  <separator name="response functions" >
   <i type="logical" name="LADDER"> F  </i>
   <i type="logical" name="LRPAFORCE"> F  </i>
   <i type="logical" name="LFXC"> F  </i>
   <i type="logical" name="LHARTREE"> T  </i>
   <i type="int" name="IBSE">     0</i>
   <v type="int" name="KPOINT">    -1     0     0     0</v>
   <i type="logical" name="LTCTE"> F  </i>
   <i type="logical" name="LTETE"> F  </i>
   <i type="logical" name="LTRIPLET"> F  </i>
   <i type="logical" name="LFXCEPS"> F  </i>
   <i type="logical" name="LFXHEG"> F  </i>
   <i type="int" name="NATURALO">     2</i>
   <i type="logical" name="L2ORDER"> F  </i>
   <i type="logical" name="LMP2LT"> F  </i>
   <i type="logical" name="LUSEW"> F  </i>
   <i name="ENCUTGW">     -2.00000000</i>
   <i name="ENCUTGWSOFT">     -2.00000000</i>
   <i name="ENCUTLF">     -1.00000000</i>
   <i type="int" name="LMAXMP2">    -1</i>
   <i name="SCISSOR">      0.00000000</i>
   <i type="int" name="NOMEGA">     0</i>
   <i type="int" name="NOMEGAR">     0</i>
   <i type="int" name="NBANDSGW">    -1</i>
   <i type="int" name="NBANDSO">    -1</i>
   <i type="int" name="NBANDSV">    -1</i>
   <i type="int" name="NELM">     1</i>
   <i type="int" name="NELMHF">     1</i>
   <i type="int" name="DIM">     3</i>
   <i type="int" name="ANTIRES">     0</i>
   <i name="OMEGAMAX">    -30.00000000</i>
   <i name="OMEGAMIN">    -30.00000000</i>
   <i name="OMEGATL">   -200.00000000</i>
   <i type="int" name="OMEGAGRID">   140</i>
   <i name="CSHIFT">     -0.10000000</i>
   <i type="logical" name="SELFENERGY"> F  </i>
   <i type="logical" name="LSPECTRAL"> F  </i>
   <i type="logical" name="LSPECTRALGW"> F  </i>
   <i type="logical" name="LSINGLES"> F  </i>
   <i type="logical" name="LFERMIGW"> F  </i>
   <i type="logical" name="ODDONLYGW"> F  </i>
   <i type="logical" name="EVENONLYGW"> F  </i>
   <i type="int" name="NKREDLFX">     1</i>
   <i type="int" name="NKREDLFY">     1</i>
   <i type="int" name="NKREDLFZ">     1</i>
   <i type="int" name="MAXMEM">  2800</i>
   <i type="int" name="TELESCOPE">     0</i>
   <i type="int" name="TAUPAR">     1</i>
   <i type="int" name="OMEGAPAR">    -1</i>
   <i name="LAMBDA">      1.00000000</i>
  </separator>
  <separator name="External order field" >
   <i name="OFIELD_KAPPA">      0.00000000</i>
   <v name="OFIELD_K">      0.00000000      0.00000000      0.00000000</v>
   <i name="OFIELD_Q6_NEAR">      0.00000000</i>
   <i name="OFIELD_Q6_FAR">      0.00000000</i>
   <i name="OFIELD_A">      0.00000000</i>
  </separator>
 </parameters>
 <atominfo>
  <atoms>     128 </atoms>
  <types>       1 </types>
  <array name="atoms" >
   <dimension dim="1">ion</dimension>
   <field type="string">element</field>
   <field type="int">atomtype</field>
   <set>
    <rc><c>Si</c><c>   1</c></rc>
    <rc><c>Si</c><c>   1</c></rc>
    <rc><c>Si</c><c>   1</c></rc>
    <rc><c>Si</c><c>   1</c></rc>
    <rc><c>Si</c><c>   1</c></rc>
    <rc><c>Si</c><c>   1</c></rc>
    <rc><c>Si</c><c>   1</c></rc>
    <rc><c>Si</c><c>   1</c></rc>
    <rc><c>Si</c><c>   1</c></rc>
    <rc><c>Si</c><c>   1</c></rc>
    <rc><c>Si</c><c>   1</c></rc>
    <rc><c>Si</c><c>   1</c></rc>
    <rc><c>Si</c><c>   1</c></rc>
    <rc><c>Si</c><c>   1</c></rc>
    <rc><c>Si</c><c>   1</c></rc>
    <rc><c>Si</c><c>   1</c></rc>
    <rc><c>Si</c><c>   1</c></rc>
    <rc><c>Si</c><c>   1</c></rc>
    <rc><c>Si</c><c>   1</c></rc>
    <rc><c>Si</c><c>   1</c></rc>
    <rc><c>Si</c><c>   1</c></rc>
    <rc><c>Si</c><c>   1</c></rc>
    <rc><c>Si</c><c>   1</c></rc>
    <rc><c>Si</c><c>   1</c></rc>
    <rc><c>Si</c><c>   1</c></rc>
    <rc><c>Si</c><c>   1</c></rc>
    <rc><c>Si</c><c>   1</c></rc>
    <rc><c>Si</c><c>   1</c></rc>
    <rc><c>Si</c><c>   1</c></rc>
    <rc><c>Si</c><c>   1</c></rc>
    <rc><c>Si</c><c>   1</c></rc>
    <rc><c>Si</c><c>   1</c></rc>
    <rc><c>Si</c><c>   1</c></rc>
    <rc><c>Si</c><c>   1</c></rc>
    <rc><c>Si</c><c>   1</c></rc>
    <rc><c>Si</c><c>   1</c></rc>
    <rc><c>Si</c><c>   1</c></rc>
    <rc><c>Si</c><c>   1</c></rc>
    <rc><c>Si</c><c>   1</c></rc>
    <rc><c>Si</c><c>   1</c></rc>
    <rc><c>Si</c><c>   1</c></rc>
    <rc><c>Si</c><c>   1</c></rc>
    <rc><c>Si</c><c>   1</c></rc>
    <rc><c>Si</c><c>   1</c></rc>
    <rc><c>Si</c><c>   1</c></rc>
    <rc><c>Si</c><c>   1</c></rc>
    <rc><c>Si</c><c>   1</c></rc>
    <rc><c>Si</c><c>   1</c></rc>
    <rc><c>Si</c><c>   1</c></rc>
    <rc><c>Si</c><c>   1</c></rc>
    <rc><c>Si</c><c>   1</c></rc>
    <rc><c>Si</c><c>   1</c></rc>
    <rc><c>Si</c><c>   1</c></rc>
    <rc><c>Si</c><c>   1</c></rc>
    <rc><c>Si</c><c>   1</c></rc>
    <rc><c>Si</c><c>   1</c></rc>
    <rc><c>Si</c><c>   1</c></rc>
    <rc><c>Si</c><c>   1</c></rc>
    <rc><c>Si</c><c>   1</c></rc>
    <rc><c>Si</c><c>   1</c></rc>
    <rc><c>Si</c><c>   1</c></rc>
    <rc><c>Si</c><c>   1</c></rc>
    <rc><c>Si</c><c>   1</c></rc>
    <rc><c>Si</c><c>   1</c></rc>
    <rc><c>Si</c><c>   1</c></rc>
    <rc><c>Si</c><c>   1</c></rc>
    <rc><c>Si</c><c>   1</c></rc>
    <rc><c>Si</c><c>   1</c></rc>
    <rc><c>Si</c><c>   1</c></rc>
    <rc><c>Si</c><c>   1</c></rc>
    <rc><c>Si</c><c>   1</c></rc>
    <rc><c>Si</c><c>   1</c></rc>
    <rc><c>Si</c><c>   1</c></rc>
    <rc><c>Si</c><c>   1</c></rc>
    <rc><c>Si</c><c>   1</c></rc>
    <rc><c>Si</c><c>   1</c></rc>
    <rc><c>Si</c><c>   1</c></rc>
    <rc><c>Si</c><c>   1</c></rc>
    <rc><c>Si</c><c>   1</c></rc>
    <rc><c>Si</c><c>   1</c></rc>
    <rc><c>Si</c><c>   1</c></rc>
    <rc><c>Si</c><c>   1</c></rc>
    <rc><c>Si</c><c>   1</c></rc>
    <rc><c>Si</c><c>   1</c></rc>
    <rc><c>Si</c><c>   1</c></rc>
    <rc><c>Si</c><c>   1</c></rc>
    <rc><c>Si</c><c>   1</c></rc>
    <rc><c>Si</c><c>   1</c></rc>
    <rc><c>Si</c><c>   1</c></rc>
    <rc><c>Si</c><c>   1</c></rc>
    <rc><c>Si</c><c>   1</c></rc>
    <rc><c>Si</c><c>   1</c></rc>
    <rc><c>Si</c><c>   1</c></rc>
    <rc><c>Si</c><c>   1</c></rc>
    <rc><c>Si</c><c>   1</c></rc>
    <rc><c>Si</c><c>   1</c></rc>
    <rc><c>Si</c><c>   1</c></rc>
    <rc><c>Si</c><c>   1</c></rc>
    <rc><c>Si</c><c>   1</c></rc>
    <rc><c>Si</c><c>   1</c></rc>
    <rc><c>Si</c><c>   1</c></rc>
    <rc><c>Si</c><c>   1</c></rc>
    <rc><c>Si</c><c>   1</c></rc>
    <rc><c>Si</c><c>   1</c></rc>
    <rc><c>Si</c><c>   1</c></rc>
    <rc><c>Si</c><c>   1</c></rc>
    <rc><c>Si</c><c>   1</c></rc>
    <rc><c>Si</c><c>   1</c></rc>
    <rc><c>Si</c><c>   1</c></rc>
    <rc><c>Si</c><c>   1</c></rc>
    <rc><c>Si</c><c>   1</c></rc>
    <rc><c>Si</c><c>   1</c></rc>
    <rc><c>Si</c><c>   1</c></rc>
    <rc><c>Si</c><c>   1</c></rc>
    <rc><c>Si</c><c>   1</c></rc>
    <rc><c>Si</c><c>   1</c></rc>
    <rc><c>Si</c><c>   1</c></rc>
    <rc><c>Si</c><c>   1</c></rc>
    <rc><c>Si</c><c>   1</c></rc>
    <rc><c>Si</c><c>   1</c></rc>
    <rc><c>Si</c><c>   1</c></rc>
    <rc><c>Si</c><c>   1</c></rc>
    <rc><c>Si</c><c>   1</c></rc>
    <rc><c>Si</c><c>   1</c></rc>
    <rc><c>Si</c><c>   1</c></rc>
    <rc><c>Si</c><c>   1</c></rc>
    <rc><c>Si</c><c>   1</c></rc>
    <rc><c>Si</c><c>   1</c></rc>
   </set>
  </array>
  <array name="atomtypes" >
   <dimension dim="1">type</dimension>
   <field type="int">atomspertype</field>
   <field type="string">element</field>
   <field>mass</field>
   <field>valence</field>
   <field type="string">pseudopotential</field>
   <set>
    <rc><c> 128</c><c>Si</c><c>     28.08500000</c><c>      4.00000000</c><c> PAW_PBE Si 05Jan2001                   </c></rc>
   </set>
  </array>
 </atominfo>
 <structure name="initialpos" >
  <crystal>
   <varray name="basis" >
    <v>       0.00000000      10.93716070      10.93716070 </v>
    <v>      10.93716070       0.00000000      10.93716070 </v>
    <v>      10.93716070      10.93716070       0.00000000 </v>
   </varray>
   <i name="volume">   2616.63878844 </i>
   <varray name="rec_basis" >
    <v>      -0.04571570       0.04571570       0.04571570 </v>
    <v>       0.04571570      -0.04571570       0.04571570 </v>
    <v>       0.04571570       0.04571570      -0.04571570 </v>
   </varray>
  </crystal>
  <varray name="positions" >
   <v>       0.06295716       0.06295716       0.06204284 </v>
   <v>       0.31250000       0.06250000       0.06250000 </v>
   <v>       0.56250000       0.06250000       0.06250000 </v>
   <v>       0.81250000       0.06250000       0.06250000 </v>
   <v>       0.06250000       0.31250000       0.06250000 </v>
   <v>       0.31250000       0.31250000       0.06250000 </v>
   <v>       0.56250000       0.31250000       0.06250000 </v>
   <v>       0.81250000       0.31250000       0.06250000 </v>
   <v>       0.06250000       0.56250000       0.06250000 </v>
   <v>       0.31250000       0.56250000       0.06250000 </v>
   <v>       0.56250000       0.56250000       0.06250000 </v>
   <v>       0.81250000       0.56250000       0.06250000 </v>
   <v>       0.06250000       0.81250000       0.06250000 </v>
   <v>       0.31250000       0.81250000       0.06250000 </v>
   <v>       0.56250000       0.81250000       0.06250000 </v>
   <v>       0.81250000       0.81250000       0.06250000 </v>
   <v>       0.06250000       0.06250000       0.31250000 </v>
   <v>       0.31250000       0.06250000       0.31250000 </v>
   <v>       0.56250000       0.06250000       0.31250000 </v>
   <v>       0.81250000       0.06250000       0.31250000 </v>
   <v>       0.06250000       0.31250000       0.31250000 </v>
   <v>       0.31250000       0.31250000       0.31250000 </v>
   <v>       0.56250000       0.31250000       0.31250000 </v>
   <v>       0.81250000       0.31250000       0.31250000 </v>
   <v>       0.06250000       0.56250000       0.31250000 </v>
   <v>       0.31250000       0.56250000       0.31250000 </v>
   <v>       0.56250000       0.56250000       0.31250000 </v>
   <v>       0.81250000       0.56250000       0.31250000 </v>
   <v>       0.06250000       0.81250000       0.31250000 </v>
   <v>       0.31250000       0.81250000       0.31250000 </v>
   <v>       0.56250000       0.81250000       0.31250000 </v>
   <v>       0.81250000       0.81250000       0.31250000 </v>
   <v>       0.06250000       0.06250000       0.56250000 </v>
   <v>       0.31250000       0.06250000       0.56250000 </v>
   <v>       0.56250000       0.06250000       0.56250000 </v>
   <v>       0.81250000       0.06250000       0.56250000 </v>
   <v>       0.06250000       0.31250000       0.56250000 </v>
   <v>       0.31250000       0.31250000       0.56250000 </v>
   <v>       0.56250000       0.31250000       0.56250000 </v>
   <v>       0.81250000       0.31250000       0.56250000 </v>
   <v>       0.06250000       0.56250000       0.56250000 </v>
   <v>       0.31250000       0.56250000       0.56250000 </v>
   <v>       0.56250000       0.56250000       0.56250000 </v>
   <v>       0.81250000       0.56250000       0.56250000 </v>
   <v>       0.06250000       0.81250000       0.56250000 </v>
   <v>       0.31250000       0.81250000       0.56250000 </v>
   <v>       0.56250000       0.81250000       0.56250000 </v>
   <v>       0.81250000       0.81250000       0.56250000 </v>
   <v>       0.06250000       0.06250000       0.81250000 </v>
   <v>       0.31250000       0.06250000       0.81250000 </v>
   <v>       0.56250000       0.06250000       0.81250000 </v>
   <v>       0.81250000       0.06250000       0.81250000 </v>
   <v>       0.06250000       0.31250000       0.81250000 </v>
   <v>       0.31250000       0.31250000       0.81250000 </v>
   <v>       0.56250000       0.31250000       0.81250000 </v>
   <v>       0.81250000       0.31250000       0.81250000 </v>
   <v>       0.06250000       0.56250000       0.81250000 </v>
   <v>       0.31250000       0.56250000       0.81250000 </v>
   <v>       0.56250000       0.56250000       0.81250000 </v>
   <v>       0.81250000       0.56250000       0.81250000 </v>
   <v>       0.06250000       0.81250000       0.81250000 </v>
   <v>       0.31250000       0.81250000       0.81250000 </v>
   <v>       0.56250000       0.81250000       0.81250000 </v>
   <v>       0.81250000       0.81250000       0.81250000 </v>
   <v>       0.00000000       0.00000000       0.00000000 </v>
   <v>       0.25000000       0.00000000       0.00000000 </v>
   <v>       0.49954284       0.99954284       0.00045716 </v>
   <v>       0.75000000       0.00000000       0.00000000 </v>
   <v>       0.00000000       0.25000000       0.00000000 </v>
   <v>       0.25000000       0.25000000       0.00000000 </v>
   <v>       0.50000000       0.25000000       0.00000000 </v>
   <v>       0.75000000       0.25000000       0.00000000 </v>
   <v>       0.00000000       0.50000000       0.00000000 </v>
   <v>       0.25000000       0.50000000       0.00000000 </v>
   <v>       0.50000000       0.50000000       0.00000000 </v>
   <v>       0.75000000       0.50000000       0.00000000 </v>
   <v>       0.00000000       0.75000000       0.00000000 </v>
   <v>       0.25000000       0.75000000       0.00000000 </v>
   <v>       0.50000000       0.75000000       0.00000000 </v>
   <v>       0.75000000       0.75000000       0.00000000 </v>
   <v>       0.00000000       0.00000000       0.25000000 </v>
   <v>       0.25000000       0.00000000       0.25000000 </v>
   <v>       0.50000000       0.00000000       0.25000000 </v>
   <v>       0.75000000       0.00000000       0.25000000 </v>
   <v>       0.00000000       0.25000000       0.25000000 </v>
   <v>       0.25000000       0.25000000       0.25000000 </v>
   <v>       0.50000000       0.25000000       0.25000000 </v>
   <v>       0.75000000       0.25000000       0.25000000 </v>
   <v>       0.00000000       0.50000000       0.25000000 </v>
   <v>       0.25000000       0.50000000       0.25000000 </v>
   <v>       0.50000000       0.50000000       0.25000000 </v>
   <v>       0.75000000       0.50000000       0.25000000 </v>
   <v>       0.00000000       0.75000000       0.25000000 </v>
   <v>       0.25000000       0.75000000       0.25000000 </v>
   <v>       0.50000000       0.75000000       0.25000000 </v>
   <v>       0.75000000       0.75000000       0.25000000 </v>
   <v>       0.00000000       0.00000000       0.50000000 </v>
   <v>       0.25000000       0.00000000       0.50000000 </v>
   <v>       0.50000000       0.00000000       0.50000000 </v>
   <v>       0.75000000       0.00000000       0.50000000 </v>
   <v>       0.00000000       0.25000000       0.50000000 </v>
   <v>       0.25000000       0.25000000       0.50000000 </v>
   <v>       0.50000000       0.25000000       0.50000000 </v>
   <v>       0.75000000       0.25000000       0.50000000 </v>
   <v>       0.00000000       0.50000000       0.50000000 </v>
   <v>       0.25000000       0.50000000       0.50000000 </v>
   <v>       0.50000000       0.50000000       0.50000000 </v>
   <v>       0.75000000       0.50000000       0.50000000 </v>
   <v>       0.00000000       0.75000000       0.50000000 </v>
   <v>       0.25000000       0.75000000       0.50000000 </v>
   <v>       0.50000000       0.75000000       0.50000000 </v>
   <v>       0.75000000       0.75000000       0.50000000 </v>
   <v>       0.00000000       0.00000000       0.75000000 </v>
   <v>       0.25000000       0.00000000       0.75000000 </v>
   <v>       0.50000000       0.00000000       0.75000000 </v>
   <v>       0.75000000       0.00000000       0.75000000 </v>
   <v>       0.00000000       0.25000000       0.75000000 </v>
   <v>       0.25000000       0.25000000       0.75000000 </v>
   <v>       0.50000000       0.25000000       0.75000000 </v>
   <v>       0.75000000       0.25000000       0.75000000 </v>
   <v>       0.00000000       0.50000000       0.75000000 </v>
   <v>       0.25000000       0.50000000       0.75000000 </v>
   <v>       0.50000000       0.50000000       0.75000000 </v>
   <v>       0.75000000       0.50000000       0.75000000 </v>
   <v>       0.00000000       0.75000000       0.75000000 </v>
   <v>       0.25000000       0.75000000       0.75000000 </v>
   <v>       0.50000000       0.75000000       0.75000000 </v>
   <v>       0.75000000       0.75000000       0.75000000 </v>
  </varray>
 </structure>
 <calculation>
  <scstep>
   <time name="dav">    4.78    4.79</time>
   <time name="total">    5.29    5.31</time>
   <energy>
    <i name="alphaZ">    210.78028765 </i>
    <i name="ewald"> -14524.86513590 </i>
    <i name="hartreedc">   -724.62061318 </i>
    <i name="XCdc">  -1195.83148081 </i>
    <i name="pawpsdc">   4221.13331941 </i>
    <i name="pawaedc">  -1969.18571412 </i>
    <i name="eentropy">     -0.01604822 </i>
    <i name="bandstr">   2165.00840423 </i>
    <i name="atom">  13192.48085998 </i>
    <i name="e_fr_energy">   1374.88387905 </i>
    <i name="e_wo_entrp">   1374.89992727 </i>
    <i name="e_0_energy">   1374.89190316 </i>
   </energy>
  </scstep>
  <scstep>
   <time name="dav">    5.41    5.42</time>
   <time name="total">    5.41    5.42</time>
   <energy>
    <i name="e_fr_energy">   -537.02140356 </i>
    <i name="e_wo_entrp">   -537.02140175 </i>
    <i name="e_0_energy">   -537.02140266 </i>
   </energy>
  </scstep>
  <scstep>
   <time name="dav">    5.45    5.46</time>
   <time name="total">    5.45    5.46</time>
   <energy>
    <i name="e_fr_energy">   -690.02356580 </i>
    <i name="e_wo_entrp">   -690.02356580 </i>
    <i name="e_0_energy">   -690.02356580 </i>
   </energy>
  </scstep>
  <scstep>
   <time name="dav">    5.35    5.37</time>
   <time name="total">    5.35    5.37</time>
   <energy>
    <i name="e_fr_energy">   -694.53323114 </i>
    <i name="e_wo_entrp">   -694.53323114 </i>
    <i name="e_0_energy">   -694.53323114 </i>
   </energy>
  </scstep>
  <scstep>
   <time name="dav">    5.38    5.39</time>
   <time name="total">    5.88    5.90</time>
   <energy>
    <i name="e_fr_energy">   -694.69983513 </i>
    <i name="e_wo_entrp">   -694.69983513 </i>
    <i name="e_0_energy">   -694.69983513 </i>
   </energy>
  </scstep>
  <scstep>
   <time name="dav">    4.98    4.99</time>
   <time name="total">    5.97    5.98</time>
   <energy>
    <i name="e_fr_energy">   -686.29979454 </i>
    <i name="e_wo_entrp">   -686.29979454 </i>
    <i name="e_0_energy">   -686.29979454 </i>
   </energy>
  </scstep>
  <scstep>
   <time name="dav">    4.92    4.93</time>
   <time name="total">    5.92    5.93</time>
   <energy>
    <i name="e_fr_energy">   -682.42697820 </i>
    <i name="e_wo_entrp">   -682.42697820 </i>
    <i name="e_0_energy">   -682.42697820 </i>
   </energy>
  </scstep>
  <scstep>
   <time name="dav">    5.01    5.02</time>
   <time name="total">    6.00    6.01</time>
   <energy>
    <i name="e_fr_energy">   -682.55908042 </i>
    <i name="e_wo_entrp">   -682.55908042 </i>
    <i name="e_0_energy">   -682.55908042 </i>
   </energy>
  </scstep>
  <scstep>
   <time name="dav">    5.45    5.46</time>
   <time name="total">    6.44    6.47</time>
   <energy>
    <i name="e_fr_energy">   -682.56549787 </i>
    <i name="e_wo_entrp">   -682.56549787 </i>
    <i name="e_0_energy">   -682.56549787 </i>
   </energy>
  </scstep>
  <scstep>
   <time name="dav">    4.98    5.00</time>
   <time name="total">    5.97    5.99</time>
   <energy>
    <i name="e_fr_energy">   -682.56818058 </i>
    <i name="e_wo_entrp">   -682.56818058 </i>
    <i name="e_0_energy">   -682.56818058 </i>
   </energy>
  </scstep>
  <scstep>
   <time name="dav">    5.36    5.37</time>
   <time name="total">    6.35    6.36</time>
   <energy>
    <i name="e_fr_energy">   -682.56819386 </i>
    <i name="e_wo_entrp">   -682.56819386 </i>
    <i name="e_0_energy">   -682.56819386 </i>
   </energy>
  </scstep>
  <scstep>
   <time name="dav">    5.36    5.37</time>
   <time name="total">    6.34    6.36</time>
   <energy>
    <i name="e_fr_energy">   -682.56819859 </i>
    <i name="e_wo_entrp">   -682.56819859 </i>
    <i name="e_0_energy">   -682.56819859 </i>
   </energy>
  </scstep>
  <scstep>
   <time name="dav">    5.33    5.34</time>
   <time name="total">    6.32    6.33</time>
   <energy>
    <i name="e_fr_energy">   -682.56819488 </i>
    <i name="e_wo_entrp">   -682.56819488 </i>
    <i name="e_0_energy">   -682.56819488 </i>
   </energy>
  </scstep>
  <scstep>
   <time name="dav">    5.26    5.30</time>
   <time name="total">    6.25    6.29</time>
   <energy>
    <i name="e_fr_energy">   -682.56819540 </i>
    <i name="e_wo_entrp">   -682.56819540 </i>
    <i name="e_0_energy">   -682.56819540 </i>
   </energy>
  </scstep>
  <scstep>
   <time name="dav">    4.12    4.13</time>
   <time name="total">    5.11    5.13</time>
   <energy>
    <i name="e_fr_energy">   -682.56819429 </i>
    <i name="e_wo_entrp">   -682.56819429 </i>
    <i name="e_0_energy">   -682.56819429 </i>
   </energy>
  </scstep>
  <scstep>
   <time name="dav">    3.24    3.25</time>
   <time name="total">    4.24    4.25</time>
   <energy>
    <i name="e_fr_energy">   -682.56819438 </i>
    <i name="e_wo_entrp">   -682.56819438 </i>
    <i name="e_0_energy">   -682.56819438 </i>
   </energy>
  </scstep>
  <scstep>
   <time name="dav">    3.21    3.21</time>
   <time name="total">    4.20    4.21</time>
   <energy>
    <i name="e_fr_energy">   -682.56819440 </i>
    <i name="e_wo_entrp">   -682.56819440 </i>
    <i name="e_0_energy">   -682.56819440 </i>
   </energy>
  </scstep>
  <scstep>
   <time name="dav">    3.20    3.21</time>
   <time name="total">    4.19    4.20</time>
   <energy>
    <i name="e_fr_energy">   -682.56819438 </i>
    <i name="e_wo_entrp">   -682.56819438 </i>
    <i name="e_0_energy">   -682.56819438 </i>
   </energy>
  </scstep>
  <scstep>
   <time name="dav">    3.21    3.22</time>
   <time name="total">    3.70    3.71</time>
   <energy>
    <i name="alphaZ">    210.78028765 </i>
    <i name="ewald"> -14524.86513590 </i>
    <i name="hartreedc">   -991.73333105 </i>
    <i name="XCdc">  -1153.28598525 </i>
    <i name="pawpsdc">   4723.40776003 </i>
    <i name="pawaedc">  -2485.14588748 </i>
    <i name="eentropy">     -0.00000000 </i>
    <i name="bandstr">    345.79323764 </i>
    <i name="atom">  13192.48085998 </i>
    <i name="e_fr_energy">   -682.56819438 </i>
    <i name="e_wo_entrp">   -682.56819438 </i>
    <i name="e_0_energy">   -682.56819438 </i>
   </energy>
  </scstep>
  <structure>
   <crystal>
    <varray name="basis" >
     <v>       0.00000000      10.93716070      10.93716070 </v>
     <v>      10.93716070       0.00000000      10.93716070 </v>
     <v>      10.93716070      10.93716070       0.00000000 </v>
    </varray>
    <i name="volume">   2616.63878844 </i>
    <varray name="rec_basis" >
     <v>      -0.04571570       0.04571570       0.04571570 </v>
     <v>       0.04571570      -0.04571570       0.04571570 </v>
     <v>       0.04571570       0.04571570      -0.04571570 </v>
    </varray>
   </crystal>
   <varray name="positions" >
    <v>       0.06295716       0.06295716       0.06204284 </v>
    <v>       0.31250000       0.06250000       0.06250000 </v>
    <v>       0.56250000       0.06250000       0.06250000 </v>
    <v>       0.81250000       0.06250000       0.06250000 </v>
    <v>       0.06250000       0.31250000       0.06250000 </v>
    <v>       0.31250000       0.31250000       0.06250000 </v>
    <v>       0.56250000       0.31250000       0.06250000 </v>
    <v>       0.81250000       0.31250000       0.06250000 </v>
    <v>       0.06250000       0.56250000       0.06250000 </v>
    <v>       0.31250000       0.56250000       0.06250000 </v>
    <v>       0.56250000       0.56250000       0.06250000 </v>
    <v>       0.81250000       0.56250000       0.06250000 </v>
    <v>       0.06250000       0.81250000       0.06250000 </v>
    <v>       0.31250000       0.81250000       0.06250000 </v>
    <v>       0.56250000       0.81250000       0.06250000 </v>
    <v>       0.81250000       0.81250000       0.06250000 </v>
    <v>       0.06250000       0.06250000       0.31250000 </v>
    <v>       0.31250000       0.06250000       0.31250000 </v>
    <v>       0.56250000       0.06250000       0.31250000 </v>
    <v>       0.81250000       0.06250000       0.31250000 </v>
    <v>       0.06250000       0.31250000       0.31250000 </v>
    <v>       0.31250000       0.31250000       0.31250000 </v>
    <v>       0.56250000       0.31250000       0.31250000 </v>
    <v>       0.81250000       0.31250000       0.31250000 </v>
    <v>       0.06250000       0.56250000       0.31250000 </v>
    <v>       0.31250000       0.56250000       0.31250000 </v>
    <v>       0.56250000       0.56250000       0.31250000 </v>
    <v>       0.81250000       0.56250000       0.31250000 </v>
    <v>       0.06250000       0.81250000       0.31250000 </v>
    <v>       0.31250000       0.81250000       0.31250000 </v>
    <v>       0.56250000       0.81250000       0.31250000 </v>
    <v>       0.81250000       0.81250000       0.31250000 </v>
    <v>       0.06250000       0.06250000       0.56250000 </v>
    <v>       0.31250000       0.06250000       0.56250000 </v>
    <v>       0.56250000       0.06250000       0.56250000 </v>
    <v>       0.81250000       0.06250000       0.56250000 </v>
    <v>       0.06250000       0.31250000       0.56250000 </v>
    <v>       0.31250000       0.31250000       0.56250000 </v>
    <v>       0.56250000       0.31250000       0.56250000 </v>
    <v>       0.81250000       0.31250000       0.56250000 </v>
    <v>       0.06250000       0.56250000       0.56250000 </v>
    <v>       0.31250000       0.56250000       0.56250000 </v>
    <v>       0.56250000       0.56250000       0.56250000 </v>
    <v>       0.81250000       0.56250000       0.56250000 </v>
    <v>       0.06250000       0.81250000       0.56250000 </v>
    <v>       0.31250000       0.81250000       0.56250000 </v>
    <v>       0.56250000       0.81250000       0.56250000 </v>
    <v>       0.81250000       0.81250000       0.56250000 </v>
    <v>       0.06250000       0.06250000       0.81250000 </v>
    <v>       0.31250000       0.06250000       0.81250000 </v>
    <v>       0.56250000       0.06250000       0.81250000 </v>
    <v>       0.81250000       0.06250000       0.81250000 </v>
    <v>       0.06250000       0.31250000       0.81250000 </v>
    <v>       0.31250000       0.31250000       0.81250000 </v>
    <v>       0.56250000       0.31250000       0.81250000 </v>
    <v>       0.81250000       0.31250000       0.81250000 </v>
    <v>       0.06250000       0.56250000       0.81250000 </v>
    <v>       0.31250000       0.56250000       0.81250000 </v>
    <v>       0.56250000       0.56250000       0.81250000 </v>
    <v>       0.81250000       0.56250000       0.81250000 </v>
    <v>       0.06250000       0.81250000       0.81250000 </v>
    <v>       0.31250000       0.81250000       0.81250000 </v>
    <v>       0.56250000       0.81250000       0.81250000 </v>
    <v>       0.81250000       0.81250000       0.81250000 </v>
    <v>       0.00000000       0.00000000       0.00000000 </v>
    <v>       0.25000000       0.00000000       0.00000000 </v>
    <v>       0.49954284       0.99954284       0.00045716 </v>
    <v>       0.75000000       0.00000000       0.00000000 </v>
    <v>       0.00000000       0.25000000       0.00000000 </v>
    <v>       0.25000000       0.25000000       0.00000000 </v>
    <v>       0.50000000       0.25000000       0.00000000 </v>
    <v>       0.75000000       0.25000000       0.00000000 </v>
    <v>       0.00000000       0.50000000       0.00000000 </v>
    <v>       0.25000000       0.50000000       0.00000000 </v>
    <v>       0.50000000       0.50000000       0.00000000 </v>
    <v>       0.75000000       0.50000000       0.00000000 </v>
    <v>       0.00000000       0.75000000       0.00000000 </v>
    <v>       0.25000000       0.75000000       0.00000000 </v>
    <v>       0.50000000       0.75000000       0.00000000 </v>
    <v>       0.75000000       0.75000000       0.00000000 </v>
    <v>       0.00000000       0.00000000       0.25000000 </v>
    <v>       0.25000000       0.00000000       0.25000000 </v>
    <v>       0.50000000       0.00000000       0.25000000 </v>
    <v>       0.75000000       0.00000000       0.25000000 </v>
    <v>       0.00000000       0.25000000       0.25000000 </v>
    <v>       0.25000000       0.25000000       0.25000000 </v>
    <v>       0.50000000       0.25000000       0.25000000 </v>
    <v>       0.75000000       0.25000000       0.25000000 </v>
    <v>       0.00000000       0.50000000       0.25000000 </v>
    <v>       0.25000000       0.50000000       0.25000000 </v>
    <v>       0.50000000       0.50000000       0.25000000 </v>
    <v>       0.75000000       0.50000000       0.25000000 </v>
    <v>       0.00000000       0.75000000       0.25000000 </v>
    <v>       0.25000000       0.75000000       0.25000000 </v>
    <v>       0.50000000       0.75000000       0.25000000 </v>
    <v>       0.75000000       0.75000000       0.25000000 </v>
    <v>       0.00000000       0.00000000       0.50000000 </v>
    <v>       0.25000000       0.00000000       0.50000000 </v>
    <v>       0.50000000       0.00000000       0.50000000 </v>
    <v>       0.75000000       0.00000000       0.50000000 </v>
    <v>       0.00000000       0.25000000       0.50000000 </v>
    <v>       0.25000000       0.25000000       0.50000000 </v>
    <v>       0.50000000       0.25000000       0.50000000 </v>
    <v>       0.75000000       0.25000000       0.50000000 </v>
    <v>       0.00000000       0.50000000       0.50000000 </v>
    <v>       0.25000000       0.50000000       0.50000000 </v>
    <v>       0.50000000       0.50000000       0.50000000 </v>
    <v>       0.75000000       0.50000000       0.50000000 </v>
    <v>       0.00000000       0.75000000       0.50000000 </v>
    <v>       0.25000000       0.75000000       0.50000000 </v>
    <v>       0.50000000       0.75000000       0.50000000 </v>
    <v>       0.75000000       0.75000000       0.50000000 </v>
    <v>       0.00000000       0.00000000       0.75000000 </v>
    <v>       0.25000000       0.00000000       0.75000000 </v>
    <v>       0.50000000       0.00000000       0.75000000 </v>
    <v>       0.75000000       0.00000000       0.75000000 </v>
    <v>       0.00000000       0.25000000       0.75000000 </v>
    <v>       0.25000000       0.25000000       0.75000000 </v>
    <v>       0.50000000       0.25000000       0.75000000 </v>
    <v>       0.75000000       0.25000000       0.75000000 </v>
    <v>       0.00000000       0.50000000       0.75000000 </v>
    <v>       0.25000000       0.50000000       0.75000000 </v>
    <v>       0.50000000       0.50000000       0.75000000 </v>
    <v>       0.75000000       0.50000000       0.75000000 </v>
    <v>       0.00000000       0.75000000       0.75000000 </v>
    <v>       0.25000000       0.75000000       0.75000000 </v>
    <v>       0.50000000       0.75000000       0.75000000 </v>
    <v>       0.75000000       0.75000000       0.75000000 </v>
   </varray>
  </structure>
  <varray name="forces" >
   <v>      -0.00047076      -0.00020042      -0.13052152 </v>
   <v>       0.01955569      -0.01848887      -0.03127799 </v>
   <v>      -0.01995075      -0.01957720      -0.03241860 </v>
   <v>       0.00142499       0.00182140       0.00136462 </v>
   <v>       0.00155947      -0.00048640      -0.00046784 </v>
   <v>       0.00054818       0.00055168       0.00029690 </v>
   <v>       0.00007599       0.00062237      -0.00010294 </v>
   <v>      -0.00057972       0.00134960      -0.00466889 </v>
   <v>       0.00052937       0.00015761       0.00022021 </v>
   <v>       0.00022958       0.00043082       0.00004910 </v>
   <v>      -0.00019867      -0.00047339      -0.00188884 </v>
   <v>       0.00068244      -0.00020277      -0.00194889 </v>
   <v>       0.00217646       0.00103039       0.00151559 </v>
   <v>       0.00130396      -0.00062344      -0.00484307 </v>
   <v>      -0.02024805       0.02072783      -0.03275298 </v>
   <v>       0.00049298       0.00048964       0.00029747 </v>
   <v>       0.00114351       0.00142187      -0.00512341 </v>
   <v>      -0.00061405       0.00048699       0.00035619 </v>
   <v>       0.00026504       0.00068178      -0.00199003 </v>
   <v>      -0.00240465      -0.00056569       0.00182073 </v>
   <v>       0.00017143      -0.00027802       0.00025981 </v>
   <v>      -0.00002181      -0.00000700       0.00025973 </v>
   <v>       0.00023733      -0.00065914       0.00035555 </v>
   <v>      -0.00038524      -0.00038553       0.00050273 </v>
   <v>       0.00023186      -0.00018459       0.00015245 </v>
   <v>      -0.00029420      -0.00012767       0.00016912 </v>
   <v>       0.00048669       0.00021000      -0.00008307 </v>
   <v>      -0.00000629       0.00000966       0.00024944 </v>
   <v>      -0.00092854      -0.00203990       0.00163586 </v>
   <v>      -0.00034079      -0.00034038       0.00032865 </v>
   <v>       0.00032522      -0.00034236       0.00034587 </v>
   <v>      -0.00000720      -0.00002185       0.00032150 </v>
   <v>      -0.00008012       0.00015676      -0.00172540 </v>
   <v>      -0.00030692       0.00042719       0.00018169 </v>
   <v>      -0.00084423      -0.00047314      -0.00189366 </v>
   <v>      -0.00001231      -0.00020265      -0.00010168 </v>
   <v>       0.00024573      -0.00012512       0.00020949 </v>
   <v>      -0.00020122      -0.00018620       0.00020251 </v>
   <v>      -0.00047458       0.00018393      -0.00011218 </v>
   <v>       0.00000920       0.00003398       0.00019063 </v>
   <v>      -0.00002238      -0.00039439       0.00024818 </v>
   <v>      -0.00017127      -0.00008089       0.00003936 </v>
   <v>       0.00015743      -0.00008054       0.00005770 </v>
   <v>       0.00003639      -0.00002581       0.00019953 </v>
   <v>       0.00019076      -0.00036790       0.00004936 </v>
   <v>       0.00003071       0.00000627       0.00022531 </v>
   <v>       0.00015595      -0.00014544       0.00017153 </v>
   <v>      -0.00012783      -0.00014253       0.00020369 </v>
   <v>      -0.00110574      -0.00086706      -0.00497025 </v>
   <v>      -0.00237160       0.00130795       0.00183781 </v>
   <v>       0.01979991       0.02009819      -0.03251723 </v>
   <v>      -0.00061414       0.00055170       0.00018164 </v>
   <v>       0.00096996      -0.00205638       0.00174077 </v>
   <v>      -0.00034343      -0.00034012       0.00041672 </v>
   <v>       0.00035573      -0.00034216       0.00017174 </v>
   <v>      -0.00002164      -0.00002213       0.00031644 </v>
   <v>      -0.00000956      -0.00030833       0.00012362 </v>
   <v>      -0.00001770       0.00003115       0.00019307 </v>
   <v>       0.00006814      -0.00016995       0.00007119 </v>
   <v>      -0.00029359      -0.00019991       0.00025948 </v>
   <v>       0.00022760      -0.00028925       0.00020285 </v>
   <v>      -0.00001891      -0.00001845       0.00035104 </v>
   <v>       0.00013631      -0.00060906       0.00035578 </v>
   <v>      -0.00034021      -0.00034342       0.00035390 </v>
   <v>       0.01995076       0.01957721       0.03241862 </v>
   <v>      -0.01955570       0.01848885       0.03127798 </v>
   <v>       0.00047074       0.00020043       0.13052153 </v>
   <v>      -0.00142501      -0.00182136      -0.00136460 </v>
   <v>       0.02024803      -0.02072780       0.03275296 </v>
   <v>      -0.00130396       0.00062344       0.00484307 </v>
   <v>      -0.00217646      -0.00103036      -0.00151558 </v>
   <v>      -0.00049297      -0.00048965      -0.00029745 </v>
   <v>       0.00019865       0.00047337       0.00188880 </v>
   <v>      -0.00022958      -0.00043082      -0.00004911 </v>
   <v>      -0.00052936      -0.00015762      -0.00022022 </v>
   <v>      -0.00068245       0.00020276       0.00194889 </v>
   <v>      -0.00007601      -0.00062236       0.00010294 </v>
   <v>      -0.00054818      -0.00055168      -0.00029688 </v>
   <v>      -0.00155947       0.00048638       0.00046783 </v>
   <v>       0.00057971      -0.00134960       0.00466887 </v>
   <v>      -0.01979993      -0.02009820       0.03251722 </v>
   <v>       0.00237164      -0.00130795      -0.00183783 </v>
   <v>       0.00110575       0.00086707       0.00497026 </v>
   <v>       0.00061414      -0.00055169      -0.00018162 </v>
   <v>      -0.00013630       0.00060905      -0.00035582 </v>
   <v>       0.00001891       0.00001846      -0.00035104 </v>
   <v>      -0.00022758       0.00028927      -0.00020283 </v>
   <v>       0.00034019       0.00034344      -0.00035391 </v>
   <v>      -0.00006816       0.00016993      -0.00007121 </v>
   <v>       0.00001771      -0.00003116      -0.00019307 </v>
   <v>       0.00000956       0.00030833      -0.00012363 </v>
   <v>       0.00029359       0.00019992      -0.00025948 </v>
   <v>      -0.00035572       0.00034219      -0.00017176 </v>
   <v>       0.00034343       0.00034011      -0.00041673 </v>
   <v>      -0.00096995       0.00205638      -0.00174079 </v>
   <v>       0.00002166       0.00002214      -0.00031643 </v>
   <v>       0.00084423       0.00047314       0.00189366 </v>
   <v>       0.00030689      -0.00042719      -0.00018168 </v>
   <v>       0.00008009      -0.00015676       0.00172541 </v>
   <v>       0.00001232       0.00020264       0.00010167 </v>
   <v>      -0.00015597       0.00014544      -0.00017154 </v>
   <v>      -0.00003069      -0.00000629      -0.00022527 </v>
   <v>      -0.00019077       0.00036789      -0.00004936 </v>
   <v>       0.00012784       0.00014252      -0.00020369 </v>
   <v>      -0.00015742       0.00008055      -0.00005771 </v>
   <v>       0.00017128       0.00008086      -0.00003936 </v>
   <v>       0.00002237       0.00039438      -0.00024820 </v>
   <v>      -0.00003639       0.00002584      -0.00019953 </v>
   <v>       0.00047458      -0.00018393       0.00011217 </v>
   <v>       0.00020121       0.00018618      -0.00020252 </v>
   <v>      -0.00024573       0.00012513      -0.00020948 </v>
   <v>      -0.00000919      -0.00003397      -0.00019064 </v>
   <v>      -0.00026508      -0.00068177       0.00199006 </v>
   <v>       0.00061407      -0.00048699      -0.00035619 </v>
   <v>      -0.00114350      -0.00142188       0.00512343 </v>
   <v>       0.00240464       0.00056567      -0.00182072 </v>
   <v>      -0.00032520       0.00034237      -0.00034587 </v>
   <v>       0.00034081       0.00034038      -0.00032863 </v>
   <v>       0.00092853       0.00203988      -0.00163586 </v>
   <v>       0.00000718       0.00002187      -0.00032149 </v>
   <v>      -0.00048669      -0.00021001       0.00008306 </v>
   <v>       0.00029421       0.00012765      -0.00016911 </v>
   <v>      -0.00023184       0.00018459      -0.00015243 </v>
   <v>       0.00000628      -0.00000965      -0.00024942 </v>
   <v>      -0.00023733       0.00065914      -0.00035556 </v>
   <v>       0.00002184       0.00000700      -0.00025971 </v>
   <v>      -0.00017141       0.00027801      -0.00025980 </v>
   <v>       0.00038523       0.00038553      -0.00050274 </v>
  </varray>
  <varray name="stress" >
   <v>       5.73278081      -0.10676800      -0.00000592 </v>
   <v>      -0.10676800       5.73278445       0.00001330 </v>
   <v>      -0.00000592       0.00001331       5.73070150 </v>
  </varray>
  <energy>
   <i name="e_fr_energy">   -682.56819438 </i>
   <i name="e_wo_entrp">   -682.56819438 </i>
   <i name="e_0_energy">     -0.00000000 </i>
  </energy>
  <time name="totalsc">  120.57  120.97</time>
  <eigenvalues>
   <array>
    <dimension dim="1">band</dimension>
    <dimension dim="2">kpoint</dimension>
    <dimension dim="3">spin</dimension>
    <field>eigene</field>
    <field>occ</field>
    <set>
     <set comment="spin 1">
      <set comment="kpoint 1">
       <r>   -6.1630    1.0000 </r>
       <r>   -5.3792    1.0000 </r>
       <r>   -5.3783    1.0000 </r>
       <r>   -5.3778    1.0000 </r>
       <r>   -5.3774    1.0000 </r>
       <r>   -5.3773    1.0000 </r>
       <r>   -5.3772    1.0000 </r>
       <r>   -5.3765    1.0000 </r>
       <r>   -5.3760    1.0000 </r>
       <r>   -5.1011    1.0000 </r>
       <r>   -5.0999    1.0000 </r>
       <r>   -5.0995    1.0000 </r>
       <r>   -5.0995    1.0000 </r>
       <r>   -5.0991    1.0000 </r>
       <r>   -5.0987    1.0000 </r>
       <r>   -4.1590    1.0000 </r>
       <r>   -4.1590    1.0000 </r>
       <r>   -4.1575    1.0000 </r>
       <r>   -4.1572    1.0000 </r>
       <r>   -4.1570    1.0000 </r>
       <r>   -4.1569    1.0000 </r>
       <r>   -4.1569    1.0000 </r>
       <r>   -4.1569    1.0000 </r>
       <r>   -4.1564    1.0000 </r>
       <r>   -4.1564    1.0000 </r>
       <r>   -4.1556    1.0000 </r>
       <r>   -4.1547    1.0000 </r>
       <r>   -3.8816    1.0000 </r>
       <r>   -3.8815    1.0000 </r>
       <r>   -3.8815    1.0000 </r>
       <r>   -3.8800    1.0000 </r>
       <r>   -3.5002    1.0000 </r>
       <r>   -3.5000    1.0000 </r>
       <r>   -3.4984    1.0000 </r>
       <r>   -3.4973    1.0000 </r>
       <r>   -3.4967    1.0000 </r>
       <r>   -3.4967    1.0000 </r>
       <r>   -3.4964    1.0000 </r>
       <r>   -3.4964    1.0000 </r>
       <r>   -3.4964    1.0000 </r>
       <r>   -3.4964    1.0000 </r>
       <r>   -3.4963    1.0000 </r>
       <r>   -3.4963    1.0000 </r>
       <r>   -3.4962    1.0000 </r>
       <r>   -3.4961    1.0000 </r>
       <r>   -3.4961    1.0000 </r>
       <r>   -3.4960    1.0000 </r>
       <r>   -3.4960    1.0000 </r>
       <r>   -3.4959    1.0000 </r>
       <r>   -3.4958    1.0000 </r>
       <r>   -3.4958    1.0000 </r>
       <r>   -3.4948    1.0000 </r>
       <r>   -3.4946    1.0000 </r>
       <r>   -3.4930    1.0000 </r>
       <r>   -3.4917    1.0000 </r>
       <r>   -2.0923    1.0000 </r>
       <r>   -2.0914    1.0000 </r>
       <r>   -2.0914    1.0000 </r>
       <r>   -2.0911    1.0000 </r>
       <r>   -2.0901    1.0000 </r>
       <r>   -2.0893    1.0000 </r>
       <r>   -1.9375    1.0000 </r>
       <r>   -1.9374    1.0000 </r>
       <r>   -1.9362    1.0000 </r>
       <r>   -1.9362    1.0000 </r>
       <r>   -1.9354    1.0000 </r>
       <r>   -1.9354    1.0000 </r>
       <r>   -1.9353    1.0000 </r>
       <r>   -1.9353    1.0000 </r>
       <r>   -1.9347    1.0000 </r>
       <r>   -1.9346    1.0000 </r>
       <r>   -1.9334    1.0000 </r>
       <r>   -1.9334    1.0000 </r>
       <r>   -1.2197    1.0000 </r>
       <r>   -1.2186    1.0000 </r>
       <r>   -1.2176    1.0000 </r>
       <r>   -1.2176    1.0000 </r>
       <r>   -0.6729    1.0000 </r>
       <r>   -0.6719    1.0000 </r>
       <r>   -0.6716    1.0000 </r>
       <r>   -0.6699    1.0000 </r>
       <r>   -0.6691    1.0000 </r>
       <r>   -0.6690    1.0000 </r>
       <r>   -0.6689    1.0000 </r>
       <r>   -0.6689    1.0000 </r>
       <r>   -0.6688    1.0000 </r>
       <r>   -0.6687    1.0000 </r>
       <r>   -0.6687    1.0000 </r>
       <r>   -0.6687    1.0000 </r>
       <r>   -0.6686    1.0000 </r>
       <r>   -0.6686    1.0000 </r>
       <r>   -0.6685    1.0000 </r>
       <r>   -0.6685    1.0000 </r>
       <r>   -0.6684    1.0000 </r>
       <r>   -0.6683    1.0000 </r>
       <r>   -0.6682    1.0000 </r>
       <r>   -0.6682    1.0000 </r>
       <r>   -0.6668    1.0000 </r>
       <r>   -0.6661    1.0000 </r>
       <r>   -0.6655    1.0000 </r>
       <r>   -0.6645    1.0000 </r>
       <r>    0.2145    1.0000 </r>
       <r>    0.2148    1.0000 </r>
       <r>    0.2160    1.0000 </r>
       <r>    0.2161    1.0000 </r>
       <r>    0.2167    1.0000 </r>
       <r>    0.2167    1.0000 </r>
       <r>    0.2168    1.0000 </r>
       <r>    0.2169    1.0000 </r>
       <r>    0.2174    1.0000 </r>
       <r>    0.2176    1.0000 </r>
       <r>    0.2186    1.0000 </r>
       <r>    0.2187    1.0000 </r>
       <r>    1.7669    1.0000 </r>
       <r>    1.7669    1.0000 </r>
       <r>    1.7673    1.0000 </r>
       <r>    1.7676    1.0000 </r>
       <r>    1.7680    1.0000 </r>
       <r>    1.7683    1.0000 </r>
       <r>    1.7687    1.0000 </r>
       <r>    1.7689    1.0000 </r>
       <r>    1.8847    1.0000 </r>
       <r>    1.8848    1.0000 </r>
       <r>    1.8856    1.0000 </r>
       <r>    1.8858    1.0000 </r>
       <r>    1.8859    1.0000 </r>
       <r>    1.8860    1.0000 </r>
       <r>    1.8861    1.0000 </r>
       <r>    1.8861    1.0000 </r>
       <r>    1.8863    1.0000 </r>
       <r>    1.8865    1.0000 </r>
       <r>    1.8871    1.0000 </r>
       <r>    1.8871    1.0000 </r>
       <r>    1.9778    1.0000 </r>
       <r>    1.9779    1.0000 </r>
       <r>    1.9782    1.0000 </r>
       <r>    1.9784    1.0000 </r>
       <r>    1.9785    1.0000 </r>
       <r>    1.9788    1.0000 </r>
       <r>    1.9791    1.0000 </r>
       <r>    1.9792    1.0000 </r>
       <r>    1.9795    1.0000 </r>
       <r>    1.9795    1.0000 </r>
       <r>    1.9798    1.0000 </r>
       <r>    1.9799    1.0000 </r>
       <r>    2.1401    1.0000 </r>
       <r>    2.1403    1.0000 </r>
       <r>    2.1409    1.0000 </r>
       <r>    2.1415    1.0000 </r>
       <r>    2.1418    1.0000 </r>
       <r>    2.1419    1.0000 </r>
       <r>    2.1843    1.0000 </r>
       <r>    2.1843    1.0000 </r>
       <r>    2.1853    1.0000 </r>
       <r>    2.1854    1.0000 </r>
       <r>    2.1863    1.0000 </r>
       <r>    2.1865    1.0000 </r>
       <r>    2.1866    1.0000 </r>
       <r>    2.1866    1.0000 </r>
       <r>    2.1867    1.0000 </r>
       <r>    2.1867    1.0000 </r>
       <r>    2.1867    1.0000 </r>
       <r>    2.1868    1.0000 </r>
       <r>    2.1869    1.0000 </r>
       <r>    2.1870    1.0000 </r>
       <r>    2.1870    1.0000 </r>
       <r>    2.1871    1.0000 </r>
       <r>    2.1872    1.0000 </r>
       <r>    2.1873    1.0000 </r>
       <r>    2.1876    1.0000 </r>
       <r>    2.1878    1.0000 </r>
       <r>    2.1882    1.0000 </r>
       <r>    2.1887    1.0000 </r>
       <r>    2.1892    1.0000 </r>
       <r>    2.1899    1.0000 </r>
       <r>    2.8559    1.0000 </r>
       <r>    2.8564    1.0000 </r>
       <r>    2.8565    1.0000 </r>
       <r>    2.8567    1.0000 </r>
       <r>    2.8569    1.0000 </r>
       <r>    2.8573    1.0000 </r>
       <r>    3.4890    1.0000 </r>
       <r>    3.4908    1.0000 </r>
       <r>    3.4914    1.0000 </r>
       <r>    3.4914    1.0000 </r>
       <r>    3.4919    1.0000 </r>
       <r>    3.4920    1.0000 </r>
       <r>    3.4922    1.0000 </r>
       <r>    3.4922    1.0000 </r>
       <r>    3.4924    1.0000 </r>
       <r>    3.4924    1.0000 </r>
       <r>    3.4924    1.0000 </r>
       <r>    3.4924    1.0000 </r>
       <r>    3.4926    1.0000 </r>
       <r>    3.4926    1.0000 </r>
       <r>    3.4927    1.0000 </r>
       <r>    3.4928    1.0000 </r>
       <r>    3.4928    1.0000 </r>
       <r>    3.4929    1.0000 </r>
       <r>    3.4929    1.0000 </r>
       <r>    3.4930    1.0000 </r>
       <r>    3.4938    1.0000 </r>
       <r>    3.4938    1.0000 </r>
       <r>    3.4950    1.0000 </r>
       <r>    3.4951    1.0000 </r>
       <r>    3.8020    1.0000 </r>
       <r>    3.8028    1.0000 </r>
       <r>    3.8032    1.0000 </r>
       <r>    3.8037    1.0000 </r>
       <r>    3.8038    1.0000 </r>
       <r>    3.8038    1.0000 </r>
       <r>    3.8038    1.0000 </r>
       <r>    3.8039    1.0000 </r>
       <r>    3.8039    1.0000 </r>
       <r>    3.8041    1.0000 </r>
       <r>    3.8046    1.0000 </r>
       <r>    3.8063    1.0000 </r>
       <r>    4.3513    1.0000 </r>
       <r>    4.3513    1.0000 </r>
       <r>    4.3519    1.0000 </r>
       <r>    4.3520    1.0000 </r>
       <r>    4.3525    1.0000 </r>
       <r>    4.3529    1.0000 </r>
       <r>    4.3529    1.0000 </r>
       <r>    4.3529    1.0000 </r>
       <r>    4.3534    1.0000 </r>
       <r>    4.3535    1.0000 </r>
       <r>    4.3537    1.0000 </r>
       <r>    4.3555    1.0000 </r>
       <r>    4.4763    1.0000 </r>
       <r>    4.4767    1.0000 </r>
       <r>    4.4770    1.0000 </r>
       <r>    4.4774    1.0000 </r>
       <r>    4.4776    1.0000 </r>
       <r>    4.4781    1.0000 </r>
       <r>    4.4783    1.0000 </r>
       <r>    4.4801    1.0000 </r>
       <r>    4.9076    1.0000 </r>
       <r>    4.9098    1.0000 </r>
       <r>    4.9113    1.0000 </r>
       <r>    4.9114    1.0000 </r>
       <r>    4.9114    1.0000 </r>
       <r>    4.9114    1.0000 </r>
       <r>    4.9116    1.0000 </r>
       <r>    4.9117    1.0000 </r>
       <r>    4.9118    1.0000 </r>
       <r>    4.9119    1.0000 </r>
       <r>    4.9121    1.0000 </r>
       <r>    4.9121    1.0000 </r>
       <r>    4.9122    1.0000 </r>
       <r>    4.9125    1.0000 </r>
       <r>    4.9148    1.0000 </r>
       <r>    4.9150    1.0000 </r>
       <r>    5.6589    1.0000 </r>
       <r>    5.6604    1.0000 </r>
       <r>    5.6619    1.0000 </r>
       <r>    6.3941    0.0000 </r>
       <r>    6.3944    0.0000 </r>
       <r>    6.3946    0.0000 </r>
       <r>    6.3958    0.0000 </r>
       <r>    6.3958    0.0000 </r>
       <r>    6.3959    0.0000 </r>
       <r>    6.7957    0.0000 </r>
       <r>    6.7957    0.0000 </r>
       <r>    6.7959    0.0000 </r>
       <r>    6.7962    0.0000 </r>
       <r>    6.7968    0.0000 </r>
       <r>    6.7973    0.0000 </r>
       <r>    7.1206    0.0000 </r>
       <r>    7.1206    0.0000 </r>
       <r>    7.1210    0.0000 </r>
       <r>    7.1212    0.0000 </r>
       <r>    7.1826    0.0000 </r>
       <r>    7.1828    0.0000 </r>
       <r>    7.1845    0.0000 </r>
       <r>    7.1848    0.0000 </r>
       <r>    7.1856    0.0000 </r>
       <r>    7.1857    0.0000 </r>
       <r>    7.1857    0.0000 </r>
       <r>    7.1858    0.0000 </r>
       <r>    7.1858    0.0000 </r>
       <r>    7.1858    0.0000 </r>
       <r>    7.1859    0.0000 </r>
       <r>    7.1860    0.0000 </r>
       <r>    7.1860    0.0000 </r>
       <r>    7.1861    0.0000 </r>
       <r>    7.1861    0.0000 </r>
       <r>    7.1862    0.0000 </r>
       <r>    7.1862    0.0000 </r>
       <r>    7.1862    0.0000 </r>
       <r>    7.1863    0.0000 </r>
       <r>    7.1863    0.0000 </r>
       <r>    7.1876    0.0000 </r>
       <r>    7.1881    0.0000 </r>
       <r>    7.1885    0.0000 </r>
       <r>    7.1892    0.0000 </r>
       <r>    7.6112    0.0000 </r>
       <r>    7.6116    0.0000 </r>
       <r>    7.6118    0.0000 </r>
       <r>    7.6120    0.0000 </r>
       <r>    7.6123    0.0000 </r>
       <r>    7.6125    0.0000 </r>
       <r>    7.6131    0.0000 </r>
       <r>    7.6132    0.0000 </r>
       <r>    8.0816    0.0000 </r>
       <r>    8.0817    0.0000 </r>
       <r>    8.0820    0.0000 </r>
       <r>    8.0822    0.0000 </r>
       <r>    8.0827    0.0000 </r>
       <r>    8.0829    0.0000 </r>
       <r>    8.0829    0.0000 </r>
       <r>    8.0831    0.0000 </r>
       <r>    8.0831    0.0000 </r>
       <r>    8.0838    0.0000 </r>
       <r>    8.0841    0.0000 </r>
       <r>    8.0851    0.0000 </r>
       <r>    8.1984    0.0000 </r>
       <r>    8.1993    0.0000 </r>
       <r>    8.2002    0.0000 </r>
       <r>    8.7789    0.0000 </r>
       <r>    8.7791    0.0000 </r>
       <r>    8.7873    0.0000 </r>
      </set>
     </set>
    </set>
   </array>
  </eigenvalues>
  <separator name="orbital magnetization" >
   <v name="MAGDIPOLOUT">      0.00000000      0.00000000      0.00000000</v>
  </separator>
  <dos>
   <i name="efermi">      5.92030007 </i>
   <total>
    <array>
     <dimension dim="1">gridpoints</dimension>
     <dimension dim="2">spin</dimension>
     <field>energy</field>
     <field>total</field>
     <field>integrated</field>
     <set>
      <set comment="spin 1">
       <r>    -6.9105     0.0000     0.0000 </r>
       <r>    -6.8557     0.0000     0.0000 </r>
       <r>    -6.8009     0.0000     0.0000 </r>
       <r>    -6.7461     0.0000     0.0000 </r>
       <r>    -6.6913     0.0000     0.0000 </r>
       <r>    -6.6364     0.0000     0.0000 </r>
       <r>    -6.5816     0.0000     0.0000 </r>
       <r>    -6.5268     0.0000     0.0000 </r>
       <r>    -6.4720     0.0000     0.0000 </r>
       <r>    -6.4172     0.0000     0.0000 </r>
       <r>    -6.3624     0.0000     0.0000 </r>
       <r>    -6.3075     0.0008     0.0000 </r>
       <r>    -6.2527     0.2031     0.0112 </r>
       <r>    -6.1979     5.7030     0.3238 </r>
       <r>    -6.1431    20.1269     1.4271 </r>
       <r>    -6.0883     9.8214     1.9655 </r>
       <r>    -6.0334     0.6247     1.9998 </r>
       <r>    -5.9786     0.0045     2.0000 </r>
       <r>    -5.9238     0.0000     2.0000 </r>
       <r>    -5.8690     0.0000     2.0000 </r>
       <r>    -5.8142     0.0000     2.0000 </r>
       <r>    -5.7594     0.0000     2.0000 </r>
       <r>    -5.7045     0.0000     2.0000 </r>
       <r>    -5.6497     0.0000     2.0000 </r>
       <r>    -5.5949     0.0000     2.0000 </r>
       <r>    -5.5401     0.0006     2.0000 </r>
       <r>    -5.4853     0.3359     2.0184 </r>
       <r>    -5.4305    19.2466     3.0735 </r>
       <r>    -5.3756   132.4262    10.3328 </r>
       <r>    -5.3208   123.9400    17.1270 </r>
       <r>    -5.2660    15.6894    17.9870 </r>
       <r>    -5.2112     0.4121    18.0096 </r>
       <r>    -5.1564    11.7233    18.6523 </r>
       <r>    -5.1015    92.8526    23.7423 </r>
       <r>    -5.0467    99.4243    29.1925 </r>
       <r>    -4.9919    14.4767    29.9861 </r>
       <r>    -4.9371     0.2530    30.0000 </r>
       <r>    -4.8823     0.0005    30.0000 </r>
       <r>    -4.8275     0.0000    30.0000 </r>
       <r>    -4.7726     0.0000    30.0000 </r>
       <r>    -4.7178     0.0000    30.0000 </r>
       <r>    -4.6630     0.0000    30.0000 </r>
       <r>    -4.6082     0.0000    30.0000 </r>
       <r>    -4.5534     0.0000    30.0000 </r>
       <r>    -4.4985     0.0000    30.0000 </r>
       <r>    -4.4437     0.0000    30.0000 </r>
       <r>    -4.3889     0.0000    30.0000 </r>
       <r>    -4.3341     0.0001    30.0000 </r>
       <r>    -4.2793     0.1192    30.0065 </r>
       <r>    -4.2245    12.2268    30.6768 </r>
       <r>    -4.1696   145.2900    38.6413 </r>
       <r>    -4.1148   229.0550    51.1976 </r>
       <r>    -4.0600    49.7803    53.9265 </r>
       <r>    -4.0052     1.3702    54.0016 </r>
       <r>    -3.9504     3.6474    54.2015 </r>
       <r>    -3.8955    46.2627    56.7376 </r>
       <r>    -3.8407    77.5561    60.9890 </r>
       <r>    -3.7859    17.9268    61.9718 </r>
       <r>    -3.7311     0.5137    61.9999 </r>
       <r>    -3.6763     0.0018    62.0000 </r>
       <r>    -3.6215     0.1766    62.0097 </r>
       <r>    -3.5666    20.2665    63.1207 </r>
       <r>    -3.5118   268.3390    77.8305 </r>
       <r>    -3.4570   469.5961   103.5728 </r>
       <r>    -3.4022   113.7922   109.8106 </r>
       <r>    -3.3474     3.4430   109.9994 </r>
       <r>    -3.2925     0.0114   110.0000 </r>
       <r>    -3.2377     0.0000   110.0000 </r>
       <r>    -3.1829     0.0000   110.0000 </r>
       <r>    -3.1281     0.0000   110.0000 </r>
       <r>    -3.0733     0.0000   110.0000 </r>
       <r>    -3.0185     0.0000   110.0000 </r>
       <r>    -2.9636     0.0000   110.0000 </r>
       <r>    -2.9088     0.0000   110.0000 </r>
       <r>    -2.8540     0.0000   110.0000 </r>
       <r>    -2.7992     0.0000   110.0000 </r>
       <r>    -2.7444     0.0000   110.0000 </r>
       <r>    -2.6896     0.0000   110.0000 </r>
       <r>    -2.6347     0.0000   110.0000 </r>
       <r>    -2.5799     0.0000   110.0000 </r>
       <r>    -2.5251     0.0000   110.0000 </r>
       <r>    -2.4703     0.0000   110.0000 </r>
       <r>    -2.4155     0.0000   110.0000 </r>
       <r>    -2.3606     0.0000   110.0000 </r>
       <r>    -2.3058     0.0000   110.0000 </r>
       <r>    -2.2510     0.0007   110.0000 </r>
       <r>    -2.1962     0.3193   110.0175 </r>
       <r>    -2.1414    16.5289   110.9236 </r>
       <r>    -2.0866   103.4203   116.5929 </r>
       <r>    -2.0317    89.7490   121.5128 </r>
       <r>    -1.9769    61.3925   124.8782 </r>
       <r>    -1.9221   230.5139   137.5145 </r>
       <r>    -1.8673   142.9292   145.3496 </r>
       <r>    -1.8125    11.7529   145.9939 </r>
       <r>    -1.7576     0.1118   146.0000 </r>
       <r>    -1.7028     0.0001   146.0000 </r>
       <r>    -1.6480     0.0000   146.0000 </r>
       <r>    -1.5932     0.0000   146.0000 </r>
       <r>    -1.5384     0.0000   146.0000 </r>
       <r>    -1.4836     0.0000   146.0000 </r>
       <r>    -1.4287     0.0000   146.0000 </r>
       <r>    -1.3739     0.0008   146.0000 </r>
       <r>    -1.3191     0.3211   146.0176 </r>
       <r>    -1.2643    13.8780   146.7784 </r>
       <r>    -1.2095    73.3400   150.7988 </r>
       <r>    -1.1546    53.1883   153.7144 </r>
       <r>    -1.0998     5.1510   153.9968 </r>
       <r>    -1.0450     0.0583   154.0000 </r>
       <r>    -0.9902     0.0001   154.0000 </r>
       <r>    -0.9354     0.0000   154.0000 </r>
       <r>    -0.8806     0.0000   154.0000 </r>
       <r>    -0.8257     0.0040   154.0002 </r>
       <r>    -0.7709     1.6849   154.0926 </r>
       <r>    -0.7161    77.0642   158.3171 </r>
       <r>    -0.6613   430.9725   181.9421 </r>
       <r>    -0.6065   331.2599   200.1011 </r>
       <r>    -0.5516    34.2226   201.9771 </r>
       <r>    -0.4968     0.4163   202.0000 </r>
       <r>    -0.4420     0.0005   202.0000 </r>
       <r>    -0.3872     0.0000   202.0000 </r>
       <r>    -0.3324     0.0000   202.0000 </r>
       <r>    -0.2776     0.0000   202.0000 </r>
       <r>    -0.2227     0.0000   202.0000 </r>
       <r>    -0.1679     0.0000   202.0000 </r>
       <r>    -0.1131     0.0000   202.0000 </r>
       <r>    -0.0583     0.0000   202.0000 </r>
       <r>    -0.0035     0.0000   202.0000 </r>
       <r>     0.0513     0.0006   202.0000 </r>
       <r>     0.1062     0.3880   202.0213 </r>
       <r>     0.1610    24.7974   203.3807 </r>
       <r>     0.2158   189.1215   213.7479 </r>
       <r>     0.2706   195.5497   224.4676 </r>
       <r>     0.3254    27.4909   225.9746 </r>
       <r>     0.3803     0.4634   226.0000 </r>
       <r>     0.4351     0.0008   226.0000 </r>
       <r>     0.4899     0.0000   226.0000 </r>
       <r>     0.5447     0.0000   226.0000 </r>
       <r>     0.5995     0.0000   226.0000 </r>
       <r>     0.6543     0.0000   226.0000 </r>
       <r>     0.7092     0.0000   226.0000 </r>
       <r>     0.7640     0.0000   226.0000 </r>
       <r>     0.8188     0.0000   226.0000 </r>
       <r>     0.8736     0.0000   226.0000 </r>
       <r>     0.9284     0.0000   226.0000 </r>
       <r>     0.9833     0.0000   226.0000 </r>
       <r>     1.0381     0.0000   226.0000 </r>
       <r>     1.0929     0.0000   226.0000 </r>
       <r>     1.1477     0.0000   226.0000 </r>
       <r>     1.2025     0.0000   226.0000 </r>
       <r>     1.2573     0.0000   226.0000 </r>
       <r>     1.3122     0.0000   226.0000 </r>
       <r>     1.3670     0.0000   226.0000 </r>
       <r>     1.4218     0.0000   226.0000 </r>
       <r>     1.4766     0.0000   226.0000 </r>
       <r>     1.5314     0.0000   226.0000 </r>
       <r>     1.5863     0.0000   226.0000 </r>
       <r>     1.6411     0.0493   226.0027 </r>
       <r>     1.6959     6.0686   226.3354 </r>
       <r>     1.7507    85.6013   231.0279 </r>
       <r>     1.8055   163.3644   239.9832 </r>
       <r>     1.8603   138.1645   247.5571 </r>
       <r>     1.9152   262.4616   261.9447 </r>
       <r>     1.9700   245.5413   275.4048 </r>
       <r>     2.0248   223.8492   287.6757 </r>
       <r>     2.0796    51.4909   290.4984 </r>
       <r>     2.1344   144.3914   298.4136 </r>
       <r>     2.1893   507.2110   326.2179 </r>
       <r>     2.2441   386.9137   347.4277 </r>
       <r>     2.2989    46.2430   349.9627 </r>
       <r>     2.3537     0.6798   349.9999 </r>
       <r>     2.4085     0.0011   350.0000 </r>
       <r>     2.4633     0.0000   350.0000 </r>
       <r>     2.5182     0.0000   350.0000 </r>
       <r>     2.5730     0.0000   350.0000 </r>
       <r>     2.6278     0.0000   350.0000 </r>
       <r>     2.6826     0.0001   350.0000 </r>
       <r>     2.7374     0.0820   350.0045 </r>
       <r>     2.7922     7.4399   350.4123 </r>
       <r>     2.8471    78.6467   354.7236 </r>
       <r>     2.9019   110.8069   360.7978 </r>
       <r>     2.9567    21.4226   361.9721 </r>
       <r>     3.0115     0.5068   361.9999 </r>
       <r>     3.0663     0.0013   362.0000 </r>
       <r>     3.1212     0.0000   362.0000 </r>
       <r>     3.1760     0.0000   362.0000 </r>
       <r>     3.2308     0.0000   362.0000 </r>
       <r>     3.2856     0.0000   362.0000 </r>
       <r>     3.3404     0.0075   362.0004 </r>
       <r>     3.3952     2.6051   362.1432 </r>
       <r>     3.4501    98.1401   367.5231 </r>
       <r>     3.5049   456.7162   392.5593 </r>
       <r>     3.5597   292.9590   408.6187 </r>
       <r>     3.6145    24.9504   409.9865 </r>
       <r>     3.6693     0.2777   410.0017 </r>
       <r>     3.7242     5.2809   410.2912 </r>
       <r>     3.7790   100.2151   415.7848 </r>
       <r>     3.8338   245.3702   429.2355 </r>
       <r>     3.8886    83.2948   433.8015 </r>
       <r>     3.9434     3.6031   433.9990 </r>
       <r>     3.9982     0.0173   434.0000 </r>
       <r>     4.0531     0.0000   434.0000 </r>
       <r>     4.1079     0.0000   434.0000 </r>
       <r>     4.1627     0.0000   434.0000 </r>
       <r>     4.2175     0.0286   434.0016 </r>
       <r>     4.2723     4.9822   434.2747 </r>
       <r>     4.3272    97.4713   439.6179 </r>
       <r>     4.3820   246.6127   453.1367 </r>
       <r>     4.4368   120.9690   459.7680 </r>
       <r>     4.4916   158.2800   468.4445 </r>
       <r>     4.5464    93.7478   473.5836 </r>
       <r>     4.6012     7.5260   473.9962 </r>
       <r>     4.6561     0.0698   474.0000 </r>
       <r>     4.7109     0.0001   474.0000 </r>
       <r>     4.7657     0.0107   474.0006 </r>
       <r>     4.8205     2.8832   474.1586 </r>
       <r>     4.8753    85.5512   478.8484 </r>
       <r>     4.9302   319.0560   496.3384 </r>
       <r>     4.9850   164.9634   505.3814 </r>
       <r>     5.0398    11.1983   505.9952 </r>
       <r>     5.0946     0.0871   506.0000 </r>
       <r>     5.1494     0.0001   506.0000 </r>
       <r>     5.2042     0.0000   506.0000 </r>
       <r>     5.2591     0.0000   506.0000 </r>
       <r>     5.3139     0.0000   506.0000 </r>
       <r>     5.3687     0.0000   506.0000 </r>
       <r>     5.4235     0.0000   506.0000 </r>
       <r>     5.4783     0.0000   506.0000 </r>
       <r>     5.5331     0.0175   506.0010 </r>
       <r>     5.5880     2.1993   506.1215 </r>
       <r>     5.6428    31.5934   507.8534 </r>
       <r>     5.6976    59.5837   511.1197 </r>
       <r>     5.7524    15.5492   511.9720 </r>
       <r>     5.8072     0.5081   511.9999 </r>
       <r>     5.8621     0.0018   512.0000 </r>
       <r>     5.9169     0.0000   512.0000 </r>
       <r>     5.9717     0.0000   512.0000 </r>
       <r>     6.0265     0.0000   512.0000 </r>
       <r>     6.0813     0.0000   512.0000 </r>
       <r>     6.1361     0.0000   512.0000 </r>
       <r>     6.1910     0.0000   512.0000 </r>
       <r>     6.2458     0.0026   512.0001 </r>
       <r>     6.3006     0.8205   512.0451 </r>
       <r>     6.3554    27.8029   513.5692 </r>
       <r>     6.4102   117.0431   519.9853 </r>
       <r>     6.4651    67.9848   523.7121 </r>
       <r>     6.5199     5.2064   523.9975 </r>
       <r>     6.5747     0.0459   524.0000 </r>
       <r>     6.6295     0.0003   524.0000 </r>
       <r>     6.6843     0.1693   524.0093 </r>
       <r>     6.7391    11.4639   524.6377 </r>
       <r>     6.7940    92.1598   529.6897 </r>
       <r>     6.8488   100.0700   535.1754 </r>
       <r>     6.9036    14.7803   535.9856 </r>
       <r>     6.9584     0.2625   536.0000 </r>
       <r>     7.0132     0.1713   536.0094 </r>
       <r>     7.0681    10.0862   536.5623 </r>
       <r>     7.1229    98.6335   541.9692 </r>
       <r>     7.1777   385.7116   563.1131 </r>
       <r>     7.2325   444.2245   587.4646 </r>
       <r>     7.2873    80.9018   591.8995 </r>
       <r>     7.3421     1.8294   591.9998 </r>
       <r>     7.3970     0.0045   592.0000 </r>
       <r>     7.4518     0.0008   592.0000 </r>
       <r>     7.5066     0.4099   592.0225 </r>
       <r>     7.5614    21.5801   593.2055 </r>
       <r>     7.6162   137.0892   600.7204 </r>
       <r>     7.6710   118.7489   607.2300 </r>
       <r>     7.7259    13.8547   607.9895 </r>
       <r>     7.7807     0.1911   608.0000 </r>
       <r>     7.8355     0.0003   608.0000 </r>
       <r>     7.8903     0.0000   608.0000 </r>
       <r>     7.9451     0.0214   608.0012 </r>
       <r>     8.0000     4.1325   608.2277 </r>
       <r>     8.0548    89.0946   613.1117 </r>
       <r>     8.1096   246.4495   626.6216 </r>
       <r>     8.1644   111.1605   632.7152 </r>
       <r>     8.2192    64.9839   636.2775 </r>
       <r>     8.2740    29.5283   637.8961 </r>
       <r>     8.3289     1.8811   637.9993 </r>
       <r>     8.3837     0.0136   638.0000 </r>
       <r>     8.4385     0.0000   638.0000 </r>
       <r>     8.4933     0.0000   638.0000 </r>
       <r>     8.5481     0.0000   638.0000 </r>
       <r>     8.6030     0.0000   638.0000 </r>
       <r>     8.6578     0.0266   638.0015 </r>
       <r>     8.7126     2.8054   638.1552 </r>
       <r>     8.7674    34.7360   640.0594 </r>
       <r>     8.8222    57.9023   643.2335 </r>
       <r>     8.8770    13.5765   643.9777 </r>
       <r>     8.9319     0.4049   643.9999 </r>
       <r>     8.9867     0.0014   644.0000 </r>
       <r>     9.0415     0.0000   644.0000 </r>
       <r>     9.0963     0.0000   644.0000 </r>
       <r>     9.1511     0.0000   644.0000 </r>
       <r>     9.2060     0.0000   644.0000 </r>
       <r>     9.2608     0.0000   644.0000 </r>
       <r>     9.3156     0.0000   644.0000 </r>
       <r>     9.3704     0.0000   644.0000 </r>
       <r>     9.4252     0.0000   644.0000 </r>
       <r>     9.4800     0.0000   644.0000 </r>
       <r>     9.5349     0.0000   644.0000 </r>
      </set>
     </set>
    </array>
   </total>
  </dos>
 </calculation>
 <structure name="finalpos" >
  <crystal>
   <varray name="basis" >
    <v>       0.00000000      10.93716070      10.93716070 </v>
    <v>      10.93716070       0.00000000      10.93716070 </v>
    <v>      10.93716070      10.93716070       0.00000000 </v>
   </varray>
   <i name="volume">   2616.63878844 </i>
   <varray name="rec_basis" >
    <v>      -0.04571570       0.04571570       0.04571570 </v>
    <v>       0.04571570      -0.04571570       0.04571570 </v>
    <v>       0.04571570       0.04571570      -0.04571570 </v>
   </varray>
  </crystal>
  <varray name="positions" >
   <v>       0.06295716       0.06295716       0.06204284 </v>
   <v>       0.31250000       0.06250000       0.06250000 </v>
   <v>       0.56250000       0.06250000       0.06250000 </v>
   <v>       0.81250000       0.06250000       0.06250000 </v>
   <v>       0.06250000       0.31250000       0.06250000 </v>
   <v>       0.31250000       0.31250000       0.06250000 </v>
   <v>       0.56250000       0.31250000       0.06250000 </v>
   <v>       0.81250000       0.31250000       0.06250000 </v>
   <v>       0.06250000       0.56250000       0.06250000 </v>
   <v>       0.31250000       0.56250000       0.06250000 </v>
   <v>       0.56250000       0.56250000       0.06250000 </v>
   <v>       0.81250000       0.56250000       0.06250000 </v>
   <v>       0.06250000       0.81250000       0.06250000 </v>
   <v>       0.31250000       0.81250000       0.06250000 </v>
   <v>       0.56250000       0.81250000       0.06250000 </v>
   <v>       0.81250000       0.81250000       0.06250000 </v>
   <v>       0.06250000       0.06250000       0.31250000 </v>
   <v>       0.31250000       0.06250000       0.31250000 </v>
   <v>       0.56250000       0.06250000       0.31250000 </v>
   <v>       0.81250000       0.06250000       0.31250000 </v>
   <v>       0.06250000       0.31250000       0.31250000 </v>
   <v>       0.31250000       0.31250000       0.31250000 </v>
   <v>       0.56250000       0.31250000       0.31250000 </v>
   <v>       0.81250000       0.31250000       0.31250000 </v>
   <v>       0.06250000       0.56250000       0.31250000 </v>
   <v>       0.31250000       0.56250000       0.31250000 </v>
   <v>       0.56250000       0.56250000       0.31250000 </v>
   <v>       0.81250000       0.56250000       0.31250000 </v>
   <v>       0.06250000       0.81250000       0.31250000 </v>
   <v>       0.31250000       0.81250000       0.31250000 </v>
   <v>       0.56250000       0.81250000       0.31250000 </v>
   <v>       0.81250000       0.81250000       0.31250000 </v>
   <v>       0.06250000       0.06250000       0.56250000 </v>
   <v>       0.31250000       0.06250000       0.56250000 </v>
   <v>       0.56250000       0.06250000       0.56250000 </v>
   <v>       0.81250000       0.06250000       0.56250000 </v>
   <v>       0.06250000       0.31250000       0.56250000 </v>
   <v>       0.31250000       0.31250000       0.56250000 </v>
   <v>       0.56250000       0.31250000       0.56250000 </v>
   <v>       0.81250000       0.31250000       0.56250000 </v>
   <v>       0.06250000       0.56250000       0.56250000 </v>
   <v>       0.31250000       0.56250000       0.56250000 </v>
   <v>       0.56250000       0.56250000       0.56250000 </v>
   <v>       0.81250000       0.56250000       0.56250000 </v>
   <v>       0.06250000       0.81250000       0.56250000 </v>
   <v>       0.31250000       0.81250000       0.56250000 </v>
   <v>       0.56250000       0.81250000       0.56250000 </v>
   <v>       0.81250000       0.81250000       0.56250000 </v>
   <v>       0.06250000       0.06250000       0.81250000 </v>
   <v>       0.31250000       0.06250000       0.81250000 </v>
   <v>       0.56250000       0.06250000       0.81250000 </v>
   <v>       0.81250000       0.06250000       0.81250000 </v>
   <v>       0.06250000       0.31250000       0.81250000 </v>
   <v>       0.31250000       0.31250000       0.81250000 </v>
   <v>       0.56250000       0.31250000       0.81250000 </v>
   <v>       0.81250000       0.31250000       0.81250000 </v>
   <v>       0.06250000       0.56250000       0.81250000 </v>
   <v>       0.31250000       0.56250000       0.81250000 </v>
   <v>       0.56250000       0.56250000       0.81250000 </v>
   <v>       0.81250000       0.56250000       0.81250000 </v>
   <v>       0.06250000       0.81250000       0.81250000 </v>
   <v>       0.31250000       0.81250000       0.81250000 </v>
   <v>       0.56250000       0.81250000       0.81250000 </v>
   <v>       0.81250000       0.81250000       0.81250000 </v>
   <v>       0.00000000       0.00000000       0.00000000 </v>
   <v>       0.25000000       0.00000000       0.00000000 </v>
   <v>       0.49954284       0.99954284       0.00045716 </v>
   <v>       0.75000000       0.00000000       0.00000000 </v>
   <v>       0.00000000       0.25000000       0.00000000 </v>
   <v>       0.25000000       0.25000000       0.00000000 </v>
   <v>       0.50000000       0.25000000       0.00000000 </v>
   <v>       0.75000000       0.25000000       0.00000000 </v>
   <v>       0.00000000       0.50000000       0.00000000 </v>
   <v>       0.25000000       0.50000000       0.00000000 </v>
   <v>       0.50000000       0.50000000       0.00000000 </v>
   <v>       0.75000000       0.50000000       0.00000000 </v>
   <v>       0.00000000       0.75000000       0.00000000 </v>
   <v>       0.25000000       0.75000000       0.00000000 </v>
   <v>       0.50000000       0.75000000       0.00000000 </v>
   <v>       0.75000000       0.75000000       0.00000000 </v>
   <v>       0.00000000       0.00000000       0.25000000 </v>
   <v>       0.25000000       0.00000000       0.25000000 </v>
   <v>       0.50000000       0.00000000       0.25000000 </v>
   <v>       0.75000000       0.00000000       0.25000000 </v>
   <v>       0.00000000       0.25000000       0.25000000 </v>
   <v>       0.25000000       0.25000000       0.25000000 </v>
   <v>       0.50000000       0.25000000       0.25000000 </v>
   <v>       0.75000000       0.25000000       0.25000000 </v>
   <v>       0.00000000       0.50000000       0.25000000 </v>
   <v>       0.25000000       0.50000000       0.25000000 </v>
   <v>       0.50000000       0.50000000       0.25000000 </v>
   <v>       0.75000000       0.50000000       0.25000000 </v>
   <v>       0.00000000       0.75000000       0.25000000 </v>
   <v>       0.25000000       0.75000000       0.25000000 </v>
   <v>       0.50000000       0.75000000       0.25000000 </v>
   <v>       0.75000000       0.75000000       0.25000000 </v>
   <v>       0.00000000       0.00000000       0.50000000 </v>
   <v>       0.25000000       0.00000000       0.50000000 </v>
   <v>       0.50000000       0.00000000       0.50000000 </v>
   <v>       0.75000000       0.00000000       0.50000000 </v>
   <v>       0.00000000       0.25000000       0.50000000 </v>
   <v>       0.25000000       0.25000000       0.50000000 </v>
   <v>       0.50000000       0.25000000       0.50000000 </v>
   <v>       0.75000000       0.25000000       0.50000000 </v>
   <v>       0.00000000       0.50000000       0.50000000 </v>
   <v>       0.25000000       0.50000000       0.50000000 </v>
   <v>       0.50000000       0.50000000       0.50000000 </v>
   <v>       0.75000000       0.50000000       0.50000000 </v>
   <v>       0.00000000       0.75000000       0.50000000 </v>
   <v>       0.25000000       0.75000000       0.50000000 </v>
   <v>       0.50000000       0.75000000       0.50000000 </v>
   <v>       0.75000000       0.75000000       0.50000000 </v>
   <v>       0.00000000       0.00000000       0.75000000 </v>
   <v>       0.25000000       0.00000000       0.75000000 </v>
   <v>       0.50000000       0.00000000       0.75000000 </v>
   <v>       0.75000000       0.00000000       0.75000000 </v>
   <v>       0.00000000       0.25000000       0.75000000 </v>
   <v>       0.25000000       0.25000000       0.75000000 </v>
   <v>       0.50000000       0.25000000       0.75000000 </v>
   <v>       0.75000000       0.25000000       0.75000000 </v>
   <v>       0.00000000       0.50000000       0.75000000 </v>
   <v>       0.25000000       0.50000000       0.75000000 </v>
   <v>       0.50000000       0.50000000       0.75000000 </v>
   <v>       0.75000000       0.50000000       0.75000000 </v>
   <v>       0.00000000       0.75000000       0.75000000 </v>
   <v>       0.25000000       0.75000000       0.75000000 </v>
   <v>       0.50000000       0.75000000       0.75000000 </v>
   <v>       0.75000000       0.75000000       0.75000000 </v>
  </varray>
 </structure>
</modeling>
