K3 Au3 Sb2                              
   1.00000000000000     
     3.1809055756173503    1.8364966903494591    7.2746193813920392
    -3.1809055756173508    1.8364966903494591    7.2746193813920392
     0.0000000000000000   -3.6729933806989181    7.2746193813920392
   Sb   K    Au
     2     3     3
Direct
  0.7577105033072371  0.7577105033072371  0.7577105033072371
  0.2422894966927629  0.2422894966927629  0.2422894966927629
  0.5000000000000000  0.5000000000000000  0.5000000000000000
  0.0810274358633833  0.0810274358633833  0.0810274358633833
  0.9189725641366167  0.9189725641366167  0.9189725641366167
  0.5000000000000000  0.5000000000000000  0.0000000000000000
  0.0000000000000000  0.5000000000000000  0.5000000000000000
  0.5000000000000000  0.0000000000000000  0.5000000000000000
 
  0.00000000E+00  0.00000000E+00  0.00000000E+00
  0.00000000E+00  0.00000000E+00  0.00000000E+00
  0.00000000E+00  0.00000000E+00  0.00000000E+00
  0.00000000E+00  0.00000000E+00  0.00000000E+00
  0.00000000E+00  0.00000000E+00  0.00000000E+00
  0.00000000E+00  0.00000000E+00  0.00000000E+00
  0.00000000E+00  0.00000000E+00  0.00000000E+00
  0.00000000E+00  0.00000000E+00  0.00000000E+00
