K  Li Ge K  Li Ge K  Li Ge K  Li Ge K  Li Ge K  Li Ge K  Li Ge K  Li Ge
 1.0000000000000000
    13.3733581146458835    0.0000000000000000    0.0000000000000000
     0.0000000000000000   23.9120868533351860    0.0000000000000000
     0.0000000000000000    0.0000000000000000   12.5484473968032937
 K   Li  Ge  K   Li  Ge  K   Li  Ge  K   Li  Ge  K   Li  Ge  K   Li  Ge  K   Li  Ge  K   Li  Ge 
   6   2   8   6   2   8   6   2   8   6   2   8   6   2   8   6   2   8   6   2   8   6   2   8
Cartesian
  0.0000000000000000  9.1259051987812878  1.0156349136957812
  0.0000000000000000  2.8301382278863070  1.0156349136957812
  3.3433395286614709  8.8081599412201026  5.2585887847058661
  3.3433395286614709  3.1478834854474895  5.2585887847058661
  0.0000000000000000  0.0000000000000000  3.5609233779198224
  3.3433395286614709  5.9780217133337965  2.7133003204818240
  0.0000000000000000  5.9780217133337965  1.9225921729392750
  3.3433395286614709  0.0000000000000000  4.3516315254623734
  1.9892385075638384  0.0000000000000000  0.3542753176104187
  4.6974405497591016  0.0000000000000000  0.3542753176104187
  5.3325780362253115  5.9780217133337965  5.9199483807912276
  1.3541010210976312  5.9780217133337965  5.9199483807912276
  0.0000000000000000  4.6256400376856526  4.1897971703298129
  0.0000000000000000  7.3304033889819378  4.1897971703298129
  3.3433395286614709  1.3523816756481426  2.0844265280718313
  3.3433395286614709 10.6036617510194517  2.0844265280718313
  0.0000000000000000  9.1259051987812878  7.2898586120974276
  0.0000000000000000  2.8301382278863070  7.2898586120974276
  3.3433395286614709  8.8081599412201026 11.5328124831075129
  3.3433395286614709  3.1478834854474895 11.5328124831075129
  0.0000000000000000  0.0000000000000000  9.8351470763214692
  3.3433395286614709  5.9780217133337965  8.9875240188834713
  0.0000000000000000  5.9780217133337965  8.1968158713409220
  3.3433395286614709  0.0000000000000000 10.6258552238640203
  1.9892385075638384  0.0000000000000000  6.6284990160120651
  4.6974405497591016  0.0000000000000000  6.6284990160120651
  5.3325780362253115  5.9780217133337965 12.1941720791928745
  1.3541010210976312  5.9780217133337965 12.1941720791928745
  0.0000000000000000  4.6256400376856526 10.4640208687314598
  0.0000000000000000  7.3304033889819378 10.4640208687314598
  3.3433395286614709  1.3523816756481426  8.3586502264734790
  3.3433395286614709 10.6036617510194517  8.3586502264734790
  0.0000000000000000 21.0819486254488808  1.0156349136957812
  0.0000000000000000 14.7861816545539000  1.0156349136957812
  3.3433395286614709 20.7642033678876956  5.2585887847058661
  3.3433395286614709 15.1039269121150816  5.2585887847058661
  0.0000000000000000 11.9560434266675930  3.5609233779198224
  3.3433395286614709 17.9340651400013904  2.7133003204818240
  0.0000000000000000 17.9340651400013904  1.9225921729392750
  3.3433395286614709 11.9560434266675930  4.3516315254623734
  1.9892385075638384 11.9560434266675930  0.3542753176104187
  4.6974405497591016 11.9560434266675930  0.3542753176104187
  5.3325780362253115 17.9340651400013904  5.9199483807912276
  1.3541010210976312 17.9340651400013904  5.9199483807912276
  0.0000000000000000 16.5816834643532474  4.1897971703298129
  0.0000000000000000 19.2864468156495299  4.1897971703298129
  3.3433395286614709 13.3084251023157361  2.0844265280718313
  3.3433395286614709 22.5597051776870430  2.0844265280718313
  0.0000000000000000 21.0819486254488808  7.2898586120974276
  0.0000000000000000 14.7861816545539000  7.2898586120974276
  3.3433395286614709 20.7642033678876956 11.5328124831075129
  3.3433395286614709 15.1039269121150816 11.5328124831075129
  0.0000000000000000 11.9560434266675930  9.8351470763214692
  3.3433395286614709 17.9340651400013904  8.9875240188834713
  0.0000000000000000 17.9340651400013904  8.1968158713409220
  3.3433395286614709 11.9560434266675930 10.6258552238640203
  1.9892385075638384 11.9560434266675930  6.6284990160120651
  4.6974405497591016 11.9560434266675930  6.6284990160120651
  5.3325780362253115 17.9340651400013904 12.1941720791928745
  1.3541010210976312 17.9340651400013904 12.1941720791928745
  0.0000000000000000 16.5816834643532474 10.4640208687314598
  0.0000000000000000 19.2864468156495299 10.4640208687314598
  3.3433395286614709 13.3084251023157361  8.3586502264734790
  3.3433395286614709 22.5597051776870430  8.3586502264734790
  6.6866790573229418  9.1259051987812878  1.0156349136957812
  6.6866790573229418  2.8301382278863070  1.0156349136957812
 10.0300185859844131  8.8081599412201026  5.2585887847058661
 10.0300185859844131  3.1478834854474895  5.2585887847058661
  6.6866790573229418  0.0000000000000000  3.5609233779198224
 10.0300185859844131  5.9780217133337965  2.7133003204818240
  6.6866790573229418  5.9780217133337965  1.9225921729392750
 10.0300185859844131  0.0000000000000000  4.3516315254623734
  8.6759175648867810  0.0000000000000000  0.3542753176104187
 11.3841196070820434  0.0000000000000000  0.3542753176104187
 12.0192570935482532  5.9780217133337965  5.9199483807912276
  8.0407800784205730  5.9780217133337965  5.9199483807912276
  6.6866790573229418  4.6256400376856526  4.1897971703298129
  6.6866790573229418  7.3304033889819378  4.1897971703298129
 10.0300185859844131  1.3523816756481426  2.0844265280718313
 10.0300185859844131 10.6036617510194517  2.0844265280718313
  6.6866790573229418  9.1259051987812878  7.2898586120974276
  6.6866790573229418  2.8301382278863070  7.2898586120974276
 10.0300185859844131  8.8081599412201026 11.5328124831075129
 10.0300185859844131  3.1478834854474895 11.5328124831075129
  6.6866790573229418  0.0000000000000000  9.8351470763214692
 10.0300185859844131  5.9780217133337965  8.9875240188834713
  6.6866790573229418  5.9780217133337965  8.1968158713409220
 10.0300185859844131  0.0000000000000000 10.6258552238640203
  8.6759175648867810  0.0000000000000000  6.6284990160120651
 11.3841196070820434  0.0000000000000000  6.6284990160120651
 12.0192570935482532  5.9780217133337965 12.1941720791928745
  8.0407800784205730  5.9780217133337965 12.1941720791928745
  6.6866790573229418  4.6256400376856526 10.4640208687314598
  6.6866790573229418  7.3304033889819378 10.4640208687314598
 10.0300185859844131  1.3523816756481426  8.3586502264734790
 10.0300185859844131 10.6036617510194517  8.3586502264734790
  6.6866790573229418 21.0819486254488808  1.0156349136957812
  6.6866790573229418 14.7861816545539000  1.0156349136957812
 10.0300185859844131 20.7642033678876956  5.2585887847058661
 10.0300185859844131 15.1039269121150816  5.2585887847058661
  6.6866790573229418 11.9560434266675930  3.5609233779198224
 10.0300185859844131 17.9340651400013904  2.7133003204818240
  6.6866790573229418 17.9340651400013904  1.9225921729392750
 10.0300185859844131 11.9560434266675930  4.3516315254623734
  8.6759175648867810 11.9560434266675930  0.3542753176104187
 11.3841196070820434 11.9560434266675930  0.3542753176104187
 12.0192570935482532 17.9340651400013904  5.9199483807912276
  8.0407800784205730 17.9340651400013904  5.9199483807912276
  6.6866790573229418 16.5816834643532474  4.1897971703298129
  6.6866790573229418 19.2864468156495299  4.1897971703298129
 10.0300185859844131 13.3084251023157361  2.0844265280718313
 10.0300185859844131 22.5597051776870430  2.0844265280718313
  6.6866790573229418 21.0819486254488808  7.2898586120974276
  6.6866790573229418 14.7861816545539000  7.2898586120974276
 10.0300185859844131 20.7642033678876956 11.5328124831075129
 10.0300185859844131 15.1039269121150816 11.5328124831075129
  6.6866790573229418 11.9560434266675930  9.8351470763214692
 10.0300185859844131 17.9340651400013904  8.9875240188834713
  6.6866790573229418 17.9340651400013904  8.1968158713409220
 10.0300185859844131 11.9560434266675930 10.6258552238640203
  8.6759175648867810 11.9560434266675930  6.6284990160120651
 11.3841196070820434 11.9560434266675930  6.6284990160120651
 12.0192570935482532 17.9340651400013904 12.1941720791928745
  8.0407800784205730 17.9340651400013904 12.1941720791928745
  6.6866790573229418 16.5816834643532474 10.4640208687314598
  6.6866790573229418 19.2864468156495299 10.4640208687314598
 10.0300185859844131 13.3084251023157361  8.3586502264734790
 10.0300185859844131 22.5597051776870430  8.3586502264734790
