Generated by VASPKIT code
 1.000000
    0.0000000000000000    2.7218511864697263    2.7218511864697263
    2.7218511864697263    0.0000000000000000    2.7218511864697263
    2.7218511864697263    2.7218511864697263    0.0000000000000000
   Si
     2
Direct
    0.2500000000000000    0.2500000000000000    0.2500000000000000    Si001
    0.0000000000000000    0.0000000000000000    0.0000000000000000    Si002
