Y4 V4 O16
1.0
   7.1346979414653013    0.0000000000000000    0.0000000000000004
  -0.0000000000000004    7.1346979414653013    0.0000000000000004
   0.0000000000000000    0.0000000000000000    6.2966958937446487
Y V O
4 4 16
direct
   0.5000000000000000    0.5000000000000000    0.5000000000000000 Y3+
   0.0000000000000000    0.5000000000000000    0.7500000000000000 Y3+
   0.0000000000000000    0.0000000000000000    0.0000000000000000 Y3+
   0.5000000000000000    0.0000000000000000    0.2500000000000000 Y3+
   0.5000000000000000    0.5000000000000000    0.0000000000000000 V5+
   0.0000000000000000    0.5000000000000000    0.2500000000000000 V5+
   0.0000000000000000    0.0000000000000000    0.5000000000000000 V5+
   0.5000000000000000    0.0000000000000000    0.7500000000000000 V5+
   0.0000000000000000    0.6846061400000000    0.0754544800000000 O2-
   0.6846061400000000    0.5000000000000000    0.8254544800000001 O2-
   0.3153938600000000    0.5000000000000000    0.8254544800000001 O2-
   0.5000000000000000    0.8153938600000000    0.5754544800000000 O2-
   0.1846061400000000    0.5000000000000000    0.4245455199999990 O2-
   0.0000000000000000    0.1846061400000000    0.6745455199999990 O2-
   0.5000000000000000    0.3153938600000000    0.1745455199999990 O2-
   0.8153938600000000    0.5000000000000000    0.4245455199999990 O2-
   0.5000000000000000    0.1846061400000000    0.5754544800000000 O2-
   0.1846061400000000    0.0000000000000000    0.3254544800000000 O2-
   0.8153938600000000    0.0000000000000000    0.3254544800000000 O2-
   0.0000000000000000    0.3153938599999990    0.0754544800000000 O2-
   0.6846061400000001    0.0000000000000000    0.9245455199999991 O2-
   0.5000000000000000    0.6846061400000001    0.1745455199999990 O2-
   0.0000000000000000    0.8153938600000000    0.6745455199999990 O2-
   0.3153938599999990    0.0000000000000000    0.9245455199999991 O2-
