Generated by VASPKIT code               
   1.00000000000000     
     0.0000000000000000    2.7342901740229020    2.7342901740229020
     2.7342901740229020    0.0000000000000000    2.7342901740229020
     2.7342901740229020    2.7342901740229020    0.0000000000000000
   Si
     2
Direct
  0.2500000000000000  0.2500000000000000  0.2500000000000000
  0.0000000000000000  0.0000000000000000  0.0000000000000000
 
  0.00000000E+00  0.00000000E+00  0.00000000E+00
  0.00000000E+00  0.00000000E+00  0.00000000E+00
