generated by phonopy
   1.0
     9.5427167268520510    5.5094900710483774   21.8238581441761177
    -9.5427167268520527    5.5094900710483774   21.8238581441761177
     0.0000000000000000  -11.0189801420967548   21.8238581441761177
Sb K Au
  54   81   81
Direct
  0.2525701677690790  0.2525701677690790  0.2525701677690790
  0.5859035011024123  0.2525701677690790  0.2525701677690790
  0.9192368344357457  0.2525701677690790  0.2525701677690790
  0.2525701677690790  0.5859035011024123  0.2525701677690790
  0.5859035011024123  0.5859035011024123  0.2525701677690790
  0.9192368344357457  0.5859035011024123  0.2525701677690790
  0.2525701677690790  0.9192368344357457  0.2525701677690790
  0.5859035011024123  0.9192368344357457  0.2525701677690790
  0.9192368344357457  0.9192368344357457  0.2525701677690790
  0.2525701677690790  0.2525701677690790  0.5859035011024123
  0.5859035011024123  0.2525701677690790  0.5859035011024123
  0.9192368344357457  0.2525701677690790  0.5859035011024123
  0.2525701677690790  0.5859035011024123  0.5859035011024123
  0.5859035011024123  0.5859035011024123  0.5859035011024123
  0.9192368344357457  0.5859035011024123  0.5859035011024123
  0.2525701677690790  0.9192368344357457  0.5859035011024123
  0.5859035011024123  0.9192368344357457  0.5859035011024123
  0.9192368344357457  0.9192368344357457  0.5859035011024123
  0.2525701677690790  0.2525701677690790  0.9192368344357457
  0.5859035011024123  0.2525701677690790  0.9192368344357457
  0.9192368344357457  0.2525701677690790  0.9192368344357457
  0.2525701677690790  0.5859035011024123  0.9192368344357457
  0.5859035011024123  0.5859035011024123  0.9192368344357457
  0.9192368344357457  0.5859035011024123  0.9192368344357457
  0.2525701677690790  0.9192368344357457  0.9192368344357457
  0.5859035011024123  0.9192368344357457  0.9192368344357457
  0.9192368344357457  0.9192368344357457  0.9192368344357457
  0.0807631655642543  0.0807631655642543  0.0807631655642543
  0.4140964988975876  0.0807631655642543  0.0807631655642543
  0.7474298322309210  0.0807631655642543  0.0807631655642543
  0.0807631655642543  0.4140964988975876  0.0807631655642543
  0.4140964988975876  0.4140964988975876  0.0807631655642543
  0.7474298322309210  0.4140964988975876  0.0807631655642543
  0.0807631655642543  0.7474298322309210  0.0807631655642543
  0.4140964988975876  0.7474298322309210  0.0807631655642543
  0.7474298322309210  0.7474298322309210  0.0807631655642543
  0.0807631655642543  0.0807631655642543  0.4140964988975876
  0.4140964988975876  0.0807631655642543  0.4140964988975876
  0.7474298322309210  0.0807631655642543  0.4140964988975876
  0.0807631655642543  0.4140964988975876  0.4140964988975876
  0.4140964988975876  0.4140964988975876  0.4140964988975876
  0.7474298322309210  0.4140964988975876  0.4140964988975876
  0.0807631655642543  0.7474298322309210  0.4140964988975876
  0.4140964988975876  0.7474298322309210  0.4140964988975876
  0.7474298322309210  0.7474298322309210  0.4140964988975876
  0.0807631655642543  0.0807631655642543  0.7474298322309210
  0.4140964988975876  0.0807631655642543  0.7474298322309210
  0.7474298322309210  0.0807631655642543  0.7474298322309210
  0.0807631655642543  0.4140964988975876  0.7474298322309210
  0.4140964988975876  0.4140964988975876  0.7474298322309210
  0.7474298322309210  0.4140964988975876  0.7474298322309210
  0.0807631655642543  0.7474298322309210  0.7474298322309210
  0.4140964988975876  0.7474298322309210  0.7474298322309210
  0.7474298322309210  0.7474298322309210  0.7474298322309210
  0.1666666666666667  0.1666666666666667  0.1666666666666667
  0.5000000000000000  0.1666666666666667  0.1666666666666667
  0.8333333333333333  0.1666666666666667  0.1666666666666667
  0.1666666666666667  0.5000000000000000  0.1666666666666667
  0.5000000000000000  0.5000000000000000  0.1666666666666667
  0.8333333333333333  0.5000000000000000  0.1666666666666667
  0.1666666666666667  0.8333333333333333  0.1666666666666667
  0.5000000000000000  0.8333333333333333  0.1666666666666667
  0.8333333333333333  0.8333333333333333  0.1666666666666667
  0.1666666666666667  0.1666666666666667  0.5000000000000000
  0.5000000000000000  0.1666666666666667  0.5000000000000000
  0.8333333333333333  0.1666666666666667  0.5000000000000000
  0.1666666666666667  0.5000000000000000  0.5000000000000000
  0.5000000000000000  0.5000000000000000  0.5000000000000000
  0.8333333333333333  0.5000000000000000  0.5000000000000000
  0.1666666666666667  0.8333333333333333  0.5000000000000000
  0.5000000000000000  0.8333333333333333  0.5000000000000000
  0.8333333333333333  0.8333333333333333  0.5000000000000000
  0.1666666666666667  0.1666666666666667  0.8333333333333333
  0.5000000000000000  0.1666666666666667  0.8333333333333333
  0.8333333333333333  0.1666666666666667  0.8333333333333333
  0.1666666666666667  0.5000000000000000  0.8333333333333333
  0.5000000000000000  0.5000000000000000  0.8333333333333333
  0.8333333333333333  0.5000000000000000  0.8333333333333333
  0.1666666666666667  0.8333333333333333  0.8333333333333333
  0.5000000000000000  0.8333333333333333  0.8333333333333333
  0.8333333333333333  0.8333333333333333  0.8333333333333333
  0.0270091452877944  0.0270091452877944  0.0270091452877944
  0.3603424786211278  0.0270091452877944  0.0270091452877944
  0.6936758119544610  0.0270091452877944  0.0270091452877944
  0.0270091452877944  0.3603424786211278  0.0270091452877944
  0.3603424786211278  0.3603424786211278  0.0270091452877944
  0.6936758119544610  0.3603424786211278  0.0270091452877944
  0.0270091452877944  0.6936758119544610  0.0270091452877944
  0.3603424786211278  0.6936758119544610  0.0270091452877944
  0.6936758119544610  0.6936758119544610  0.0270091452877944
  0.0270091452877944  0.0270091452877944  0.3603424786211278
  0.3603424786211278  0.0270091452877944  0.3603424786211278
  0.6936758119544610  0.0270091452877944  0.3603424786211278
  0.0270091452877944  0.3603424786211278  0.3603424786211278
  0.3603424786211278  0.3603424786211278  0.3603424786211278
  0.6936758119544610  0.3603424786211278  0.3603424786211278
  0.0270091452877944  0.6936758119544610  0.3603424786211278
  0.3603424786211278  0.6936758119544610  0.3603424786211278
  0.6936758119544610  0.6936758119544610  0.3603424786211278
  0.0270091452877944  0.0270091452877944  0.6936758119544610
  0.3603424786211278  0.0270091452877944  0.6936758119544610
  0.6936758119544610  0.0270091452877944  0.6936758119544610
  0.0270091452877944  0.3603424786211278  0.6936758119544610
  0.3603424786211278  0.3603424786211278  0.6936758119544610
  0.6936758119544610  0.3603424786211278  0.6936758119544610
  0.0270091452877944  0.6936758119544610  0.6936758119544610
  0.3603424786211278  0.6936758119544610  0.6936758119544610
  0.6936758119544610  0.6936758119544610  0.6936758119544610
  0.3063241880455388  0.3063241880455388  0.3063241880455388
  0.6396575213788722  0.3063241880455388  0.3063241880455388
  0.9729908547122055  0.3063241880455388  0.3063241880455388
  0.3063241880455388  0.6396575213788722  0.3063241880455388
  0.6396575213788722  0.6396575213788722  0.3063241880455388
  0.9729908547122055  0.6396575213788722  0.3063241880455388
  0.3063241880455388  0.9729908547122055  0.3063241880455388
  0.6396575213788722  0.9729908547122055  0.3063241880455388
  0.9729908547122055  0.9729908547122055  0.3063241880455388
  0.3063241880455388  0.3063241880455388  0.6396575213788722
  0.6396575213788722  0.3063241880455388  0.6396575213788722
  0.9729908547122055  0.3063241880455388  0.6396575213788722
  0.3063241880455388  0.6396575213788722  0.6396575213788722
  0.6396575213788722  0.6396575213788722  0.6396575213788722
  0.9729908547122055  0.6396575213788722  0.6396575213788722
  0.3063241880455388  0.9729908547122055  0.6396575213788722
  0.6396575213788722  0.9729908547122055  0.6396575213788722
  0.9729908547122055  0.9729908547122055  0.6396575213788722
  0.3063241880455388  0.3063241880455388  0.9729908547122055
  0.6396575213788722  0.3063241880455388  0.9729908547122055
  0.9729908547122055  0.3063241880455388  0.9729908547122055
  0.3063241880455388  0.6396575213788722  0.9729908547122055
  0.6396575213788722  0.6396575213788722  0.9729908547122055
  0.9729908547122055  0.6396575213788722  0.9729908547122055
  0.3063241880455388  0.9729908547122055  0.9729908547122055
  0.6396575213788722  0.9729908547122055  0.9729908547122055
  0.9729908547122055  0.9729908547122055  0.9729908547122055
  0.1666666666666667  0.1666666666666667  0.0000000000000000
  0.5000000000000000  0.1666666666666667  0.0000000000000000
  0.8333333333333333  0.1666666666666667  0.0000000000000000
  0.1666666666666667  0.5000000000000000  0.0000000000000000
  0.5000000000000000  0.5000000000000000  0.0000000000000000
  0.8333333333333333  0.5000000000000000  0.0000000000000000
  0.1666666666666667  0.8333333333333333  0.0000000000000000
  0.5000000000000000  0.8333333333333333  0.0000000000000000
  0.8333333333333333  0.8333333333333333  0.0000000000000000
  0.1666666666666667  0.1666666666666667  0.3333333333333333
  0.5000000000000000  0.1666666666666667  0.3333333333333333
  0.8333333333333333  0.1666666666666667  0.3333333333333333
  0.1666666666666667  0.5000000000000000  0.3333333333333333
  0.5000000000000000  0.5000000000000000  0.3333333333333333
  0.8333333333333333  0.5000000000000000  0.3333333333333333
  0.1666666666666667  0.8333333333333333  0.3333333333333333
  0.5000000000000000  0.8333333333333333  0.3333333333333333
  0.8333333333333333  0.8333333333333333  0.3333333333333333
  0.1666666666666667  0.1666666666666667  0.6666666666666666
  0.5000000000000000  0.1666666666666667  0.6666666666666666
  0.8333333333333333  0.1666666666666667  0.6666666666666666
  0.1666666666666667  0.5000000000000000  0.6666666666666666
  0.5000000000000000  0.5000000000000000  0.6666666666666666
  0.8333333333333333  0.5000000000000000  0.6666666666666666
  0.1666666666666667  0.8333333333333333  0.6666666666666666
  0.5000000000000000  0.8333333333333333  0.6666666666666666
  0.8333333333333333  0.8333333333333333  0.6666666666666666
  0.0000000000000000  0.1666666666666667  0.1666666666666667
  0.3333333333333333  0.1666666666666667  0.1666666666666667
  0.6666666666666666  0.1666666666666667  0.1666666666666667
  0.0000000000000000  0.5000000000000000  0.1666666666666667
  0.3333333333333333  0.5000000000000000  0.1666666666666667
  0.6666666666666666  0.5000000000000000  0.1666666666666667
  0.0000000000000000  0.8333333333333333  0.1666666666666667
  0.3333333333333333  0.8333333333333333  0.1666666666666667
  0.6666666666666666  0.8333333333333333  0.1666666666666667
  0.0000000000000000  0.1666666666666667  0.5000000000000000
  0.3333333333333333  0.1666666666666667  0.5000000000000000
  0.6666666666666666  0.1666666666666667  0.5000000000000000
  0.0000000000000000  0.5000000000000000  0.5000000000000000
  0.3333333333333333  0.5000000000000000  0.5000000000000000
  0.6666666666666666  0.5000000000000000  0.5000000000000000
  0.0000000000000000  0.8333333333333333  0.5000000000000000
  0.3333333333333333  0.8333333333333333  0.5000000000000000
  0.6666666666666666  0.8333333333333333  0.5000000000000000
  0.0000000000000000  0.1666666666666667  0.8333333333333333
  0.3333333333333333  0.1666666666666667  0.8333333333333333
  0.6666666666666666  0.1666666666666667  0.8333333333333333
  0.0000000000000000  0.5000000000000000  0.8333333333333333
  0.3333333333333333  0.5000000000000000  0.8333333333333333
  0.6666666666666666  0.5000000000000000  0.8333333333333333
  0.0000000000000000  0.8333333333333333  0.8333333333333333
  0.3333333333333333  0.8333333333333333  0.8333333333333333
  0.6666666666666666  0.8333333333333333  0.8333333333333333
  0.1666666666666667  0.0000000000000000  0.1666666666666667
  0.5000000000000000  0.0000000000000000  0.1666666666666667
  0.8333333333333333  0.0000000000000000  0.1666666666666667
  0.1666666666666667  0.3333333333333333  0.1666666666666667
  0.5000000000000000  0.3333333333333333  0.1666666666666667
  0.8333333333333333  0.3333333333333333  0.1666666666666667
  0.1666666666666667  0.6666666666666666  0.1666666666666667
  0.5000000000000000  0.6666666666666666  0.1666666666666667
  0.8333333333333333  0.6666666666666666  0.1666666666666667
  0.1666666666666667  0.0000000000000000  0.5000000000000000
  0.5000000000000000  0.0000000000000000  0.5000000000000000
  0.8333333333333333  0.0000000000000000  0.5000000000000000
  0.1666666666666667  0.3333333333333333  0.5000000000000000
  0.5000000000000000  0.3333333333333333  0.5000000000000000
  0.8333333333333333  0.3333333333333333  0.5000000000000000
  0.1666666666666667  0.6666666666666666  0.5000000000000000
  0.5000000000000000  0.6666666666666666  0.5000000000000000
  0.8333333333333333  0.6666666666666666  0.5000000000000000
  0.1666666666666667  0.0000000000000000  0.8333333333333333
  0.5000000000000000  0.0000000000000000  0.8333333333333333
  0.8333333333333333  0.0000000000000000  0.8333333333333333
  0.1666666666666667  0.3333333333333333  0.8333333333333333
  0.5000000000000000  0.3333333333333333  0.8333333333333333
  0.8333333333333333  0.3333333333333333  0.8333333333333333
  0.1666666666666667  0.6666666666666666  0.8333333333333333
  0.5000000000000000  0.6666666666666666  0.8333333333333333
  0.8333333333333333  0.6666666666666666  0.8333333333333333
