K  Li Ge
 1.0000000000000000
    13.3733581146458835    0.0000000000000000    0.0000000000000000
     0.0000000000000000   23.9120868533351860    0.0000000000000000
     0.0000000000000000    0.0000000000000000   12.5484473968032937
 K   Li  Ge 
  48  16  64
Cartesian
  0.0000000000000000  9.1259051987812878  1.0156349136957812
  0.0000000000000000  9.1259051987812878  7.2898586120974267
  0.0000000000000000 21.0819486254488808  1.0156349136957812
  0.0000000000000000 21.0819486254488808  7.2898586120974267
  6.6866790573229409  9.1259051987812878  1.0156349136957812
  6.6866790573229409  9.1259051987812878  7.2898586120974267
  6.6866790573229409 21.0819486254488808  1.0156349136957812
  6.6866790573229409 21.0819486254488808  7.2898586120974267
  0.0000000000000000  2.8301382278863070  1.0156349136957812
  0.0000000000000000  2.8301382278863070  7.2898586120974267
  0.0000000000000000 14.7861816545538982  1.0156349136957812
  0.0000000000000000 14.7861816545538982  7.2898586120974267
  6.6866790573229409  2.8301382278863070  1.0156349136957812
  6.6866790573229409  2.8301382278863070  7.2898586120974267
  6.6866790573229409 14.7861816545538982  1.0156349136957812
  6.6866790573229409 14.7861816545538982  7.2898586120974267
  3.3433395286614709  8.8081599412201026  5.2585887847058661
  3.3433395286614709  8.8081599412201026 11.5328124831075112
  3.3433395286614709 20.7642033678876956  5.2585887847058661
  3.3433395286614709 20.7642033678876956 11.5328124831075112
 10.0300185859844131  8.8081599412201026  5.2585887847058661
 10.0300185859844131  8.8081599412201026 11.5328124831075112
 10.0300185859844131 20.7642033678876956  5.2585887847058661
 10.0300185859844131 20.7642033678876956 11.5328124831075112
  3.3433395286614709  3.1478834854474895  5.2585887847058661
  3.3433395286614709  3.1478834854474895 11.5328124831075112
  3.3433395286614709 15.1039269121150816  5.2585887847058661
  3.3433395286614709 15.1039269121150816 11.5328124831075112
 10.0300185859844131  3.1478834854474895  5.2585887847058661
 10.0300185859844131  3.1478834854474895 11.5328124831075112
 10.0300185859844131 15.1039269121150816  5.2585887847058661
 10.0300185859844131 15.1039269121150816 11.5328124831075112
  0.0000000000000000  0.0000000000000000  3.5609233779198224
  0.0000000000000000  0.0000000000000000  9.8351470763214692
  0.0000000000000000 11.9560434266675912  3.5609233779198224
  0.0000000000000000 11.9560434266675912  9.8351470763214692
  6.6866790573229409  0.0000000000000000  3.5609233779198224
  6.6866790573229409  0.0000000000000000  9.8351470763214692
  6.6866790573229409 11.9560434266675912  3.5609233779198224
  6.6866790573229409 11.9560434266675912  9.8351470763214692
  3.3433395286614709  5.9780217133337965  2.7133003204818240
  3.3433395286614709  5.9780217133337965  8.9875240188834713
  3.3433395286614709 17.9340651400013904  2.7133003204818240
  3.3433395286614709 17.9340651400013904  8.9875240188834713
 10.0300185859844131  5.9780217133337965  2.7133003204818240
 10.0300185859844131  5.9780217133337965  8.9875240188834713
 10.0300185859844131 17.9340651400013904  2.7133003204818240
 10.0300185859844131 17.9340651400013904  8.9875240188834713
  0.0000000000000000  5.9780217133337965  1.9225921729392750
  0.0000000000000000  5.9780217133337965  8.1968158713409220
  0.0000000000000000 17.9340651400013904  1.9225921729392750
  0.0000000000000000 17.9340651400013904  8.1968158713409220
  6.6866790573229409  5.9780217133337965  1.9225921729392750
  6.6866790573229409  5.9780217133337965  8.1968158713409220
  6.6866790573229409 17.9340651400013904  1.9225921729392750
  6.6866790573229409 17.9340651400013904  8.1968158713409220
  3.3433395286614709  0.0000000000000000  4.3516315254623734
  3.3433395286614709  0.0000000000000000 10.6258552238640203
  3.3433395286614709 11.9560434266675912  4.3516315254623734
  3.3433395286614709 11.9560434266675912 10.6258552238640203
 10.0300185859844131  0.0000000000000000  4.3516315254623734
 10.0300185859844131  0.0000000000000000 10.6258552238640203
 10.0300185859844131 11.9560434266675912  4.3516315254623734
 10.0300185859844131 11.9560434266675912 10.6258552238640203
  1.9892385075638384  0.0000000000000000  0.3542753176104187
  1.9892385075638384  0.0000000000000000  6.6284990160120643
  1.9892385075638384 11.9560434266675912  0.3542753176104187
  1.9892385075638384 11.9560434266675912  6.6284990160120643
  8.6759175648867810  0.0000000000000000  0.3542753176104187
  8.6759175648867810  0.0000000000000000  6.6284990160120643
  8.6759175648867810 11.9560434266675912  0.3542753176104187
  8.6759175648867810 11.9560434266675912  6.6284990160120643
  4.6974405497591016  0.0000000000000000  0.3542753176104187
  4.6974405497591016  0.0000000000000000  6.6284990160120643
  4.6974405497591016 11.9560434266675912  0.3542753176104187
  4.6974405497591016 11.9560434266675912  6.6284990160120643
 11.3841196070820434  0.0000000000000000  0.3542753176104187
 11.3841196070820434  0.0000000000000000  6.6284990160120643
 11.3841196070820434 11.9560434266675912  0.3542753176104187
 11.3841196070820434 11.9560434266675912  6.6284990160120643
  5.3325780362253115  5.9780217133337965  5.9199483807912276
  5.3325780362253115  5.9780217133337965 12.1941720791928745
  5.3325780362253115 17.9340651400013904  5.9199483807912276
  5.3325780362253115 17.9340651400013904 12.1941720791928745
 12.0192570935482532  5.9780217133337965  5.9199483807912276
 12.0192570935482532  5.9780217133337965 12.1941720791928745
 12.0192570935482532 17.9340651400013904  5.9199483807912276
 12.0192570935482532 17.9340651400013904 12.1941720791928745
  1.3541010210976312  5.9780217133337965  5.9199483807912276
  1.3541010210976312  5.9780217133337965 12.1941720791928745
  1.3541010210976312 17.9340651400013904  5.9199483807912276
  1.3541010210976312 17.9340651400013904 12.1941720791928745
  8.0407800784205730  5.9780217133337965  5.9199483807912276
  8.0407800784205730  5.9780217133337965 12.1941720791928745
  8.0407800784205730 17.9340651400013904  5.9199483807912276
  8.0407800784205730 17.9340651400013904 12.1941720791928745
  0.0000000000000000  4.6256400376856526  4.1897971703298129
  0.0000000000000000  4.6256400376856526 10.4640208687314598
  0.0000000000000000 16.5816834643532474  4.1897971703298129
  0.0000000000000000 16.5816834643532474 10.4640208687314598
  6.6866790573229409  4.6256400376856526  4.1897971703298129
  6.6866790573229409  4.6256400376856526 10.4640208687314598
  6.6866790573229409 16.5816834643532474  4.1897971703298129
  6.6866790573229409 16.5816834643532474 10.4640208687314598
  0.0000000000000000  7.3304033889819378  4.1897971703298129
  0.0000000000000000  7.3304033889819378 10.4640208687314598
  0.0000000000000000 19.2864468156495263  4.1897971703298129
  0.0000000000000000 19.2864468156495263 10.4640208687314598
  6.6866790573229409  7.3304033889819378  4.1897971703298129
  6.6866790573229409  7.3304033889819378 10.4640208687314598
  6.6866790573229409 19.2864468156495263  4.1897971703298129
  6.6866790573229409 19.2864468156495263 10.4640208687314598
  3.3433395286614709  1.3523816756481424  2.0844265280718313
  3.3433395286614709  1.3523816756481424  8.3586502264734790
  3.3433395286614709 13.3084251023157343  2.0844265280718313
  3.3433395286614709 13.3084251023157343  8.3586502264734790
 10.0300185859844131  1.3523816756481424  2.0844265280718313
 10.0300185859844131  1.3523816756481424  8.3586502264734790
 10.0300185859844131 13.3084251023157343  2.0844265280718313
 10.0300185859844131 13.3084251023157343  8.3586502264734790
  3.3433395286614709 10.6036617510194500  2.0844265280718313
  3.3433395286614709 10.6036617510194500  8.3586502264734790
  3.3433395286614709 22.5597051776870430  2.0844265280718313
  3.3433395286614709 22.5597051776870430  8.3586502264734790
 10.0300185859844131 10.6036617510194500  2.0844265280718313
 10.0300185859844131 10.6036617510194500  8.3586502264734790
 10.0300185859844131 22.5597051776870430  2.0844265280718313
 10.0300185859844131 22.5597051776870430  8.3586502264734790
