 vasp.5.4.4.18Apr17-6-g9f103f2a35 (build Aug 16 2020 16:33:06) complex          
  
 executed on             LinuxIFC date 2026.08.15  14:48:14
 running on   40 total cores
 distrk:  each k-point on   40 cores,    1 groups
 distr:  one band on NCORES_PER_BAND=  20 cores,    2 groups


--------------------------------------------------------------------------------------------------------


 INCAR:
 POTCAR:   PAW_PBE Si 05Jan2001                   

 ----------------------------------------------------------------------------- 
|                                                                             |
|           W    W    AA    RRRRR   N    N  II  N    N   GGGG   !!!           |
|           W    W   A  A   R    R  NN   N  II  NN   N  G    G  !!!           |
|           W    W  A    A  R    R  N N  N  II  N N  N  G       !!!           |
|           W WW W  AAAAAA  RRRRR   N  N N  II  N  N N  G  GGG   !            |
|           WW  WW  A    A  R   R   N   NN  II  N   NN  G    G                |
|           W    W  A    A  R    R  N    N  II  N    N   GGGG   !!!           |
|                                                                             |
|      For optimal performance we recommend to set                            |
|        NCORE= 4 - approx SQRT( number of cores)                             |
|      NCORE specifies how many cores store one orbital (NPAR=cpu/NCORE).     |
|      This setting can  greatly improve the performance of VASP for DFT.     |
|      The default,   NCORE=1            might be grossly inefficient         |
|      on modern multi-core architectures or massively parallel machines.     |
|      Do your own testing !!!!                                               |
|      Unfortunately you need to use the default for GW and RPA calculations. |
|      (for HF NCORE is supported but not extensively tested yet)             |
|                                                                             |
 ----------------------------------------------------------------------------- 

 POTCAR:   PAW_PBE Si 05Jan2001                   
   VRHFIN =Si: s2p2                                                             
   LEXCH  = PE                                                                  
   EATOM  =   103.0669 eV,    7.5752 Ry                                         
                                                                                
   TITEL  = PAW_PBE Si 05Jan2001                                                
   LULTRA =        F    use ultrasoft PP ?                                      
   IUNSCR =        1    unscreen: 0-lin 1-nonlin 2-no                           
   RPACOR =    1.500    partial core radius                                     
   POMASS =   28.085; ZVAL   =    4.000    mass and valenz                      
   RCORE  =    1.900    outmost cutoff radius                                   
   RWIGS  =    2.480; RWIGS  =    1.312    wigner-seitz radius (au A)           
   ENMAX  =  245.345; ENMIN  =  184.009 eV                                      
   ICORE  =        2    local potential                                         
   LCOR   =        T    correct aug charges                                     
   LPAW   =        T    paw PP                                                  
   EAUG   =  322.069                                                            
   DEXC   =    -.007                                                            
   RMAX   =    2.944    core radius for proj-oper                               
   RAUG   =    1.300    factor for augmentation sphere                          
   RDEP   =    1.993    radius for radial grids                                 
   QCUT   =   -4.246; QGAM   =    8.493    optimization parameters              
                                                                                
   Description                                                                  
     l     E      TYP  RCUT    TYP  RCUT                                        
     0   .000     23  1.900                                                     
     0   .000     23  1.900                                                     
     1   .000     23  1.900                                                     
     1   .000     23  1.900                                                     
     2   .000      7  1.900                                                     
  local pseudopotential read in
  partial core-charges read in
  atomic valenz-charges read in
  non local Contribution for L=           0  read in
    real space projection operators read in
  non local Contribution for L=           0  read in
    real space projection operators read in
  non local Contribution for L=           1  read in
    real space projection operators read in
  non local Contribution for L=           1  read in
    real space projection operators read in
    PAW grid and wavefunctions read in
 
   number of l-projection  operators is LMAX  =           4
   number of lm-projection operators is LMMAX =           8
 

 ----------------------------------------------------------------------------- 
|                                                                             |
|  ADVICE TO THIS USER RUNNING 'VASP/VAMP'   (HEAR YOUR MASTER'S VOICE ...):  |
|                                                                             |
|      You have a (more or less) 'large supercell' and for larger cells       |
|      it might be more efficient to use real space projection operators      |
|      So try LREAL= Auto  in the INCAR   file.                               |
|      Mind: If you want to do a very accurate calculations keep the          |
|      reciprocal projection scheme          (i.e. LREAL=.FALSE.)             |
|                                                                             |
 ----------------------------------------------------------------------------- 

 PAW_PBE Si 05Jan2001                   :
 energy of atom  1       EATOM= -103.0669
 kinetic energy error for atom=    0.0006 (will be added to EATOM!!)
 
 
 POSCAR: Si                                      
  positions in direct lattice
  No initial velocities read in
 exchange correlation table for  LEXCH =        8
   RHO(1)=    0.500       N(1)  =     2000
   RHO(2)=  100.500       N(2)  =     4000
 


--------------------------------------------------------------------------------------------------------


 ion  position               nearest neighbor table
   1  0.063  0.062  0.063-   4 2.36  34 2.36  10 2.37   2 2.37
   2  0.000  0.000  0.000-   7 2.37  25 2.37  97 2.37   1 2.37
   3  0.312  0.062  0.063-  36 2.36   4 2.36  12 2.37   6 2.37
   4  0.250  0.000  0.000-   1 2.36   3 2.36  27 2.37  99 2.37
   5  0.562  0.062  0.062-   6 2.37   8 2.37  14 2.37  38 2.37
   6  0.500  0.000  0.000-   5 2.37  29 2.37 101 2.37   3 2.37
   7  0.812  0.062  0.062-   2 2.37   8 2.37  16 2.37  40 2.37
   8  0.750  0.000  0.000-   5 2.37   7 2.37  31 2.37 103 2.37
   9  0.062  0.312  0.062-  10 2.37  12 2.37  18 2.37  42 2.37
  10  0.000  0.250  0.000-   9 2.37  15 2.37 105 2.37   1 2.37
  11  0.312  0.312  0.062-  12 2.37  14 2.37  20 2.37  44 2.37
  12  0.250  0.250  0.000-   9 2.37  11 2.37 107 2.37   3 2.37
  13  0.562  0.312  0.062-  14 2.37  16 2.37  22 2.37  46 2.37
  14  0.500  0.250  0.000-   5 2.37  11 2.37  13 2.37 109 2.37
  15  0.812  0.312  0.062-  10 2.37  16 2.37  24 2.37  48 2.37
  16  0.750  0.250  0.000-   7 2.37  13 2.37  15 2.37 111 2.37
  17  0.062  0.562  0.062-  18 2.37  20 2.37  26 2.37  50 2.37
  18  0.000  0.500  0.000-   9 2.37  17 2.37  23 2.37 113 2.37
  19  0.312  0.562  0.062-  20 2.37  22 2.37  28 2.37  52 2.37
  20  0.250  0.500  0.000-  11 2.37  17 2.37  19 2.37 115 2.37
  21  0.562  0.562  0.062-  22 2.37  24 2.37  30 2.37  54 2.37
  22  0.500  0.500  0.000-  13 2.37  19 2.37  21 2.37 117 2.37
  23  0.812  0.562  0.062-  18 2.37  24 2.37  32 2.37  56 2.37
  24  0.750  0.500  0.000-  15 2.37  21 2.37  23 2.37 119 2.37
  25  0.062  0.812  0.062-   2 2.37  26 2.37  28 2.37  58 2.37
  26  0.000  0.750  0.000-  17 2.37  25 2.37  31 2.37 121 2.37
  27  0.312  0.812  0.062-   4 2.37  28 2.37  30 2.37  60 2.37
  28  0.250  0.750  0.000-  19 2.37  25 2.37  27 2.37 123 2.37
  29  0.562  0.812  0.062-   6 2.37  30 2.37  32 2.37  62 2.37
  30  0.500  0.750  0.000-  21 2.37  27 2.37  29 2.37 125 2.37
  31  0.812  0.812  0.062-   8 2.37  26 2.37  32 2.37  64 2.37
  32  0.750  0.750  0.000-  23 2.37  29 2.37  31 2.37 127 2.37
  33  0.062  0.062  0.312-  34 2.37  36 2.37  42 2.37  66 2.37
  34  0.000  0.000  0.250-   1 2.36  33 2.37  39 2.37  57 2.37
  35  0.312  0.062  0.312-  36 2.37  38 2.37  44 2.37  68 2.37
  36  0.250  0.000  0.250-   3 2.36  33 2.37  35 2.37  59 2.37
  37  0.562  0.062  0.312-  38 2.37  40 2.37  46 2.37  70 2.37
  38  0.500  0.000  0.250-   5 2.37  35 2.37  37 2.37  61 2.37
  39  0.812  0.062  0.312-  34 2.37  40 2.37  48 2.37  72 2.37
  40  0.750  0.000  0.250-   7 2.37  37 2.37  39 2.37  63 2.37
  41  0.062  0.312  0.312-  42 2.37  44 2.37  50 2.37  74 2.37
  42  0.000  0.250  0.250-   9 2.37  33 2.37  41 2.37  47 2.37
  43  0.312  0.312  0.312-  44 2.37  46 2.37  52 2.37  76 2.37
  44  0.250  0.250  0.250-  11 2.37  35 2.37  41 2.37  43 2.37
  45  0.562  0.312  0.312-  46 2.37  48 2.37  54 2.37  78 2.37
  46  0.500  0.250  0.250-  13 2.37  37 2.37  43 2.37  45 2.37
  47  0.812  0.312  0.312-  42 2.37  48 2.37  56 2.37  80 2.37
  48  0.750  0.250  0.250-  15 2.37  39 2.37  45 2.37  47 2.37
  49  0.062  0.562  0.312-  50 2.37  52 2.37  58 2.37  82 2.37
  50  0.000  0.500  0.250-  17 2.37  41 2.37  49 2.37  55 2.37
  51  0.312  0.562  0.312-  52 2.37  54 2.37  60 2.37  84 2.37
  52  0.250  0.500  0.250-  19 2.37  43 2.37  49 2.37  51 2.37
  53  0.562  0.562  0.312-  54 2.37  56 2.37  62 2.37  86 2.37
  54  0.500  0.500  0.250-  21 2.37  45 2.37  51 2.37  53 2.37
  55  0.812  0.562  0.312-  50 2.37  56 2.37  64 2.37  88 2.37
  56  0.750  0.500  0.250-  23 2.37  47 2.37  53 2.37  55 2.37
  57  0.062  0.812  0.312-  34 2.37  58 2.37  60 2.37  90 2.37
  58  0.000  0.750  0.250-  25 2.37  49 2.37  57 2.37  63 2.37
  59  0.312  0.812  0.312-  36 2.37  60 2.37  62 2.37  92 2.37
  60  0.250  0.750  0.250-  27 2.37  51 2.37  57 2.37  59 2.37
  61  0.562  0.812  0.312-  38 2.37  62 2.37  64 2.37  94 2.37
  62  0.500  0.750  0.250-  29 2.37  53 2.37  59 2.37  61 2.37
  63  0.812  0.812  0.312-  40 2.37  58 2.37  64 2.37  96 2.37
  64  0.750  0.750  0.250-  31 2.37  55 2.37  61 2.37  63 2.37
  65  0.062  0.062  0.562-  66 2.37  68 2.37  74 2.37  98 2.37
  66  0.000  0.000  0.500-  33 2.37  65 2.37  71 2.37  89 2.37
  67  0.312  0.062  0.562-  68 2.37  70 2.37  76 2.37 100 2.37
  68  0.250  0.000  0.500-  35 2.37  65 2.37  67 2.37  91 2.37
  69  0.562  0.062  0.562-  70 2.37  72 2.37  78 2.37 102 2.37
  70  0.500  0.000  0.500-  37 2.37  67 2.37  69 2.37  93 2.37
  71  0.812  0.062  0.562-  66 2.37  72 2.37  80 2.37 104 2.37
  72  0.750  0.000  0.500-  39 2.37  69 2.37  71 2.37  95 2.37
  73  0.062  0.312  0.562-  74 2.37  76 2.37  82 2.37 106 2.37
  74  0.000  0.250  0.500-  41 2.37  65 2.37  73 2.37  79 2.37
  75  0.312  0.312  0.562-  76 2.37  78 2.37  84 2.37 108 2.37
  76  0.250  0.250  0.500-  43 2.37  67 2.37  73 2.37  75 2.37
  77  0.562  0.312  0.562-  78 2.37  80 2.37  86 2.37 110 2.37
  78  0.500  0.250  0.500-  45 2.37  69 2.37  75 2.37  77 2.37
  79  0.812  0.312  0.562-  74 2.37  80 2.37  88 2.37 112 2.37
  80  0.750  0.250  0.500-  47 2.37  71 2.37  77 2.37  79 2.37
  81  0.062  0.562  0.562-  82 2.37  84 2.37  90 2.37 114 2.37
  82  0.000  0.500  0.500-  49 2.37  73 2.37  81 2.37  87 2.37
  83  0.312  0.562  0.562-  84 2.37  86 2.37  92 2.37 116 2.37
  84  0.250  0.500  0.500-  51 2.37  75 2.37  81 2.37  83 2.37
  85  0.562  0.562  0.562-  86 2.37  88 2.37  94 2.37 118 2.37
  86  0.500  0.500  0.500-  53 2.37  77 2.37  83 2.37  85 2.37
  87  0.812  0.562  0.562-  82 2.37  88 2.37  96 2.37 120 2.37
  88  0.750  0.500  0.500-  55 2.37  79 2.37  85 2.37  87 2.37
  89  0.062  0.812  0.562-  66 2.37  90 2.37  92 2.37 122 2.37
  90  0.000  0.750  0.500-  57 2.37  81 2.37  89 2.37  95 2.37
  91  0.312  0.812  0.562-  68 2.37  92 2.37  94 2.37 124 2.37
  92  0.250  0.750  0.500-  59 2.37  83 2.37  89 2.37  91 2.37
  93  0.562  0.812  0.562-  70 2.37  94 2.37  96 2.37 126 2.37
  94  0.500  0.750  0.500-  61 2.37  85 2.37  91 2.37  93 2.37
  95  0.812  0.812  0.562-  72 2.37  90 2.37  96 2.37 128 2.37
  96  0.750  0.750  0.500-  63 2.37  87 2.37  93 2.37  95 2.37
  97  0.062  0.062  0.812-   2 2.37  98 2.37 100 2.37 106 2.37
  98  0.000  0.000  0.750-  65 2.37  97 2.37 103 2.37 121 2.37
  99  0.312  0.062  0.812-   4 2.37 100 2.37 102 2.37 108 2.37
 100  0.250  0.000  0.750-  67 2.37  97 2.37  99 2.37 123 2.37
 101  0.562  0.062  0.812-   6 2.37 102 2.37 104 2.37 110 2.37
 102  0.500  0.000  0.750-  69 2.37  99 2.37 101 2.37 125 2.37
 103  0.812  0.062  0.812-   8 2.37  98 2.37 104 2.37 112 2.37
 104  0.750  0.000  0.750-  71 2.37 101 2.37 103 2.37 127 2.37
 105  0.062  0.312  0.812-  10 2.37 106 2.37 108 2.37 114 2.37
 106  0.000  0.250  0.750-  73 2.37  97 2.37 105 2.37 111 2.37
 107  0.312  0.312  0.812-  12 2.37 108 2.37 110 2.37 116 2.37
 108  0.250  0.250  0.750-  75 2.37  99 2.37 105 2.37 107 2.37
 109  0.562  0.312  0.812-  14 2.37 110 2.37 112 2.37 118 2.37
 110  0.500  0.250  0.750-  77 2.37 101 2.37 107 2.37 109 2.37
 111  0.812  0.312  0.812-  16 2.37 106 2.37 112 2.37 120 2.37
 112  0.750  0.250  0.750-  79 2.37 103 2.37 109 2.37 111 2.37
 113  0.062  0.562  0.812-  18 2.37 114 2.37 116 2.37 122 2.37
 114  0.000  0.500  0.750-  81 2.37 105 2.37 113 2.37 119 2.37
 115  0.312  0.562  0.812-  20 2.37 116 2.37 118 2.37 124 2.37
 116  0.250  0.500  0.750-  83 2.37 107 2.37 113 2.37 115 2.37
 117  0.562  0.562  0.812-  22 2.37 118 2.37 120 2.37 126 2.37
 118  0.500  0.500  0.750-  85 2.37 109 2.37 115 2.37 117 2.37
 119  0.812  0.562  0.812-  24 2.37 114 2.37 120 2.37 128 2.37
 120  0.750  0.500  0.750-  87 2.37 111 2.37 117 2.37 119 2.37
 121  0.062  0.812  0.812-  26 2.37  98 2.37 122 2.37 124 2.37
 122  0.000  0.750  0.750-  89 2.37 113 2.37 121 2.37 127 2.37
 123  0.312  0.812  0.812-  28 2.37 100 2.37 124 2.37 126 2.37
 124  0.250  0.750  0.750-  91 2.37 115 2.37 121 2.37 123 2.37
 125  0.562  0.812  0.812-  30 2.37 102 2.37 126 2.37 128 2.37
 126  0.500  0.750  0.750-  93 2.37 117 2.37 123 2.37 125 2.37
 127  0.812  0.812  0.812-  32 2.37 104 2.37 122 2.37 128 2.37
 128  0.750  0.750  0.750-  95 2.37 119 2.37 125 2.37 127 2.37
 

IMPORTANT INFORMATION: All symmetrisations will be switched off!
NOSYMM: (Re-)initialisation of all symmetry stuff for point group C_1.

 
 
 KPOINTS: K-Spacing Value to Generate K-Mesh: 0.03

Automatic generation of k-mesh.
Space group operators:
 irot       det(A)        alpha          n_x          n_y          n_z        tau_x        tau_y        tau_z
    1     1.000000     0.000000     1.000000     0.000000     0.000000     0.000000     0.000000     0.000000
 
 Subroutine IBZKPT returns following result:
 ===========================================
 
 Found      1 irreducible k-points:
 
 Following reciprocal coordinates:
            Coordinates               Weight
  0.000000  0.000000  0.000000      1.000000
 
 Following cartesian coordinates:
            Coordinates               Weight
  0.000000  0.000000  0.000000      1.000000
 


--------------------------------------------------------------------------------------------------------




 Dimension of arrays:
   k-points           NKPTS =      1   k-points in BZ     NKDIM =      1   number of bands    NBANDS=    322
   number of dos      NEDOS =    301   number of ions     NIONS =    128
   non local maximal  LDIM  =      4   non local SUM 2l+1 LMDIM =      8
   total plane-waves  NPLWV = ******
   max r-space proj   IRMAX =      1   max aug-charges    IRDMAX= 176819
   dimension x,y,z NGX =   120 NGY =  120 NGZ =  120
   dimension x,y,z NGXF=   240 NGYF=  240 NGZF=  240
   support grid    NGXF=   480 NGYF=  480 NGZF=  480
   ions per type =             128
   NGX,Y,Z   is equivalent  to a cutoff of  12.90, 12.90, 12.90 a.u.
   NGXF,Y,Z  is equivalent  to a cutoff of  25.80, 25.80, 25.80 a.u.

 SYSTEM =  unknown system                          
 POSCAR =  Si                                      

 Startparameter for this run:
   NWRITE =      2    write-flag & timer
   PREC   = accura    normal or accurate (medium, high low for compatibility)
   ISTART =      0    job   : 0-new  1-cont  2-samecut
   ICHARG =      2    charge: 1-file 2-atom 10-const
   ISPIN  =      1    spin polarized calculation?
   LNONCOLLINEAR =      F non collinear calculations
   LSORBIT =      F    spin-orbit coupling
   INIWAV =      1    electr: 0-lowe 1-rand  2-diag
   LASPH  =      F    aspherical Exc in radial PAW
   METAGGA=      F    non-selfconsistent MetaGGA calc.

 Electronic Relaxation 1
   ENCUT  =  500.0 eV  36.75 Ry    6.06 a.u.  28.20 28.20 28.20*2*pi/ulx,y,z
   ENINI  =  500.0     initial cutoff
   ENAUG  =  322.1 eV  augmentation charge cutoff
   NELM   =     60;   NELMIN=  2; NELMDL= -5     # of ELM steps 
   EDIFF  = 0.1E-07   stopping-criterion for ELM
   LREAL  =      F    real-space projection
   NLSPLINE    = F    spline interpolate recip. space projectors
   LCOMPAT=      F    compatible to vasp.4.4
   GGA_COMPAT  = T    GGA compatible to vasp.4.4-vasp.4.6
   LMAXPAW     = -100 max onsite density
   LMAXMIX     =    2 max onsite mixed and CHGCAR
   VOSKOWN=      0    Vosko Wilk Nusair interpolation
   ROPT   =    0.00000
 Ionic relaxation
   EDIFFG = 0.1E-06   stopping-criterion for IOM
   NSW    =      0    number of steps for IOM
   NBLOCK =      1;   KBLOCK =      1    inner block; outer block 
   IBRION =     -1    ionic relax: 0-MD 1-quasi-New 2-CG
   NFREE  =      0    steps in history (QN), initial steepest desc. (CG)
   ISIF   =      2    stress and relaxation
   IWAVPR =     10    prediction:  0-non 1-charg 2-wave 3-comb
   ISYM   =      0    0-nonsym 1-usesym 2-fastsym
   LCORR  =      T    Harris-Foulkes like correction to forces

   POTIM  = 0.5000    time-step for ionic-motion
   TEIN   =    0.0    initial temperature
   TEBEG  =    0.0;   TEEND  =   0.0 temperature during run
   SMASS  =  -3.00    Nose mass-parameter (am)
   estimated Nose-frequenzy (Omega)   =  0.10E-29 period in steps =****** mass=  -0.547E-26a.u.
   SCALEE = 1.0000    scale energy and forces
   NPACO  =    256;   APACO  = 16.0  distance and # of slots for P.C.
   PSTRESS=    0.0 pullay stress

  Mass of Ions in am
   POMASS =  28.09
  Ionic Valenz
   ZVAL   =   4.00
  Atomic Wigner-Seitz radii
   RWIGS  =  -1.00
  virtual crystal weights 
   VCA    =   1.00
   NELECT =     512.0000    total number of electrons
   NUPDOWN=      -1.0000    fix difference up-down

 DOS related values:
   EMIN   =  10.00;   EMAX   =-10.00  energy-range for DOS
   EFERMI =   0.00
   ISMEAR =     0;   SIGMA  =   0.05  broadening in eV -4-tet -1-fermi 0-gaus

 Electronic relaxation 2 (details)
   IALGO  =     38    algorithm
   LDIAG  =      T    sub-space diagonalisation (order eigenvalues)
   LSUBROT=      F    optimize rotation matrix (better conditioning)
   TURBO    =      0    0=normal 1=particle mesh
   IRESTART =      0    0=no restart 2=restart with 2 vectors
   NREBOOT  =      0    no. of reboots
   NMIN     =      0    reboot dimension
   EREF     =   0.00    reference energy to select bands
   IMIX   =      4    mixing-type and parameters
     AMIX     =   0.40;   BMIX     =  1.00
     AMIX_MAG =   1.60;   BMIX_MAG =  1.00
     AMIN     =   0.10
     WC   =   100.;   INIMIX=   1;  MIXPRE=   1;  MAXMIX= -45

 Intra band minimization:
   WEIMIN = 0.0000     energy-eigenvalue tresh-hold
   EBREAK =  0.78E-11  absolut break condition
   DEPER  =   0.30     relativ break condition  

   TIME   =   0.40     timestep for ELM

  volume/ion in A,a.u.               =      20.44       137.95
  Fermi-wavevector in a.u.,A,eV,Ry     =   0.950423  1.796039 12.290193  0.903304
  Thomas-Fermi vector in A             =   2.078798
 
 Write flags
   LWAVE        =      F    write WAVECAR
   LDOWNSAMPLE  =      F    k-point downsampling of WAVECAR
   LCHARG       =      F    write CHGCAR
   LVTOT        =      F    write LOCPOT, total local potential
   LVHAR        =      F    write LOCPOT, Hartree potential only
   LELF         =      F    write electronic localiz. function (ELF)
   LORBIT       =      0    0 simple, 1 ext, 2 COOP (PROOUT), +10 PAW based schemes


 Dipole corrections
   LMONO  =      F    monopole corrections only (constant potential shift)
   LDIPOL =      F    correct potential (dipole corrections)
   IDIPOL =      0    1-x, 2-y, 3-z, 4-all directions 
   EPSILON=  1.0000000 bulk dielectric constant

 Exchange correlation treatment:
   GGA     =    --    GGA type
   LEXCH   =     8    internal setting for exchange type
   VOSKOWN=      0    Vosko Wilk Nusair interpolation
   LHFCALC =     F    Hartree Fock is set to
   LHFONE  =     F    Hartree Fock one center treatment
   AEXX    =    0.0000 exact exchange contribution

 Linear response parameters
   LEPSILON=     F    determine dielectric tensor
   LRPA    =     F    only Hartree local field effects (RPA)
   LNABLA  =     F    use nabla operator in PAW spheres
   LVEL    =     F    velocity operator in full k-point grid
   LINTERFAST=   F  fast interpolation
   KINTER  =     0    interpolate to denser k-point grid
   CSHIFT  =0.1000    complex shift for real part using Kramers Kronig
   OMEGAMAX=  -1.0    maximum frequency
   DEG_THRESHOLD= 0.2000000E-02 threshold for treating states as degnerate
   RTIME   =   -0.100 relaxation time in fs
  (WPLASMAI=    0.000 imaginary part of plasma frequency in eV, 0.658/RTIME)
   DFIELD  = 0.0000000 0.0000000 0.0000000 field for delta impulse in time
 
 Orbital magnetization related:
   ORBITALMAG=     F  switch on orbital magnetization
   LCHIMAG   =     F  perturbation theory with respect to B field
   DQ        =  0.001000  dq finite difference perturbation B field
   LLRAUG    =     F  two centre corrections for induced B field



--------------------------------------------------------------------------------------------------------


 Static calculation
 charge density and potential will be updated during run
 non-spin polarized calculation
 Variant of blocked Davidson
 Davidson routine will perform the subspace rotation
 perform sub-space diagonalisation
    after iterative eigenvector-optimisation
 modified Broyden-mixing scheme, WC =      100.0
 initial mixing is a Kerker type mixing with AMIX =  0.4000 and BMIX =      1.0000
 Hartree-type preconditioning will be used
 using additional bands           66
 reciprocal scheme for non local part
 use partial core corrections
 calculate Harris-corrections to forces 
   (improved forces if not selfconsistent)
 use gradient corrections 
 use of overlap-Matrix (Vanderbilt PP)
 Gauss-broadening in eV      SIGMA  =   0.05


--------------------------------------------------------------------------------------------------------


  energy-cutoff  :      500.00
  volume of cell :     2616.64
      direct lattice vectors                 reciprocal lattice vectors
     0.000000000 10.937160696 10.937160696    -0.045715704  0.045715704  0.045715704
    10.937160696  0.000000000 10.937160696     0.045715704 -0.045715704  0.045715704
    10.937160696 10.937160696  0.000000000     0.045715704  0.045715704 -0.045715704

  length of vectors
    15.467480990 15.467480990 15.467480990     0.079181922  0.079181922  0.079181922


 
 k-points in units of 2pi/SCALE and weight: K-Spacing Value to Generate K-Mesh: 0.03
   0.00000000  0.00000000  0.00000000       1.000
 
 k-points in reciprocal lattice and weights: K-Spacing Value to Generate K-Mesh: 0.03
   0.00000000  0.00000000  0.00000000       1.000
 
 position of ions in fractional coordinates (direct lattice) 
   0.06295716  0.06204284  0.06295716
   0.00000000  0.00000000  0.00000000
   0.31204284  0.06204284  0.06295716
   0.25000000  0.00000000  0.00000000
   0.56250000  0.06250000  0.06250000
   0.50000000  0.00000000  0.00000000
   0.81250000  0.06250000  0.06250000
   0.75000000  0.00000000  0.00000000
   0.06250000  0.31250000  0.06250000
   0.00000000  0.25000000  0.00000000
   0.31250000  0.31250000  0.06250000
   0.25000000  0.25000000  0.00000000
   0.56250000  0.31250000  0.06250000
   0.50000000  0.25000000  0.00000000
   0.81250000  0.31250000  0.06250000
   0.75000000  0.25000000  0.00000000
   0.06250000  0.56250000  0.06250000
   0.00000000  0.50000000  0.00000000
   0.31250000  0.56250000  0.06250000
   0.25000000  0.50000000  0.00000000
   0.56250000  0.56250000  0.06250000
   0.50000000  0.50000000  0.00000000
   0.81250000  0.56250000  0.06250000
   0.75000000  0.50000000  0.00000000
   0.06250000  0.81250000  0.06250000
   0.00000000  0.75000000  0.00000000
   0.31250000  0.81250000  0.06250000
   0.25000000  0.75000000  0.00000000
   0.56250000  0.81250000  0.06250000
   0.50000000  0.75000000  0.00000000
   0.81250000  0.81250000  0.06250000
   0.75000000  0.75000000  0.00000000
   0.06250000  0.06250000  0.31250000
   0.00000000  0.00000000  0.25000000
   0.31250000  0.06250000  0.31250000
   0.25000000  0.00000000  0.25000000
   0.56250000  0.06250000  0.31250000
   0.50000000  0.00000000  0.25000000
   0.81250000  0.06250000  0.31250000
   0.75000000  0.00000000  0.25000000
   0.06250000  0.31250000  0.31250000
   0.00000000  0.25000000  0.25000000
   0.31250000  0.31250000  0.31250000
   0.25000000  0.25000000  0.25000000
   0.56250000  0.31250000  0.31250000
   0.50000000  0.25000000  0.25000000
   0.81250000  0.31250000  0.31250000
   0.75000000  0.25000000  0.25000000
   0.06250000  0.56250000  0.31250000
   0.00000000  0.50000000  0.25000000
   0.31250000  0.56250000  0.31250000
   0.25000000  0.50000000  0.25000000
   0.56250000  0.56250000  0.31250000
   0.50000000  0.50000000  0.25000000
   0.81250000  0.56250000  0.31250000
   0.75000000  0.50000000  0.25000000
   0.06250000  0.81250000  0.31250000
   0.00000000  0.75000000  0.25000000
   0.31250000  0.81250000  0.31250000
   0.25000000  0.75000000  0.25000000
   0.56250000  0.81250000  0.31250000
   0.50000000  0.75000000  0.25000000
   0.81250000  0.81250000  0.31250000
   0.75000000  0.75000000  0.25000000
   0.06250000  0.06250000  0.56250000
   0.00000000  0.00000000  0.50000000
   0.31250000  0.06250000  0.56250000
   0.25000000  0.00000000  0.50000000
   0.56250000  0.06250000  0.56250000
   0.50000000  0.00000000  0.50000000
   0.81250000  0.06250000  0.56250000
   0.75000000  0.00000000  0.50000000
   0.06250000  0.31250000  0.56250000
   0.00000000  0.25000000  0.50000000
   0.31250000  0.31250000  0.56250000
   0.25000000  0.25000000  0.50000000
   0.56250000  0.31250000  0.56250000
   0.50000000  0.25000000  0.50000000
   0.81250000  0.31250000  0.56250000
   0.75000000  0.25000000  0.50000000
   0.06250000  0.56250000  0.56250000
   0.00000000  0.50000000  0.50000000
   0.31250000  0.56250000  0.56250000
   0.25000000  0.50000000  0.50000000
   0.56250000  0.56250000  0.56250000
   0.50000000  0.50000000  0.50000000
   0.81250000  0.56250000  0.56250000
   0.75000000  0.50000000  0.50000000
   0.06250000  0.81250000  0.56250000
   0.00000000  0.75000000  0.50000000
   0.31250000  0.81250000  0.56250000
   0.25000000  0.75000000  0.50000000
   0.56250000  0.81250000  0.56250000
   0.50000000  0.75000000  0.50000000
   0.81250000  0.81250000  0.56250000
   0.75000000  0.75000000  0.50000000
   0.06250000  0.06250000  0.81250000
   0.00000000  0.00000000  0.75000000
   0.31250000  0.06250000  0.81250000
   0.25000000  0.00000000  0.75000000
   0.56250000  0.06250000  0.81250000
   0.50000000  0.00000000  0.75000000
   0.81250000  0.06250000  0.81250000
   0.75000000  0.00000000  0.75000000
   0.06250000  0.31250000  0.81250000
   0.00000000  0.25000000  0.75000000
   0.31250000  0.31250000  0.81250000
   0.25000000  0.25000000  0.75000000
   0.56250000  0.31250000  0.81250000
   0.50000000  0.25000000  0.75000000
   0.81250000  0.31250000  0.81250000
   0.75000000  0.25000000  0.75000000
   0.06250000  0.56250000  0.81250000
   0.00000000  0.50000000  0.75000000
   0.31250000  0.56250000  0.81250000
   0.25000000  0.50000000  0.75000000
   0.56250000  0.56250000  0.81250000
   0.50000000  0.50000000  0.75000000
   0.81250000  0.56250000  0.81250000
   0.75000000  0.50000000  0.75000000
   0.06250000  0.81250000  0.81250000
   0.00000000  0.75000000  0.75000000
   0.31250000  0.81250000  0.81250000
   0.25000000  0.75000000  0.75000000
   0.56250000  0.81250000  0.81250000
   0.50000000  0.75000000  0.75000000
   0.81250000  0.81250000  0.81250000
   0.75000000  0.75000000  0.75000000
 
 position of ions in cartesian coordinates  (Angst):
   1.36714509  1.37714509  1.36714509
   0.00000000  0.00000000  0.00000000
   1.36714509  4.10143526  4.09143526
   0.00000000  2.73429017  2.73429017
   1.36714509  6.83572544  6.83572544
   0.00000000  5.46858035  5.46858035
   1.36714509  9.57001561  9.57001561
   0.00000000  8.20287052  8.20287052
   4.10143526  1.36714509  4.10143526
   2.73429017  0.00000000  2.73429017
   4.10143526  4.10143526  6.83572544
   2.73429017  2.73429017  5.46858035
   4.10143526  6.83572544  9.57001561
   2.73429017  5.46858035  8.20287052
   4.10143526  9.57001561 12.30430578
   2.73429017  8.20287052 10.93716070
   6.83572544  1.36714509  6.83572544
   5.46858035  0.00000000  5.46858035
   6.83572544  4.10143526  9.57001561
   5.46858035  2.73429017  8.20287052
   6.83572544  6.83572544 12.30430578
   5.46858035  5.46858035 10.93716070
   6.83572544  9.57001561 15.03859596
   5.46858035  8.20287052 13.67145087
   9.57001561  1.36714509  9.57001561
   8.20287052  0.00000000  8.20287052
   9.57001561  4.10143526 12.30430578
   8.20287052  2.73429017 10.93716070
   9.57001561  6.83572544 15.03859596
   8.20287052  5.46858035 13.67145087
   9.57001561  9.57001561 17.77288613
   8.20287052  8.20287052 16.40574104
   4.10143526  4.10143526  1.36714509
   2.73429017  2.73429017  0.00000000
   4.10143526  6.83572544  4.10143526
   2.73429017  5.46858035  2.73429017
   4.10143526  9.57001561  6.83572544
   2.73429017  8.20287052  5.46858035
   4.10143526 12.30430578  9.57001561
   2.73429017 10.93716070  8.20287052
   6.83572544  4.10143526  4.10143526
   5.46858035  2.73429017  2.73429017
   6.83572544  6.83572544  6.83572544
   5.46858035  5.46858035  5.46858035
   6.83572544  9.57001561  9.57001561
   5.46858035  8.20287052  8.20287052
   6.83572544 12.30430578 12.30430578
   5.46858035 10.93716070 10.93716070
   9.57001561  4.10143526  6.83572544
   8.20287052  2.73429017  5.46858035
   9.57001561  6.83572544  9.57001561
   8.20287052  5.46858035  8.20287052
   9.57001561  9.57001561 12.30430578
   8.20287052  8.20287052 10.93716070
   9.57001561 12.30430578 15.03859596
   8.20287052 10.93716070 13.67145087
  12.30430578  4.10143526  9.57001561
  10.93716070  2.73429017  8.20287052
  12.30430578  6.83572544 12.30430578
  10.93716070  5.46858035 10.93716070
  12.30430578  9.57001561 15.03859596
  10.93716070  8.20287052 13.67145087
  12.30430578 12.30430578 17.77288613
  10.93716070 10.93716070 16.40574104
   6.83572544  6.83572544  1.36714509
   5.46858035  5.46858035  0.00000000
   6.83572544  9.57001561  4.10143526
   5.46858035  8.20287052  2.73429017
   6.83572544 12.30430578  6.83572544
   5.46858035 10.93716070  5.46858035
   6.83572544 15.03859596  9.57001561
   5.46858035 13.67145087  8.20287052
   9.57001561  6.83572544  4.10143526
   8.20287052  5.46858035  2.73429017
   9.57001561  9.57001561  6.83572544
   8.20287052  8.20287052  5.46858035
   9.57001561 12.30430578  9.57001561
   8.20287052 10.93716070  8.20287052
   9.57001561 15.03859596 12.30430578
   8.20287052 13.67145087 10.93716070
  12.30430578  6.83572544  6.83572544
  10.93716070  5.46858035  5.46858035
  12.30430578  9.57001561  9.57001561
  10.93716070  8.20287052  8.20287052
  12.30430578 12.30430578 12.30430578
  10.93716070 10.93716070 10.93716070
  12.30430578 15.03859596 15.03859596
  10.93716070 13.67145087 13.67145087
  15.03859596  6.83572544  9.57001561
  13.67145087  5.46858035  8.20287052
  15.03859596  9.57001561 12.30430578
  13.67145087  8.20287052 10.93716070
  15.03859596 12.30430578 15.03859596
  13.67145087 10.93716070 13.67145087
  15.03859596 15.03859596 17.77288613
  13.67145087 13.67145087 16.40574104
   9.57001561  9.57001561  1.36714509
   8.20287052  8.20287052  0.00000000
   9.57001561 12.30430578  4.10143526
   8.20287052 10.93716070  2.73429017
   9.57001561 15.03859596  6.83572544
   8.20287052 13.67145087  5.46858035
   9.57001561 17.77288613  9.57001561
   8.20287052 16.40574104  8.20287052
  12.30430578  9.57001561  4.10143526
  10.93716070  8.20287052  2.73429017
  12.30430578 12.30430578  6.83572544
  10.93716070 10.93716070  5.46858035
  12.30430578 15.03859596  9.57001561
  10.93716070 13.67145087  8.20287052
  12.30430578 17.77288613 12.30430578
  10.93716070 16.40574104 10.93716070
  15.03859596  9.57001561  6.83572544
  13.67145087  8.20287052  5.46858035
  15.03859596 12.30430578  9.57001561
  13.67145087 10.93716070  8.20287052
  15.03859596 15.03859596 12.30430578
  13.67145087 13.67145087 10.93716070
  15.03859596 17.77288613 15.03859596
  13.67145087 16.40574104 13.67145087
  17.77288613  9.57001561  9.57001561
  16.40574104  8.20287052  8.20287052
  17.77288613 12.30430578 12.30430578
  16.40574104 10.93716070 10.93716070
  17.77288613 15.03859596 15.03859596
  16.40574104 13.67145087 13.67145087
  17.77288613 17.77288613 17.77288613
  16.40574104 16.40574104 16.40574104
 


--------------------------------------------------------------------------------------------------------


 k-point  1 :   0.0000 0.0000 0.0000  plane waves:   66299

 maximum and minimum number of plane-waves per node :      3320     3310

 maximum number of plane-waves:     66299
 maximum index in each direction: 
   IXMAX=   28   IYMAX=   28   IZMAX=   28
   IXMIN=  -28   IYMIN=  -28   IZMIN=  -28


 parallel 3D FFT for wavefunctions:
    minimum data exchange during FFTs selected (reduces bandwidth)
 parallel 3D FFT for charge:
    minimum data exchange during FFTs selected (reduces bandwidth)


 total amount of memory used by VASP MPI-rank0   118934. kBytes
=======================================================================

   base      :      30000. kBytes
   nonl-proj :       7011. kBytes
   fftplans  :      53058. kBytes
   grid      :      20148. kBytes
   one-center:         21. kBytes
   wavefun   :       8696. kBytes
 
     INWAV:  cpu time    0.0000: real time    0.0001
 Broyden mixing: mesh for mixing (old mesh)
   NGX = 57   NGY = 57   NGZ = 57
  (NGX  =240   NGY  =240   NGZ  =240)
  gives a total of 185193 points

 initial charge density was supplied:
 charge density of overlapping atoms calculated
 number of electron     512.0000000 magnetization 
 keeping initial charge density in first step


--------------------------------------------------------------------------------------------------------


 Maximum index for augmentation-charges         4439 (set IRDMAX)


--------------------------------------------------------------------------------------------------------


 First call to EWALD:  gamma=   0.129
 Maximum number of real-space cells 3x 3x 3
 Maximum number of reciprocal cells 3x 3x 3

    FEWALD:  cpu time    0.0067: real time    0.0067


--------------------------------------- Iteration      1(   1)  ---------------------------------------


    POTLOK:  cpu time    0.2283: real time    0.2349
    SETDIJ:  cpu time    0.2923: real time    0.2933
     EDDAV:  cpu time    4.8460: real time    4.8618
       DOS:  cpu time    0.0006: real time    0.0006
    --------------------------------------------
      LOOP:  cpu time    5.3673: real time    5.3906

 eigenvalue-minimisations  :   644
 total energy-change (2. order) : 0.1374897E+04  (-0.1908717E+05)
 number of electron     512.0000000 magnetization 
 augmentation part      512.0000000 magnetization 

 Free energy of the ion-electron system (eV)
  ---------------------------------------------------
  alpha Z        PSCENC =       210.78028765
  Ewald energy   TEWEN  =    -14524.86461395
  -Hartree energ DENC   =      -724.62109223
  -exchange      EXHF   =         0.00000000
  -V(xc)+E(xc)   XCENC  =     -1195.83147585
  PAW double counting   =      4221.13331941    -1969.18571412
  entropy T*S    EENTRO =        -0.01580709
  eigenvalues    EBANDS =      2165.02126337
  atomic energy  EATOM  =     13192.48085998
  Solvation  Ediel_sol  =         0.00000000
  ---------------------------------------------------
  free energy    TOTEN  =      1374.89702718 eV

  energy without entropy =     1374.91283426  energy(sigma->0) =     1374.90493072


--------------------------------------------------------------------------------------------------------




--------------------------------------- Iteration      1(   2)  ---------------------------------------


     EDDAV:  cpu time    5.5198: real time    5.5372
       DOS:  cpu time    0.0005: real time    0.0005
    --------------------------------------------
      LOOP:  cpu time    5.5203: real time    5.5377

 eigenvalue-minimisations  :   758
 total energy-change (2. order) :-0.1911917E+04  (-0.1811840E+04)
 number of electron     512.0000000 magnetization 
 augmentation part      512.0000000 magnetization 

 Free energy of the ion-electron system (eV)
  ---------------------------------------------------
  alpha Z        PSCENC =       210.78028765
  Ewald energy   TEWEN  =    -14524.86461395
  -Hartree energ DENC   =      -724.62109223
  -exchange      EXHF   =         0.00000000
  -V(xc)+E(xc)   XCENC  =     -1195.83147585
  PAW double counting   =      4221.13331941    -1969.18571412
  entropy T*S    EENTRO =        -0.00000180
  eigenvalues    EBANDS =       253.08807426
  atomic energy  EATOM  =     13192.48085998
  Solvation  Ediel_sol  =         0.00000000
  ---------------------------------------------------
  free energy    TOTEN  =      -537.02035664 eV

  energy without entropy =     -537.02035484  energy(sigma->0) =     -537.02035574


--------------------------------------------------------------------------------------------------------




--------------------------------------- Iteration      1(   3)  ---------------------------------------


     EDDAV:  cpu time    5.5596: real time    5.5798
       DOS:  cpu time    0.0004: real time    0.0004
    --------------------------------------------
      LOOP:  cpu time    5.5599: real time    5.5801

 eigenvalue-minimisations  :   768
 total energy-change (2. order) :-0.1530038E+03  (-0.1483225E+03)
 number of electron     512.0000000 magnetization 
 augmentation part      512.0000000 magnetization 

 Free energy of the ion-electron system (eV)
  ---------------------------------------------------
  alpha Z        PSCENC =       210.78028765
  Ewald energy   TEWEN  =    -14524.86461395
  -Hartree energ DENC   =      -724.62109223
  -exchange      EXHF   =         0.00000000
  -V(xc)+E(xc)   XCENC  =     -1195.83147585
  PAW double counting   =      4221.13331941    -1969.18571412
  entropy T*S    EENTRO =        -0.00000000
  eigenvalues    EBANDS =       100.08423697
  atomic energy  EATOM  =     13192.48085998
  Solvation  Ediel_sol  =         0.00000000
  ---------------------------------------------------
  free energy    TOTEN  =      -690.02419213 eV

  energy without entropy =     -690.02419213  energy(sigma->0) =     -690.02419213


--------------------------------------------------------------------------------------------------------




--------------------------------------- Iteration      1(   4)  ---------------------------------------


     EDDAV:  cpu time    5.4718: real time    5.4898
       DOS:  cpu time    0.0003: real time    0.0003
    --------------------------------------------
      LOOP:  cpu time    5.4722: real time    5.4902

 eigenvalue-minimisations  :   752
 total energy-change (2. order) :-0.4509024E+01  (-0.4453173E+01)
 number of electron     512.0000000 magnetization 
 augmentation part      512.0000000 magnetization 

 Free energy of the ion-electron system (eV)
  ---------------------------------------------------
  alpha Z        PSCENC =       210.78028765
  Ewald energy   TEWEN  =    -14524.86461395
  -Hartree energ DENC   =      -724.62109223
  -exchange      EXHF   =         0.00000000
  -V(xc)+E(xc)   XCENC  =     -1195.83147585
  PAW double counting   =      4221.13331941    -1969.18571412
  entropy T*S    EENTRO =        -0.00000000
  eigenvalues    EBANDS =        95.57521338
  atomic energy  EATOM  =     13192.48085998
  Solvation  Ediel_sol  =         0.00000000
  ---------------------------------------------------
  free energy    TOTEN  =      -694.53321572 eV

  energy without entropy =     -694.53321572  energy(sigma->0) =     -694.53321572


--------------------------------------------------------------------------------------------------------




--------------------------------------- Iteration      1(   5)  ---------------------------------------


     EDDAV:  cpu time    5.4432: real time    5.4605
       DOS:  cpu time    0.0004: real time    0.0004
    CHARGE:  cpu time    0.5169: real time    0.5183
    MIXING:  cpu time    0.0084: real time    0.0085
    --------------------------------------------
      LOOP:  cpu time    5.9689: real time    5.9877

 eigenvalue-minimisations  :   744
 total energy-change (2. order) :-0.1654897E+00  (-0.1647026E+00)
 number of electron     511.9999999 magnetization 
 augmentation part      -29.7895751 magnetization 

 Broyden mixing:
  rms(total) = 0.24757E+01    rms(broyden)= 0.24757E+01
  rms(prec ) = 0.29957E+01
  weight for this iteration     100.00

 Free energy of the ion-electron system (eV)
  ---------------------------------------------------
  alpha Z        PSCENC =       210.78028765
  Ewald energy   TEWEN  =    -14524.86461395
  -Hartree energ DENC   =      -724.62109223
  -exchange      EXHF   =         0.00000000
  -V(xc)+E(xc)   XCENC  =     -1195.83147585
  PAW double counting   =      4221.13331941    -1969.18571412
  entropy T*S    EENTRO =        -0.00000000
  eigenvalues    EBANDS =        95.40972371
  atomic energy  EATOM  =     13192.48085998
  Solvation  Ediel_sol  =         0.00000000
  ---------------------------------------------------
  free energy    TOTEN  =      -694.69870540 eV

  energy without entropy =     -694.69870540  energy(sigma->0) =     -694.69870540


--------------------------------------------------------------------------------------------------------




--------------------------------------- Iteration      1(   6)  ---------------------------------------


    POTLOK:  cpu time    0.2263: real time    0.2328
    SETDIJ:  cpu time    0.2832: real time    0.2841
     EDDAV:  cpu time    5.1243: real time    5.1379
       DOS:  cpu time    0.0004: real time    0.0004
    CHARGE:  cpu time    0.5058: real time    0.5071
    MIXING:  cpu time    0.0083: real time    0.0083
    --------------------------------------------
      LOOP:  cpu time    6.1483: real time    6.1707

 eigenvalue-minimisations  :   688
 total energy-change (2. order) : 0.8398857E+01  (-0.4784665E+00)
 number of electron     511.9999999 magnetization 
 augmentation part      -29.4083463 magnetization 

 Broyden mixing:
  rms(total) = 0.14788E+01    rms(broyden)= 0.14788E+01
  rms(prec ) = 0.17864E+01
  weight for this iteration     100.00

 eigenvalues of (default mixing * dielectric matrix)
  average eigenvalue GAMMA=   2.4617
  2.4617

 Free energy of the ion-electron system (eV)
  ---------------------------------------------------
  alpha Z        PSCENC =       210.78028765
  Ewald energy   TEWEN  =    -14524.86461395
  -Hartree energ DENC   =      -824.85013220
  -exchange      EXHF   =         0.00000000
  -V(xc)+E(xc)   XCENC  =     -1180.31910291
  PAW double counting   =      4464.76472915    -2219.65166323
  entropy T*S    EENTRO =        -0.00000000
  eigenvalues    EBANDS =       195.35978743
  atomic energy  EATOM  =     13192.48085998
  Solvation  Ediel_sol  =         0.00000000
  ---------------------------------------------------
  free energy    TOTEN  =      -686.29984806 eV

  energy without entropy =     -686.29984806  energy(sigma->0) =     -686.29984806


--------------------------------------------------------------------------------------------------------




--------------------------------------- Iteration      1(   7)  ---------------------------------------


    POTLOK:  cpu time    0.2246: real time    0.2254
    SETDIJ:  cpu time    0.2835: real time    0.2842
     EDDAV:  cpu time    5.0286: real time    5.0421
       DOS:  cpu time    0.0004: real time    0.0004
    CHARGE:  cpu time    0.5057: real time    0.5070
    MIXING:  cpu time    0.0090: real time    0.0090
    --------------------------------------------
      LOOP:  cpu time    6.0517: real time    6.0681

 eigenvalue-minimisations  :   672
 total energy-change (2. order) : 0.3872883E+01  (-0.9698840E+00)
 number of electron     511.9999999 magnetization 
 augmentation part      -28.9142188 magnetization 

 Broyden mixing:
  rms(total) = 0.13038E+00    rms(broyden)= 0.13038E+00
  rms(prec ) = 0.15181E+00
  weight for this iteration     100.00

 eigenvalues of (default mixing * dielectric matrix)
  average eigenvalue GAMMA=   2.4928
  2.4928  2.4928

 Free energy of the ion-electron system (eV)
  ---------------------------------------------------
  alpha Z        PSCENC =       210.78028765
  Ewald energy   TEWEN  =    -14524.86461395
  -Hartree energ DENC   =      -991.88234822
  -exchange      EXHF   =         0.00000000
  -V(xc)+E(xc)   XCENC  =     -1153.93908765
  PAW double counting   =      4789.66637419    -2553.36479979
  entropy T*S    EENTRO =        -0.00000000
  eigenvalues    EBANDS =       348.69636304
  atomic energy  EATOM  =     13192.48085998
  Solvation  Ediel_sol  =         0.00000000
  ---------------------------------------------------
  free energy    TOTEN  =      -682.42696474 eV

  energy without entropy =     -682.42696474  energy(sigma->0) =     -682.42696474


--------------------------------------------------------------------------------------------------------




--------------------------------------- Iteration      1(   8)  ---------------------------------------


    POTLOK:  cpu time    0.2240: real time    0.2247
    SETDIJ:  cpu time    0.2827: real time    0.2835
     EDDAV:  cpu time    5.0550: real time    5.0695
       DOS:  cpu time    0.0005: real time    0.0005
    CHARGE:  cpu time    0.5063: real time    0.5075
    MIXING:  cpu time    0.0101: real time    0.0102
    --------------------------------------------
      LOOP:  cpu time    6.0785: real time    6.0959

 eigenvalue-minimisations  :   672
 total energy-change (2. order) :-0.1320553E+00  (-0.4945889E-01)
 number of electron     511.9999999 magnetization 
 augmentation part      -28.9853269 magnetization 

 Broyden mixing:
  rms(total) = 0.28109E-01    rms(broyden)= 0.28109E-01
  rms(prec ) = 0.37971E-01
  weight for this iteration     100.00

 eigenvalues of (default mixing * dielectric matrix)
  average eigenvalue GAMMA=   2.1011
  1.4519  2.7606  2.0908

 Free energy of the ion-electron system (eV)
  ---------------------------------------------------
  alpha Z        PSCENC =       210.78028765
  Ewald energy   TEWEN  =    -14524.86461395
  -Hartree energ DENC   =      -986.33575631
  -exchange      EXHF   =         0.00000000
  -V(xc)+E(xc)   XCENC  =     -1153.99523561
  PAW double counting   =      4718.77024057    -2480.25227760
  entropy T*S    EENTRO =        -0.00000000
  eigenvalues    EBANDS =       340.85747519
  atomic energy  EATOM  =     13192.48085998
  Solvation  Ediel_sol  =         0.00000000
  ---------------------------------------------------
  free energy    TOTEN  =      -682.55902007 eV

  energy without entropy =     -682.55902007  energy(sigma->0) =     -682.55902007


--------------------------------------------------------------------------------------------------------




--------------------------------------- Iteration      1(   9)  ---------------------------------------


    POTLOK:  cpu time    0.2259: real time    0.2279
    SETDIJ:  cpu time    0.2816: real time    0.2823
     EDDAV:  cpu time    5.5679: real time    5.5827
       DOS:  cpu time    0.0004: real time    0.0004
    CHARGE:  cpu time    0.5035: real time    0.5049
    MIXING:  cpu time    0.0094: real time    0.0094
    --------------------------------------------
      LOOP:  cpu time    6.5888: real time    6.6077

 eigenvalue-minimisations  :   768
 total energy-change (2. order) :-0.6459875E-02  (-0.2455826E-02)
 number of electron     511.9999999 magnetization 
 augmentation part      -28.9800537 magnetization 

 Broyden mixing:
  rms(total) = 0.15916E-01    rms(broyden)= 0.15916E-01
  rms(prec ) = 0.18139E-01
  weight for this iteration     100.00

 eigenvalues of (default mixing * dielectric matrix)
  average eigenvalue GAMMA=   2.2870
  1.0206  3.3871  2.7008  2.0394

 Free energy of the ion-electron system (eV)
  ---------------------------------------------------
  alpha Z        PSCENC =       210.78028765
  Ewald energy   TEWEN  =    -14524.86461395
  -Hartree energ DENC   =      -991.21487167
  -exchange      EXHF   =         0.00000000
  -V(xc)+E(xc)   XCENC  =     -1153.27696447
  PAW double counting   =      4725.23824594    -2486.95708750
  entropy T*S    EENTRO =        -0.00000000
  eigenvalues    EBANDS =       345.24866407
  atomic energy  EATOM  =     13192.48085998
  Solvation  Ediel_sol  =         0.00000000
  ---------------------------------------------------
  free energy    TOTEN  =      -682.56547994 eV

  energy without entropy =     -682.56547994  energy(sigma->0) =     -682.56547994


--------------------------------------------------------------------------------------------------------




--------------------------------------- Iteration      1(  10)  ---------------------------------------


    POTLOK:  cpu time    0.2253: real time    0.2271
    SETDIJ:  cpu time    0.2817: real time    0.2826
     EDDAV:  cpu time    5.0923: real time    5.1057
       DOS:  cpu time    0.0004: real time    0.0004
    CHARGE:  cpu time    0.5031: real time    0.5045
    MIXING:  cpu time    0.0107: real time    0.0107
    --------------------------------------------
      LOOP:  cpu time    6.1136: real time    6.1309

 eigenvalue-minimisations  :   672
 total energy-change (2. order) :-0.2682615E-02  (-0.5890697E-03)
 number of electron     511.9999999 magnetization 
 augmentation part      -28.9811203 magnetization 

 Broyden mixing:
  rms(total) = 0.47799E-02    rms(broyden)= 0.47799E-02
  rms(prec ) = 0.57314E-02
  weight for this iteration     100.00

 eigenvalues of (default mixing * dielectric matrix)
  average eigenvalue GAMMA=   1.9842
  3.2352  2.6091  2.1622  1.0598  0.8547

 Free energy of the ion-electron system (eV)
  ---------------------------------------------------
  alpha Z        PSCENC =       210.78028765
  Ewald energy   TEWEN  =    -14524.86461395
  -Hartree energ DENC   =      -991.21962703
  -exchange      EXHF   =         0.00000000
  -V(xc)+E(xc)   XCENC  =     -1153.35168702
  PAW double counting   =      4721.46589810    -2483.16636743
  entropy T*S    EENTRO =        -0.00000000
  eigenvalues    EBANDS =       345.30708713
  atomic energy  EATOM  =     13192.48085998
  Solvation  Ediel_sol  =         0.00000000
  ---------------------------------------------------
  free energy    TOTEN  =      -682.56816256 eV

  energy without entropy =     -682.56816256  energy(sigma->0) =     -682.56816256


--------------------------------------------------------------------------------------------------------




--------------------------------------- Iteration      1(  11)  ---------------------------------------


    POTLOK:  cpu time    0.2239: real time    0.2259
    SETDIJ:  cpu time    0.2803: real time    0.2812
     EDDAV:  cpu time    5.4915: real time    5.5059
       DOS:  cpu time    0.0004: real time    0.0004
    CHARGE:  cpu time    0.5037: real time    0.5050
    MIXING:  cpu time    0.0090: real time    0.0090
    --------------------------------------------
      LOOP:  cpu time    6.5088: real time    6.5276

 eigenvalue-minimisations  :   760
 total energy-change (2. order) :-0.1368083E-04  (-0.2051217E-04)
 number of electron     511.9999999 magnetization 
 augmentation part      -28.9795966 magnetization 

 Broyden mixing:
  rms(total) = 0.48877E-03    rms(broyden)= 0.48867E-03
  rms(prec ) = 0.56035E-03
  weight for this iteration     100.00

 eigenvalues of (default mixing * dielectric matrix)
  average eigenvalue GAMMA=   2.0254
  3.3644  2.6880  2.1731  1.9526  0.9870  0.9870

 Free energy of the ion-electron system (eV)
  ---------------------------------------------------
  alpha Z        PSCENC =       210.78028765
  Ewald energy   TEWEN  =    -14524.86461395
  -Hartree energ DENC   =      -991.70037119
  -exchange      EXHF   =         0.00000000
  -V(xc)+E(xc)   XCENC  =     -1153.28711774
  PAW double counting   =      4723.34305974    -2485.08920429
  entropy T*S    EENTRO =        -0.00000000
  eigenvalues    EBANDS =       345.76892356
  atomic energy  EATOM  =     13192.48085998
  Solvation  Ediel_sol  =         0.00000000
  ---------------------------------------------------
  free energy    TOTEN  =      -682.56817624 eV

  energy without entropy =     -682.56817624  energy(sigma->0) =     -682.56817624


--------------------------------------------------------------------------------------------------------




--------------------------------------- Iteration      1(  12)  ---------------------------------------


    POTLOK:  cpu time    0.2247: real time    0.2254
    SETDIJ:  cpu time    0.2823: real time    0.2830
     EDDAV:  cpu time    5.3085: real time    5.3225
       DOS:  cpu time    0.0004: real time    0.0004
    CHARGE:  cpu time    0.5043: real time    0.5056
    MIXING:  cpu time    0.0093: real time    0.0093
    --------------------------------------------
      LOOP:  cpu time    6.3295: real time    6.3463

 eigenvalue-minimisations  :   728
 total energy-change (2. order) :-0.3137673E-05  (-0.1296910E-05)
 number of electron     511.9999999 magnetization 
 augmentation part      -28.9793811 magnetization 

 Broyden mixing:
  rms(total) = 0.26176E-03    rms(broyden)= 0.26158E-03
  rms(prec ) = 0.29468E-03
  weight for this iteration     100.00

 eigenvalues of (default mixing * dielectric matrix)
  average eigenvalue GAMMA=   1.9162
  3.3074  2.6857  2.2384  2.2384  1.0267  1.0267  0.8903

 Free energy of the ion-electron system (eV)
  ---------------------------------------------------
  alpha Z        PSCENC =       210.78028765
  Ewald energy   TEWEN  =    -14524.86461395
  -Hartree energ DENC   =      -991.73274876
  -exchange      EXHF   =         0.00000000
  -V(xc)+E(xc)   XCENC  =     -1153.28734894
  PAW double counting   =      4723.40937514    -2485.15089370
  entropy T*S    EENTRO =        -0.00000000
  eigenvalues    EBANDS =       345.79690320
  atomic energy  EATOM  =     13192.48085998
  Solvation  Ediel_sol  =         0.00000000
  ---------------------------------------------------
  free energy    TOTEN  =      -682.56817938 eV

  energy without entropy =     -682.56817938  energy(sigma->0) =     -682.56817938


--------------------------------------------------------------------------------------------------------




--------------------------------------- Iteration      1(  13)  ---------------------------------------


    POTLOK:  cpu time    0.2250: real time    0.2257
    SETDIJ:  cpu time    0.2803: real time    0.2812
     EDDAV:  cpu time    5.4427: real time    5.4570
       DOS:  cpu time    0.0004: real time    0.0004
    CHARGE:  cpu time    0.5033: real time    0.5047
    MIXING:  cpu time    0.0096: real time    0.0096
    --------------------------------------------
      LOOP:  cpu time    6.4614: real time    6.4786

 eigenvalue-minimisations  :   752
 total energy-change (2. order) : 0.2988590E-05  (-0.6024203E-07)
 number of electron     511.9999999 magnetization 
 augmentation part      -28.9794751 magnetization 

 Broyden mixing:
  rms(total) = 0.85636E-04    rms(broyden)= 0.85098E-04
  rms(prec ) = 0.99784E-04
  weight for this iteration     100.00

 eigenvalues of (default mixing * dielectric matrix)
  average eigenvalue GAMMA=   1.8718
  3.3128  2.6996  2.4747  2.1307  0.9635  0.9635  1.2146  1.2146

 Free energy of the ion-electron system (eV)
  ---------------------------------------------------
  alpha Z        PSCENC =       210.78028765
  Ewald energy   TEWEN  =    -14524.86461395
  -Hartree energ DENC   =      -991.72891165
  -exchange      EXHF   =         0.00000000
  -V(xc)+E(xc)   XCENC  =     -1153.28674047
  PAW double counting   =      4723.39334832    -2485.13198028
  entropy T*S    EENTRO =        -0.00000000
  eigenvalues    EBANDS =       345.78957401
  atomic energy  EATOM  =     13192.48085998
  Solvation  Ediel_sol  =         0.00000000
  ---------------------------------------------------
  free energy    TOTEN  =      -682.56817639 eV

  energy without entropy =     -682.56817639  energy(sigma->0) =     -682.56817639


--------------------------------------------------------------------------------------------------------




--------------------------------------- Iteration      1(  14)  ---------------------------------------


    POTLOK:  cpu time    0.2248: real time    0.2255
    SETDIJ:  cpu time    0.2827: real time    0.2834
     EDDAV:  cpu time    5.3518: real time    5.3664
       DOS:  cpu time    0.0004: real time    0.0004
    CHARGE:  cpu time    0.5048: real time    0.5063
    MIXING:  cpu time    0.0111: real time    0.0111
    --------------------------------------------
      LOOP:  cpu time    6.3755: real time    6.3931

 eigenvalue-minimisations  :   728
 total energy-change (2. order) :-0.7409944E-06  (-0.1492059E-07)
 number of electron     511.9999999 magnetization 
 augmentation part      -28.9794352 magnetization 

 Broyden mixing:
  rms(total) = 0.40885E-04    rms(broyden)= 0.39748E-04
  rms(prec ) = 0.52027E-04
  weight for this iteration     100.00

 eigenvalues of (default mixing * dielectric matrix)
  average eigenvalue GAMMA=   1.8156
  3.2918  2.7282  2.4293  2.2612  0.9324  1.0152  1.0152  1.3334  1.3334

 Free energy of the ion-electron system (eV)
  ---------------------------------------------------
  alpha Z        PSCENC =       210.78028765
  Ewald energy   TEWEN  =    -14524.86461395
  -Hartree energ DENC   =      -991.73997607
  -exchange      EXHF   =         0.00000000
  -V(xc)+E(xc)   XCENC  =     -1153.28541683
  PAW double counting   =      4723.43118878    -2485.17000220
  entropy T*S    EENTRO =        -0.00000000
  eigenvalues    EBANDS =       345.79949551
  atomic energy  EATOM  =     13192.48085998
  Solvation  Ediel_sol  =         0.00000000
  ---------------------------------------------------
  free energy    TOTEN  =      -682.56817713 eV

  energy without entropy =     -682.56817713  energy(sigma->0) =     -682.56817713


--------------------------------------------------------------------------------------------------------




--------------------------------------- Iteration      1(  15)  ---------------------------------------


    POTLOK:  cpu time    0.2259: real time    0.2276
    SETDIJ:  cpu time    0.2826: real time    0.2833
     EDDAV:  cpu time    4.2726: real time    4.2861
       DOS:  cpu time    0.0004: real time    0.0004
    CHARGE:  cpu time    0.5027: real time    0.5045
    MIXING:  cpu time    0.0102: real time    0.0103
    --------------------------------------------
      LOOP:  cpu time    5.2945: real time    5.3122

 eigenvalue-minimisations  :   536
 total energy-change (2. order) : 0.1142529E-05  (-0.3380375E-08)
 number of electron     511.9999999 magnetization 
 augmentation part      -28.9794679 magnetization 

 Broyden mixing:
  rms(total) = 0.11611E-04    rms(broyden)= 0.65639E-05
  rms(prec ) = 0.71923E-05
  weight for this iteration     100.00
  WARNING: grid for Broyden might be to small

 eigenvalues of (default mixing * dielectric matrix)
  average eigenvalue GAMMA=   1.8240
  3.2946  2.6676  2.5910  2.0985  2.0773  0.9396  0.9866  1.0323  1.2761  1.2761

 Free energy of the ion-electron system (eV)
  ---------------------------------------------------
  alpha Z        PSCENC =       210.78028765
  Ewald energy   TEWEN  =    -14524.86461395
  -Hartree energ DENC   =      -991.73373188
  -exchange      EXHF   =         0.00000000
  -V(xc)+E(xc)   XCENC  =     -1153.28602071
  PAW double counting   =      4723.40771298    -2485.14569741
  entropy T*S    EENTRO =        -0.00000000
  eigenvalues    EBANDS =       345.79302734
  atomic energy  EATOM  =     13192.48085998
  Solvation  Ediel_sol  =         0.00000000
  ---------------------------------------------------
  free energy    TOTEN  =      -682.56817599 eV

  energy without entropy =     -682.56817599  energy(sigma->0) =     -682.56817599


--------------------------------------------------------------------------------------------------------




--------------------------------------- Iteration      1(  16)  ---------------------------------------


    POTLOK:  cpu time    0.2255: real time    0.2300
    SETDIJ:  cpu time    0.2797: real time    0.2805
     EDDAV:  cpu time    3.2554: real time    3.2642
       DOS:  cpu time    0.0004: real time    0.0004
    CHARGE:  cpu time    0.5037: real time    0.5050
    MIXING:  cpu time    0.0120: real time    0.0120
    --------------------------------------------
      LOOP:  cpu time    4.2767: real time    4.2922

 eigenvalue-minimisations  :   352
 total energy-change (2. order) :-0.8215829E-07  (-0.1975257E-09)
 number of electron     511.9999999 magnetization 
 augmentation part      -28.9794690 magnetization 

 Broyden mixing:
  rms(total) = 0.10095E-04    rms(broyden)= 0.31880E-05
  rms(prec ) = 0.40174E-05
  weight for this iteration     100.00
  WARNING: grid for Broyden might be to small

 eigenvalues of (default mixing * dielectric matrix)
  average eigenvalue GAMMA=   1.8049
  3.2835  2.7811  2.5411  2.2850  2.2850  1.3221  1.3221  1.1739  0.9847  0.9375
  0.9375

 Free energy of the ion-electron system (eV)
  ---------------------------------------------------
  alpha Z        PSCENC =       210.78028765
  Ewald energy   TEWEN  =    -14524.86461395
  -Hartree energ DENC   =      -991.73413497
  -exchange      EXHF   =         0.00000000
  -V(xc)+E(xc)   XCENC  =     -1153.28594022
  PAW double counting   =      4723.40855355    -2485.14666074
  entropy T*S    EENTRO =        -0.00000000
  eigenvalues    EBANDS =       345.79347263
  atomic energy  EATOM  =     13192.48085998
  Solvation  Ediel_sol  =         0.00000000
  ---------------------------------------------------
  free energy    TOTEN  =      -682.56817607 eV

  energy without entropy =     -682.56817607  energy(sigma->0) =     -682.56817607


--------------------------------------------------------------------------------------------------------




--------------------------------------- Iteration      1(  17)  ---------------------------------------


    POTLOK:  cpu time    0.2240: real time    0.2247
    SETDIJ:  cpu time    0.2810: real time    0.2817
     EDDAV:  cpu time    3.2466: real time    3.2552
       DOS:  cpu time    0.0004: real time    0.0004
    CHARGE:  cpu time    0.5039: real time    0.5054
    MIXING:  cpu time    0.0114: real time    0.0115
    --------------------------------------------
      LOOP:  cpu time    4.2673: real time    4.2788

 eigenvalue-minimisations  :   352
 total energy-change (2. order) :-0.1895569E-07  (-0.3135897E-10)
 number of electron     511.9999999 magnetization 
 augmentation part      -28.9794701 magnetization 

 Broyden mixing:
  rms(total) = 0.96287E-05    rms(broyden)= 0.98607E-06
  rms(prec ) = 0.12592E-05
  weight for this iteration     100.00
  WARNING: grid for Broyden might be to small

 eigenvalues of (default mixing * dielectric matrix)
  average eigenvalue GAMMA=   1.7935
  3.2902  2.7181  2.6006  2.1641  2.1130  2.1130  1.2583  1.2583  1.0510  1.0510
  0.9372  0.9672

 Free energy of the ion-electron system (eV)
  ---------------------------------------------------
  alpha Z        PSCENC =       210.78028765
  Ewald energy   TEWEN  =    -14524.86461395
  -Hartree energ DENC   =      -991.73387355
  -exchange      EXHF   =         0.00000000
  -V(xc)+E(xc)   XCENC  =     -1153.28597689
  PAW double counting   =      4723.40835739    -2485.14649284
  entropy T*S    EENTRO =        -0.00000000
  eigenvalues    EBANDS =       345.79327612
  atomic energy  EATOM  =     13192.48085998
  Solvation  Ediel_sol  =         0.00000000
  ---------------------------------------------------
  free energy    TOTEN  =      -682.56817609 eV

  energy without entropy =     -682.56817609  energy(sigma->0) =     -682.56817609


--------------------------------------------------------------------------------------------------------




--------------------------------------- Iteration      1(  18)  ---------------------------------------


    POTLOK:  cpu time    0.2233: real time    0.2241
    SETDIJ:  cpu time    0.2818: real time    0.2824
     EDDAV:  cpu time    3.2867: real time    3.2957
       DOS:  cpu time    0.0004: real time    0.0004
    CHARGE:  cpu time    0.5006: real time    0.5019
    MIXING:  cpu time    0.0129: real time    0.0130
    --------------------------------------------
      LOOP:  cpu time    4.3056: real time    4.3175

 eigenvalue-minimisations  :   352
 total energy-change (2. order) : 0.1824264E-07  (-0.4378609E-11)
 number of electron     511.9999999 magnetization 
 augmentation part      -28.9794706 magnetization 

 Broyden mixing:
  rms(total) = 0.95904E-05    rms(broyden)= 0.48706E-06
  rms(prec ) = 0.61028E-06
  weight for this iteration     100.00
  WARNING: grid for Broyden might be to small

 eigenvalues of (default mixing * dielectric matrix)
  average eigenvalue GAMMA=   1.7905
  3.2923  2.6805  2.6805  2.3650  2.3650  2.1588  1.3788  1.2548  1.2548  1.0062
  1.0426  0.9352  0.8619

 Free energy of the ion-electron system (eV)
  ---------------------------------------------------
  alpha Z        PSCENC =       210.78028765
  Ewald energy   TEWEN  =    -14524.86461395
  -Hartree energ DENC   =      -991.73384309
  -exchange      EXHF   =         0.00000000
  -V(xc)+E(xc)   XCENC  =     -1153.28597978
  PAW double counting   =      4723.40786922    -2485.14599479
  entropy T*S    EENTRO =        -0.00000000
  eigenvalues    EBANDS =       345.79323869
  atomic energy  EATOM  =     13192.48085998
  Solvation  Ediel_sol  =         0.00000000
  ---------------------------------------------------
  free energy    TOTEN  =      -682.56817607 eV

  energy without entropy =     -682.56817607  energy(sigma->0) =     -682.56817607


--------------------------------------------------------------------------------------------------------




--------------------------------------- Iteration      1(  19)  ---------------------------------------


    POTLOK:  cpu time    0.2238: real time    0.2245
    SETDIJ:  cpu time    0.2790: real time    0.2798
     EDDAV:  cpu time    3.2540: real time    3.2628
       DOS:  cpu time    0.0003: real time    0.0003
    --------------------------------------------
      LOOP:  cpu time    3.7572: real time    3.7674

 eigenvalue-minimisations  :   352
 total energy-change (2. order) : 0.1788067E-08  ( 0.1151301E-11)
 number of electron     511.9999999 magnetization 
 augmentation part      -28.9794706 magnetization 

 Free energy of the ion-electron system (eV)
  ---------------------------------------------------
  alpha Z        PSCENC =       210.78028765
  Ewald energy   TEWEN  =    -14524.86461395
  -Hartree energ DENC   =      -991.73383267
  -exchange      EXHF   =         0.00000000
  -V(xc)+E(xc)   XCENC  =     -1153.28598221
  PAW double counting   =      4723.40776473    -2485.14589161
  entropy T*S    EENTRO =        -0.00000000
  eigenvalues    EBANDS =       345.79323200
  atomic energy  EATOM  =     13192.48085998
  Solvation  Ediel_sol  =         0.00000000
  ---------------------------------------------------
  free energy    TOTEN  =      -682.56817607 eV

  energy without entropy =     -682.56817607  energy(sigma->0) =     -682.56817607


--------------------------------------------------------------------------------------------------------




 average (electrostatic) potential at core
  the test charge radii are     0.9892
  (the norm of the test charge is              1.0000)
       1 -83.4136       2 -83.4138       3 -83.4136       4 -83.4134       5 -83.4138
       6 -83.4138       7 -83.4138       8 -83.4139       9 -83.4093      10 -83.4136
      11 -83.4136      12 -83.4136      13 -83.4133      14 -83.4132      15 -83.4136
      16 -83.4132      17 -83.4123      18 -83.4107      19 -83.4135      20 -83.4135
      21 -83.4135      22 -83.4134      23 -83.4123      24 -83.4135      25 -83.4114
      26 -83.4120      27 -83.4135      28 -83.4133      29 -83.4114      30 -83.4133
      31 -83.4131      32 -83.4120      33 -83.4135      34 -83.4139      35 -83.4161
      36 -83.4139      37 -83.4142      38 -83.4142      39 -83.4161      40 -83.4142
      41 -83.4135      42 -83.4132      43 -83.4139      44 -83.4140      45 -83.4139
      46 -83.4138      47 -83.4135      48 -83.4140      49 -83.4135      50 -83.4134
      51 -83.4141      52 -83.4138      53 -83.4135      54 -83.4138      55 -83.4135
      56 -83.4134      57 -83.4137      58 -83.4135      59 -83.4137      60 -83.4144
      61 -83.4137      62 -83.4135      63 -83.4137      64 -83.4136      65 -83.4140
      66 -83.4135      67 -83.4151      68 -83.4154      69 -83.4151      70 -83.4143
      71 -83.4140      72 -83.4154      73 -83.4136      74 -83.4136      75 -83.4142
      76 -83.4140      77 -83.4136      78 -83.4140      79 -83.4137      80 -83.4136
      81 -83.4137      82 -83.4136      83 -83.4137      84 -83.4141      85 -83.4137
      86 -83.4136      87 -83.4137      88 -83.4137      89 -83.4135      90 -83.4136
      91 -83.4140      92 -83.4136      93 -83.4139      94 -83.4138      95 -83.4140
      96 -83.4138      97 -83.4141      98 -83.4140      99 -83.4182     100 -83.4155
     101 -83.4141     102 -83.4155     103 -83.4139     104 -83.4140     105 -83.4138
     106 -83.4135     107 -83.4138     108 -83.4143     109 -83.4136     110 -83.4135
     111 -83.4136     112 -83.4137     113 -83.4131     114 -83.4137     115 -83.4137
     116 -83.4137     117 -83.4137     118 -83.4137     119 -83.4137     120 -83.4137
     121 -83.4134     122 -83.4133     123 -83.4140     124 -83.4138     125 -83.4140
     126 -83.4139     127 -83.4134     128 -83.4138
 
 
 
 E-fermi :   5.9204     XC(G=0):  -9.3007     alpha+bet :-11.7327


 k-point     1 :       0.0000    0.0000    0.0000
  band No.  band energies     occupation 
      1      -6.1630      2.00000
      2      -5.3797      2.00000
      3      -5.3779      2.00000
      4      -5.3776      2.00000
      5      -5.3775      2.00000
      6      -5.3773      2.00000
      7      -5.3771      2.00000
      8      -5.3764      2.00000
      9      -5.3763      2.00000
     10      -5.1012      2.00000
     11      -5.0999      2.00000
     12      -5.0999      2.00000
     13      -5.0994      2.00000
     14      -5.0990      2.00000
     15      -5.0984      2.00000
     16      -4.1602      2.00000
     17      -4.1579      2.00000
     18      -4.1578      2.00000
     19      -4.1571      2.00000
     20      -4.1570      2.00000
     21      -4.1570      2.00000
     22      -4.1569      2.00000
     23      -4.1569      2.00000
     24      -4.1563      2.00000
     25      -4.1563      2.00000
     26      -4.1554      2.00000
     27      -4.1547      2.00000
     28      -3.8821      2.00000
     29      -3.8812      2.00000
     30      -3.8812      2.00000
     31      -3.8803      2.00000
     32      -3.5018      2.00000
     33      -3.4999      2.00000
     34      -3.4981      2.00000
     35      -3.4968      2.00000
     36      -3.4966      2.00000
     37      -3.4966      2.00000
     38      -3.4964      2.00000
     39      -3.4964      2.00000
     40      -3.4964      2.00000
     41      -3.4963      2.00000
     42      -3.4963      2.00000
     43      -3.4963      2.00000
     44      -3.4962      2.00000
     45      -3.4961      2.00000
     46      -3.4961      2.00000
     47      -3.4960      2.00000
     48      -3.4960      2.00000
     49      -3.4959      2.00000
     50      -3.4958      2.00000
     51      -3.4956      2.00000
     52      -3.4946      2.00000
     53      -3.4946      2.00000
     54      -3.4933      2.00000
     55      -3.4914      2.00000
     56      -2.0921      2.00000
     57      -2.0921      2.00000
     58      -2.0909      2.00000
     59      -2.0909      2.00000
     60      -2.0898      2.00000
     61      -2.0898      2.00000
     62      -1.9379      2.00000
     63      -1.9376      2.00000
     64      -1.9362      2.00000
     65      -1.9356      2.00000
     66      -1.9355      2.00000
     67      -1.9354      2.00000
     68      -1.9353      2.00000
     69      -1.9352      2.00000
     70      -1.9349      2.00000
     71      -1.9339      2.00000
     72      -1.9338      2.00000
     73      -1.9334      2.00000
     74      -1.2194      2.00000
     75      -1.2184      2.00000
     76      -1.2184      2.00000
     77      -1.2175      2.00000
     78      -0.6723      2.00000
     79      -0.6722      2.00000
     80      -0.6719      2.00000
     81      -0.6692      2.00000
     82      -0.6692      2.00000
     83      -0.6690      2.00000
     84      -0.6688      2.00000
     85      -0.6688      2.00000
     86      -0.6688      2.00000
     87      -0.6687      2.00000
     88      -0.6687      2.00000
     89      -0.6686      2.00000
     90      -0.6686      2.00000
     91      -0.6685      2.00000
     92      -0.6684      2.00000
     93      -0.6684      2.00000
     94      -0.6683      2.00000
     95      -0.6683      2.00000
     96      -0.6682      2.00000
     97      -0.6682      2.00000
     98      -0.6671      2.00000
     99      -0.6663      2.00000
    100      -0.6661      2.00000
    101      -0.6642      2.00000
    102       0.2149      2.00000
    103       0.2151      2.00000
    104       0.2154      2.00000
    105       0.2166      2.00000
    106       0.2167      2.00000
    107       0.2167      2.00000
    108       0.2168      2.00000
    109       0.2169      2.00000
    110       0.2171      2.00000
    111       0.2178      2.00000
    112       0.2181      2.00000
    113       0.2188      2.00000
    114       1.7663      2.00000
    115       1.7671      2.00000
    116       1.7672      2.00000
    117       1.7676      2.00000
    118       1.7679      2.00000
    119       1.7680      2.00000
    120       1.7691      2.00000
    121       1.7693      2.00000
    122       1.8840      2.00000
    123       1.8854      2.00000
    124       1.8856      2.00000
    125       1.8857      2.00000
    126       1.8859      2.00000
    127       1.8860      2.00000
    128       1.8861      2.00000
    129       1.8862      2.00000
    130       1.8864      2.00000
    131       1.8865      2.00000
    132       1.8868      2.00000
    133       1.8873      2.00000
    134       1.9775      2.00000
    135       1.9779      2.00000
    136       1.9780      2.00000
    137       1.9786      2.00000
    138       1.9787      2.00000
    139       1.9789      2.00000
    140       1.9790      2.00000
    141       1.9792      2.00000
    142       1.9794      2.00000
    143       1.9794      2.00000
    144       1.9800      2.00000
    145       1.9800      2.00000
    146       2.1397      2.00000
    147       2.1404      2.00000
    148       2.1409      2.00000
    149       2.1411      2.00000
    150       2.1419      2.00000
    151       2.1424      2.00000
    152       2.1836      2.00000
    153       2.1850      2.00000
    154       2.1853      2.00000
    155       2.1857      2.00000
    156       2.1863      2.00000
    157       2.1864      2.00000
    158       2.1865      2.00000
    159       2.1866      2.00000
    160       2.1866      2.00000
    161       2.1867      2.00000
    162       2.1868      2.00000
    163       2.1869      2.00000
    164       2.1870      2.00000
    165       2.1870      2.00000
    166       2.1872      2.00000
    167       2.1872      2.00000
    168       2.1873      2.00000
    169       2.1873      2.00000
    170       2.1874      2.00000
    171       2.1876      2.00000
    172       2.1883      2.00000
    173       2.1887      2.00000
    174       2.1893      2.00000
    175       2.1895      2.00000
    176       2.8560      2.00000
    177       2.8565      2.00000
    178       2.8566      2.00000
    179       2.8566      2.00000
    180       2.8567      2.00000
    181       2.8572      2.00000
    182       3.4889      2.00000
    183       3.4902      2.00000
    184       3.4911      2.00000
    185       3.4913      2.00000
    186       3.4920      2.00000
    187       3.4920      2.00000
    188       3.4923      2.00000
    189       3.4923      2.00000
    190       3.4924      2.00000
    191       3.4924      2.00000
    192       3.4925      2.00000
    193       3.4925      2.00000
    194       3.4926      2.00000
    195       3.4926      2.00000
    196       3.4927      2.00000
    197       3.4927      2.00000
    198       3.4929      2.00000
    199       3.4929      2.00000
    200       3.4930      2.00000
    201       3.4932      2.00000
    202       3.4932      2.00000
    203       3.4942      2.00000
    204       3.4944      2.00000
    205       3.4961      2.00000
    206       3.8020      2.00000
    207       3.8022      2.00000
    208       3.8035      2.00000
    209       3.8036      2.00000
    210       3.8038      2.00000
    211       3.8038      2.00000
    212       3.8039      2.00000
    213       3.8039      2.00000
    214       3.8041      2.00000
    215       3.8042      2.00000
    216       3.8055      2.00000
    217       3.8057      2.00000
    218       4.3508      2.00000
    219       4.3513      2.00000
    220       4.3519      2.00000
    221       4.3525      2.00000
    222       4.3527      2.00000
    223       4.3527      2.00000
    224       4.3529      2.00000
    225       4.3531      2.00000
    226       4.3531      2.00000
    227       4.3537      2.00000
    228       4.3541      2.00000
    229       4.3550      2.00000
    230       4.4763      2.00000
    231       4.4766      2.00000
    232       4.4773      2.00000
    233       4.4776      2.00000
    234       4.4778      2.00000
    235       4.4781      2.00000
    236       4.4788      2.00000
    237       4.4792      2.00000
    238       4.9081      2.00000
    239       4.9095      2.00000
    240       4.9112      2.00000
    241       4.9113      2.00000
    242       4.9116      2.00000
    243       4.9116      2.00000
    244       4.9117      2.00000
    245       4.9118      2.00000
    246       4.9118      2.00000
    247       4.9119      2.00000
    248       4.9119      2.00000
    249       4.9120      2.00000
    250       4.9122      2.00000
    251       4.9123      2.00000
    252       4.9145      2.00000
    253       4.9153      2.00000
    254       5.6594      2.00000
    255       5.6604      2.00000
    256       5.6615      2.00000
    257       6.3939      0.00000
    258       6.3949      0.00000
    259       6.3951      0.00000
    260       6.3951      0.00000
    261       6.3953      0.00000
    262       6.3963      0.00000
    263       6.7951      0.00000
    264       6.7954      0.00000
    265       6.7962      0.00000
    266       6.7965      0.00000
    267       6.7970      0.00000
    268       6.7973      0.00000
    269       7.1206      0.00000
    270       7.1208      0.00000
    271       7.1209      0.00000
    272       7.1211      0.00000
    273       7.1816      0.00000
    274       7.1835      0.00000
    275       7.1837      0.00000
    276       7.1852      0.00000
    277       7.1857      0.00000
    278       7.1857      0.00000
    279       7.1858      0.00000
    280       7.1858      0.00000
    281       7.1859      0.00000
    282       7.1859      0.00000
    283       7.1860      0.00000
    284       7.1861      0.00000
    285       7.1861      0.00000
    286       7.1861      0.00000
    287       7.1861      0.00000
    288       7.1861      0.00000
    289       7.1862      0.00000
    290       7.1862      0.00000
    291       7.1863      0.00000
    292       7.1863      0.00000
    293       7.1876      0.00000
    294       7.1877      0.00000
    295       7.1891      0.00000
    296       7.1894      0.00000
    297       7.6112      0.00000
    298       7.6113      0.00000
    299       7.6118      0.00000
    300       7.6120      0.00000
    301       7.6122      0.00000
    302       7.6128      0.00000
    303       7.6131      0.00000
    304       7.6134      0.00000
    305       8.0811      0.00000
    306       8.0815      0.00000
    307       8.0819      0.00000
    308       8.0825      0.00000
    309       8.0828      0.00000
    310       8.0829      0.00000
    311       8.0830      0.00000
    312       8.0830      0.00000
    313       8.0838      0.00000
    314       8.0840      0.00000
    315       8.0842      0.00000
    316       8.0844      0.00000
    317       8.1987      0.00000
    318       8.1993      0.00000
    319       8.2000      0.00000
    320       8.7787      0.00000
    321       8.7792      0.00000
    322       8.7875      0.00000


--------------------------------------------------------------------------------------------------------


 soft charge-density along one line, spin component           1
         0         1         2         3         4         5         6         7         8         9
 total charge-density along one line
 
 pseudopotential strength for first ion, spin component:           1
 18.431  -0.001   0.000  -0.000   0.000  -0.000  -0.000  -0.000
 -0.001   0.006  -0.000  -0.000  -0.000   0.000   0.000   0.000
  0.000  -0.000   4.180   0.000   0.000  -0.005  -0.000  -0.000
 -0.000  -0.000   0.000   4.180  -0.000  -0.000  -0.005   0.000
  0.000  -0.000   0.000  -0.000   4.180  -0.000   0.000  -0.005
 -0.000   0.000  -0.005  -0.000  -0.000   0.005   0.000  -0.000
 -0.000   0.000  -0.000  -0.005   0.000   0.000   0.005  -0.000
 -0.000   0.000  -0.000   0.000  -0.005  -0.000  -0.000   0.005
 total augmentation occupancy for first ion, spin component:           1
  1.463  -0.793   0.003   0.000   0.000  -0.004  -0.000   0.000
 -0.793   0.733  -0.003   0.000   0.000   0.004   0.000   0.000
  0.003  -0.003   1.037   0.000  -0.000  -0.551   0.000   0.000
  0.000   0.000   0.000   1.037  -0.004   0.000  -0.551   0.005
  0.000   0.000  -0.000  -0.004   1.037   0.000   0.005  -0.551
 -0.004   0.004  -0.551   0.000   0.000   0.351  -0.000   0.000
 -0.000   0.000   0.000  -0.551   0.005  -0.000   0.351  -0.004
  0.000   0.000   0.000   0.005  -0.551   0.000  -0.004   0.351


------------------------ aborting loop because EDIFF is reached ----------------------------------------


    CHARGE:  cpu time    0.5046: real time    0.5059
    FORLOC:  cpu time    0.2006: real time    0.2011
    FORNL :  cpu time    5.5694: real time    5.5832
    STRESS:  cpu time    8.9117: real time    8.9340
    FORCOR:  cpu time    0.4136: real time    0.4146
    FORHAR:  cpu time    0.2493: real time    0.2499
    MIXING:  cpu time    0.0101: real time    0.0101
    OFIELD:  cpu time    0.0001: real time    0.0001

  FORCE on cell =-STRESS in cart. coord.  units (eV):
  Direction    XX          YY          ZZ          XY          YZ          ZX
  --------------------------------------------------------------------------------------
  Alpha Z   210.78029   210.78029   210.78029
  Ewald   -4841.66448 -4841.67346 -4841.67346     0.77485     0.00071    -0.77485
  Hartree   330.57908   330.57736   330.57736     0.08844     0.00031    -0.08844
  E(xc)   -1619.14457 -1619.14448 -1619.14448    -0.00662     0.00001     0.00664
  Local   -1899.81378 -1899.80356 -1899.80356    -0.81824    -0.00078     0.81878
  n-local  4936.76855  4936.76672  4936.76672     0.15914     0.00001    -0.15914
  augment  -736.53103  -736.53094  -736.53094    -0.00729    -0.00028     0.00675
  Kinetic  3628.38856  3628.38908  3628.38908    -0.10310     0.00005     0.10310
  Fock        0.00000     0.00000     0.00000     0.00000     0.00000     0.00000
  -------------------------------------------------------------------------------------
  Total       9.36262     9.36100     9.36100     0.08719     0.00004    -0.08716
  in kB       5.73277     5.73178     5.73178     0.05339     0.00002    -0.05337
  external pressure =        5.73 kB  Pullay stress =        0.00 kB


 VOLUME and BASIS-vectors are now :
 -----------------------------------------------------------------------------
  energy-cutoff  :      500.00
  volume of cell :     2616.64
      direct lattice vectors                 reciprocal lattice vectors
     0.000000000 10.937160696 10.937160696    -0.045715704  0.045715704  0.045715704
    10.937160696  0.000000000 10.937160696     0.045715704 -0.045715704  0.045715704
    10.937160696 10.937160696  0.000000000     0.045715704  0.045715704 -0.045715704

  length of vectors
    15.467480990 15.467480990 15.467480990     0.079181922  0.079181922  0.079181922


 FORCES acting on ions
    electron-ion (+dipol)            ewald-force                    non-local-force                 convergence-correction
 -----------------------------------------------------------------------------------------------
   -.816E-03 0.585E+00 0.254E-01   -.924E-14 -.529E+00 -.238E-01   -.156E-03 -.188E+00 -.315E-02   0.946E-07 -.192E-05 -.235E-06
   -.195E+00 0.129E-01 -.192E+00   0.169E+00 -.124E-01 0.165E+00   0.470E-01 0.319E-01 0.471E-01   0.617E-06 -.543E-06 0.572E-06
   -.816E-03 -.254E-01 -.585E+00   -.195E-13 0.238E-01 0.529E+00   -.156E-03 0.315E-02 0.188E+00   0.135E-07 0.980E-07 0.184E-05
   0.404E+00 0.198E+00 -.198E+00   -.348E+00 -.171E+00 0.171E+00   -.965E-01 -.149E-01 0.149E-01   -.960E-06 -.857E-06 0.848E-06
   0.728E-03 0.516E-01 0.128E-01   0.386E-13 -.526E-01 -.109E-01   0.219E-03 -.849E-03 -.314E-02   0.468E-07 -.669E-06 -.110E-07
   -.195E+00 0.192E+00 -.129E-01   0.169E+00 -.165E+00 0.124E-01   0.470E-01 -.471E-01 -.319E-01   0.561E-06 -.670E-06 0.475E-06
   0.728E-03 -.128E-01 -.516E-01   0.522E-13 0.109E-01 0.526E-01   0.219E-03 0.314E-02 0.849E-03   -.491E-07 0.837E-07 0.827E-06
   -.114E-01 0.955E-02 -.955E-02   0.927E-02 -.847E-02 0.847E-02   0.119E-02 -.107E-02 0.107E-02   -.111E-06 -.226E-06 0.420E-06
   -.112E-01 0.303E-01 -.303E-01   -.218E-03 -.360E-01 0.360E-01   0.133E-01 -.209E-03 0.209E-03   -.196E-06 0.234E-07 -.172E-06
   0.196E+00 0.161E-01 0.188E+00   -.167E+00 -.159E-01 -.159E+00   -.493E-01 0.327E-01 -.488E-01   -.699E-06 -.636E-06 -.816E-06
   0.570E-01 -.233E-03 0.173E-01   -.578E-01 0.447E-03 -.156E-01   -.151E-02 0.842E-03 -.318E-02   -.736E-06 0.803E-07 -.107E-06
   0.196E+00 -.188E+00 -.161E-01   -.167E+00 0.159E+00 0.159E-01   -.493E-01 0.488E-01 -.327E-01   -.766E-06 0.708E-06 0.572E-06
   0.147E-01 -.246E-02 0.247E-02   -.160E-01 0.211E-02 -.211E-02   0.916E-03 0.193E-03 -.193E-03   -.545E-07 0.836E-07 0.395E-08
   0.227E-01 0.145E-01 0.290E-01   -.215E-01 -.141E-01 -.298E-01   -.709E-03 -.279E-04 0.840E-03   -.242E-06 -.101E-06 -.174E-06
   0.570E-01 -.173E-01 0.233E-03   -.578E-01 0.156E-01 -.447E-03   -.151E-02 0.318E-02 -.842E-03   -.804E-06 0.167E-06 -.796E-07
   0.227E-01 -.290E-01 -.145E-01   -.215E-01 0.298E-01 0.141E-01   -.709E-03 -.840E-03 0.280E-04   -.332E-06 0.259E-06 0.189E-06
   0.714E-02 -.409E-02 -.498E-05   -.804E-02 -.166E-02 -.481E-03   0.685E-03 0.380E-02 0.382E-03   0.201E-07 -.470E-07 0.138E-06
   0.415E-02 0.100E-01 -.100E-01   -.931E-02 -.110E-02 0.110E-02   0.610E-02 -.734E-02 0.734E-02   0.291E-06 -.332E-06 0.268E-06
   0.201E-01 -.974E-03 0.105E-01   -.208E-01 0.447E-03 -.979E-02   0.931E-04 0.631E-03 -.607E-03   0.757E-07 -.395E-07 0.418E-06
   0.202E-01 -.466E-02 0.685E-02   -.180E-01 0.303E-02 -.734E-02   -.222E-02 0.107E-02 0.132E-03   -.741E-07 -.160E-06 0.250E-06
   0.201E-01 -.105E-01 0.974E-03   -.208E-01 0.979E-02 -.447E-03   0.932E-04 0.607E-03 -.631E-03   0.483E-07 -.325E-06 -.155E-07
   0.187E-01 -.475E-02 0.475E-02   -.180E-01 0.523E-02 -.523E-02   -.535E-03 -.269E-03 0.269E-03   0.383E-07 -.536E-07 0.103E-06
   0.714E-02 0.500E-05 0.409E-02   -.804E-02 0.481E-03 0.166E-02   0.684E-03 -.382E-03 -.380E-02   0.800E-08 -.148E-06 0.347E-07
   0.202E-01 -.685E-02 0.466E-02   -.180E-01 0.734E-02 -.303E-02   -.222E-02 -.132E-03 -.107E-02   -.133E-06 -.214E-06 0.116E-06
   0.130E-01 0.321E-01 0.151E-01   -.794E-02 -.441E-01 -.100E-01   -.614E-02 0.697E-02 -.607E-02   0.708E-07 -.389E-07 0.246E-06
   0.156E-02 0.157E-01 0.144E-02   0.162E-02 -.880E-02 0.959E-03   -.326E-02 -.450E-02 -.262E-02   -.184E-06 -.115E-06 -.189E-07
   0.120E+00 -.258E-01 0.258E-01   -.121E+00 0.235E-01 -.235E-01   -.295E-02 0.296E-02 -.296E-02   -.124E-05 0.912E-07 -.188E-06
   0.399E-01 0.183E-01 0.133E-01   -.374E-01 -.186E-01 -.149E-01   -.238E-02 0.576E-03 0.113E-02   -.333E-06 0.290E-06 0.395E-06
   0.130E-01 -.151E-01 -.321E-01   -.794E-02 0.100E-01 0.441E-01   -.614E-02 0.607E-02 -.697E-02   -.477E-07 -.125E-06 -.560E-07
   0.399E-01 -.133E-01 -.183E-01   -.374E-01 0.149E-01 0.186E-01   -.238E-02 -.113E-02 -.576E-03   -.362E-06 -.348E-06 -.322E-06
   -.645E-02 0.715E-02 -.715E-02   0.457E-02 -.756E-02 0.756E-02   0.134E-02 0.303E-03 -.303E-03   -.464E-08 -.468E-07 0.104E-06
   0.156E-02 -.144E-02 -.157E-01   0.162E-02 -.959E-03 0.880E-02   -.326E-02 0.262E-02 0.450E-02   -.283E-06 0.433E-07 0.934E-07
   -.120E+00 -.243E-01 0.243E-01   0.121E+00 0.235E-01 -.235E-01   0.298E-02 0.330E-02 -.330E-02   0.118E-05 -.189E-07 -.223E-06
   -.223E+00 0.177E-01 0.240E+00   0.195E+00 -.177E-01 -.213E+00   0.485E-01 0.332E-01 -.477E-01   0.758E-06 -.672E-06 -.764E-06
   -.150E-02 -.395E-02 -.321E-01   0.794E-02 0.100E-01 0.441E-01   -.719E-02 -.701E-02 -.691E-02   0.184E-06 0.929E-07 0.864E-07
   -.223E+00 -.240E+00 -.177E-01   0.195E+00 0.213E+00 0.177E-01   0.485E-01 0.477E-01 -.332E-01   0.628E-06 0.657E-06 0.566E-06
   0.507E-02 0.682E-02 -.682E-02   -.457E-02 -.756E-02 0.756E-02   0.432E-04 0.695E-03 -.695E-03   0.418E-06 0.502E-07 -.772E-08
   0.283E-02 0.152E-01 -.218E-01   -.546E-02 -.142E-01 0.229E-01   0.213E-02 -.586E-03 -.915E-03   0.341E-06 -.221E-06 -.153E-06
   -.150E-02 0.321E-01 0.395E-02   0.794E-02 -.441E-01 -.100E-01   -.719E-02 0.691E-02 0.701E-02   0.111E-06 0.324E-07 -.705E-08
   0.283E-02 0.218E-01 -.152E-01   -.546E-02 -.229E-01 0.142E-01   0.213E-02 0.915E-03 0.586E-03   0.293E-06 0.297E-06 0.299E-06
   -.777E-02 -.143E-02 -.128E-01   0.799E-02 0.447E-03 0.118E-01   -.690E-04 0.109E-02 0.469E-03   0.496E-07 0.267E-06 -.386E-06
   -.432E-01 0.171E-01 -.171E-01   0.409E-01 -.205E-01 0.205E-01   0.158E-02 0.283E-02 -.283E-02   0.406E-06 0.415E-06 -.638E-06
   0.783E-02 -.123E-02 0.101E-02   -.804E-02 0.140E-02 -.481E-03   0.623E-04 0.205E-03 -.633E-03   -.577E-07 0.345E-06 -.154E-06
   0.161E-01 0.403E-03 -.180E-01   -.149E-01 -.287E-02 0.195E-01   -.857E-03 0.203E-02 -.124E-02   -.178E-06 0.391E-06 -.278E-06
   0.783E-02 -.101E-02 0.123E-02   -.804E-02 0.481E-03 -.140E-02   0.623E-04 0.633E-03 -.205E-03   -.592E-07 0.168E-06 -.253E-06
   0.110E-01 0.134E-02 -.134E-02   -.112E-01 -.190E-02 0.190E-02   0.123E-03 0.442E-03 -.442E-03   -.371E-07 0.162E-06 -.644E-07
   -.777E-02 0.128E-01 0.143E-02   0.799E-02 -.118E-01 -.447E-03   -.691E-04 -.469E-03 -.109E-02   -.619E-07 0.366E-06 -.337E-06
   0.161E-01 0.180E-01 -.403E-03   -.149E-01 -.195E-01 0.287E-02   -.856E-03 0.124E-02 -.203E-02   -.186E-06 0.347E-06 -.346E-06
   0.718E-02 -.111E-02 0.131E-01   -.706E-02 0.447E-03 -.136E-01   0.151E-03 0.779E-03 0.269E-03   0.279E-06 0.808E-07 -.671E-07
   0.209E-02 0.620E-03 0.171E-02   -.297E-02 -.158E-02 -.439E-03   0.695E-03 0.889E-03 -.962E-03   0.165E-06 0.495E-07 -.595E-07
   0.148E-01 -.172E-01 0.172E-01   -.161E-01 0.182E-01 -.182E-01   0.920E-03 -.731E-03 0.730E-03   0.380E-07 -.325E-07 0.111E-06
   0.149E-01 -.589E-02 0.120E-01   -.146E-01 0.477E-02 -.119E-01   -.210E-03 0.858E-03 -.149E-03   0.687E-07 0.500E-07 0.898E-07
   0.718E-02 -.131E-01 0.111E-02   -.706E-02 0.136E-01 -.447E-03   0.151E-03 -.269E-03 -.779E-03   0.229E-06 -.108E-07 -.122E-06
   0.149E-01 -.120E-01 0.589E-02   -.146E-01 0.119E-01 -.477E-02   -.210E-03 0.149E-03 -.858E-03   0.500E-07 -.441E-08 -.307E-07
   -.388E-03 0.282E-03 -.282E-03   -.109E-04 0.129E-04 -.129E-04   0.374E-03 -.181E-03 0.181E-03   0.148E-06 0.686E-07 -.324E-07
   0.209E-02 -.171E-02 -.620E-03   -.297E-02 0.439E-03 0.158E-02   0.695E-03 0.962E-03 -.888E-03   0.897E-07 0.390E-07 -.124E-06
   0.798E-03 -.251E-01 0.897E-01   0.488E-14 0.235E-01 -.907E-01   0.164E-03 0.314E-02 -.118E-02   0.694E-07 0.517E-07 -.872E-06
   0.853E-02 0.166E-01 0.341E-01   -.106E-01 -.180E-01 -.329E-01   0.169E-02 0.121E-02 -.823E-03   0.374E-06 0.233E-06 -.284E-06
   0.798E-03 -.897E-01 0.251E-01   -.777E-14 0.907E-01 -.235E-01   0.164E-03 0.118E-02 -.314E-02   -.578E-07 0.913E-06 -.193E-06
   0.423E-01 -.596E-01 0.596E-01   -.411E-01 0.596E-01 -.596E-01   -.475E-03 -.329E-03 0.329E-03   -.417E-06 0.472E-06 -.429E-06
   -.598E-03 -.520E-02 -.149E-01   -.395E-13 0.550E-02 0.143E-01   0.611E-03 -.201E-03 0.370E-03   0.120E-06 0.105E-06 -.297E-06
   0.853E-02 -.341E-01 -.166E-01   -.106E-01 0.329E-01 0.180E-01   0.168E-02 0.823E-03 -.121E-02   0.236E-06 0.308E-06 -.383E-06
   -.598E-03 0.149E-01 0.520E-02   0.191E-13 -.143E-01 -.550E-02   0.611E-03 -.370E-03 0.201E-03   0.192E-06 0.334E-06 -.367E-07
   -.872E-03 0.415E-02 -.415E-02   0.467E-04 -.470E-02 0.470E-02   0.839E-03 0.380E-03 -.380E-03   0.112E-06 0.196E-06 -.115E-06
   -.195E-01 -.112E-01 -.473E-04   0.208E-01 0.979E-02 -.447E-03   -.715E-03 0.130E-02 0.389E-03   0.123E-06 -.141E-06 0.129E-06
   -.367E-01 -.144E-01 0.144E-01   0.339E-01 0.131E-01 -.131E-01   0.319E-02 0.112E-02 -.112E-02   0.246E-06 -.339E-06 0.214E-06
   -.782E-02 -.101E-02 0.339E-02   0.804E-02 0.481E-03 0.166E-02   -.646E-04 0.630E-03 -.310E-02   0.108E-06 0.136E-07 0.251E-06
   -.114E-01 -.857E-02 -.139E-01   0.136E-01 0.110E-01 0.689E-02   -.277E-02 -.282E-02 0.475E-02   0.187E-07 -.188E-06 0.176E-06
   -.782E-02 -.339E-02 0.101E-02   0.804E-02 -.166E-02 -.481E-03   -.646E-04 0.310E-02 -.630E-03   0.164E-08 -.286E-06 -.111E-07
   -.379E-02 0.293E-02 -.293E-02   0.219E-02 -.268E-02 0.268E-02   0.128E-02 -.168E-03 0.168E-03   0.164E-06 -.552E-07 0.119E-06
   -.195E-01 0.474E-04 0.112E-01   0.208E-01 0.447E-03 -.979E-02   -.715E-03 -.389E-03 -.130E-02   -.453E-07 -.181E-06 0.236E-06
   -.114E-01 0.139E-01 0.857E-02   0.136E-01 -.689E-02 -.110E-01   -.277E-02 -.475E-02 0.282E-02   -.158E-06 -.228E-06 0.286E-06
   -.715E-02 -.100E-01 0.688E-02   0.801E-02 0.101E-01 -.804E-02   -.644E-03 -.753E-04 0.825E-03   -.172E-06 0.911E-07 -.813E-07
   -.133E-01 -.690E-02 0.153E-02   0.130E-01 0.634E-02 -.419E-03   0.212E-03 0.625E-03 -.797E-03   -.136E-06 0.169E-06 -.102E-06
   -.507E-02 -.883E-02 0.884E-02   0.457E-02 0.852E-02 -.852E-02   -.445E-04 0.570E-03 -.570E-03   -.411E-06 0.127E-06 -.173E-06
   -.362E-02 -.607E-02 0.448E-02   0.450E-02 0.479E-02 -.401E-02   -.702E-03 0.102E-02 -.411E-03   -.120E-06 0.168E-06 -.139E-06
   -.715E-02 -.688E-02 0.100E-01   0.801E-02 0.804E-02 -.101E-01   -.644E-03 -.825E-03 0.752E-04   -.172E-06 0.631E-07 -.288E-07
   -.362E-02 -.448E-02 0.607E-02   0.450E-02 0.401E-02 -.479E-02   -.702E-03 0.411E-03 -.102E-02   -.185E-06 0.801E-07 -.858E-07
   -.925E-02 -.535E-02 0.535E-02   0.950E-02 0.551E-02 -.551E-02   -.251E-03 -.515E-04 0.515E-04   -.218E-06 0.136E-06 -.122E-06
   -.133E-01 -.153E-02 0.690E-02   0.130E-01 0.419E-03 -.634E-02   0.212E-03 0.797E-03 -.625E-03   -.223E-06 0.215E-08 -.992E-07
   0.141E-03 -.126E-01 0.176E-01   0.000E+00 0.123E-01 -.183E-01   -.152E-03 0.509E-03 0.227E-03   -.426E-08 -.278E-06 -.407E-07
   -.594E-03 -.760E-02 0.134E-01   0.646E-04 0.734E-02 -.127E-01   0.396E-03 0.288E-03 -.486E-03   0.736E-07 -.306E-07 0.643E-07
   0.140E-03 -.176E-01 0.126E-01   0.211E-13 0.183E-01 -.123E-01   -.152E-03 -.227E-03 -.509E-03   0.468E-07 0.174E-07 0.306E-06
   0.346E-02 -.158E-01 0.158E-01   -.219E-02 0.153E-01 -.153E-01   -.955E-03 0.479E-03 -.479E-03   0.598E-08 -.812E-07 0.876E-07
   -.136E-03 -.795E-02 0.522E-02   0.207E-13 0.844E-02 -.551E-02   0.148E-03 -.376E-03 0.200E-03   0.497E-07 -.231E-06 -.269E-07
   -.594E-03 -.134E-01 0.760E-02   0.646E-04 0.127E-01 -.734E-02   0.396E-03 0.486E-03 -.287E-03   0.658E-07 -.559E-07 0.640E-07
   -.136E-03 -.522E-02 0.795E-02   0.000E+00 0.551E-02 -.844E-02   0.148E-03 -.200E-03 0.376E-03   0.377E-07 -.234E-07 0.276E-06
   -.224E-02 -.512E-02 0.512E-02   0.203E-02 0.470E-02 -.470E-02   0.163E-03 0.298E-03 -.298E-03   -.111E-07 -.782E-07 0.329E-07
   -.148E-01 -.169E-01 0.169E-01   0.161E-01 0.182E-01 -.182E-01   -.104E-02 -.111E-02 0.111E-02   -.457E-07 -.808E-07 0.637E-07
   -.973E-02 -.127E-01 0.308E-01   0.870E-02 0.125E-01 -.294E-01   0.572E-03 0.485E-03 -.163E-02   -.166E-06 -.235E-06 -.188E-06
   -.788E-02 -.124E-01 -.179E-03   0.706E-02 0.136E-01 -.447E-03   0.546E-03 -.886E-03 0.535E-03   -.956E-07 0.823E-07 -.282E-07
   -.973E-02 -.308E-01 0.127E-01   0.870E-02 0.294E-01 -.125E-01   0.572E-03 0.163E-02 -.485E-03   -.204E-06 0.247E-06 0.164E-06
   -.413E-03 0.683E-03 -.683E-03   0.109E-04 0.129E-04 -.129E-04   0.377E-03 -.557E-03 0.557E-03   0.746E-07 0.132E-07 0.704E-07
   -.156E-02 -.797E-02 -.132E-02   0.105E-02 0.773E-02 0.169E-02   0.499E-03 0.162E-03 -.241E-03   -.185E-07 -.215E-07 -.103E-06
   -.788E-02 0.180E-03 0.124E-01   0.706E-02 0.447E-03 -.136E-01   0.546E-03 -.535E-03 0.886E-03   -.137E-06 -.146E-06 -.341E-08
   -.156E-02 0.132E-02 0.797E-02   0.105E-02 -.169E-02 -.773E-02   0.499E-03 0.241E-03 -.162E-03   -.759E-08 0.120E-08 0.141E-06
   -.563E-01 -.180E-01 0.690E-03   0.578E-01 0.156E-01 -.447E-03   0.808E-03 0.380E-02 0.602E-03   0.578E-06 0.500E-07 0.602E-08
   -.219E-01 -.510E-02 -.221E-02   0.199E-01 0.540E-02 0.953E-03   0.179E-02 0.294E-03 0.104E-02   0.194E-06 -.200E-06 0.366E-07
   -.118E-01 0.188E-01 -.188E-01   0.218E-03 -.360E-01 0.360E-01   0.135E-01 0.132E-01 -.132E-01   -.270E-06 -.197E-06 0.128E-06
   -.196E-01 0.145E-01 -.756E-02   0.159E-01 -.185E-01 -.757E-03   0.383E-02 0.422E-02 0.592E-02   0.341E-06 0.332E-06 0.409E-06
   -.563E-01 -.690E-03 0.180E-01   0.578E-01 0.447E-03 -.156E-01   0.808E-03 -.602E-03 -.380E-02   0.536E-06 -.105E-06 -.656E-07
   -.196E-01 0.756E-02 -.145E-01   0.159E-01 0.757E-03 0.185E-01   0.383E-02 -.592E-02 -.422E-02   0.315E-06 -.433E-06 -.352E-06
   -.147E-01 -.213E-02 0.213E-02   0.160E-01 0.211E-02 -.211E-02   -.104E-02 -.766E-04 0.765E-04   0.723E-07 0.538E-08 0.179E-06
   -.219E-01 0.221E-02 0.510E-02   0.199E-01 -.953E-03 -.540E-02   0.179E-02 -.104E-02 -.294E-03   0.956E-07 0.275E-07 0.187E-06
   -.276E-03 -.252E-01 0.493E-01   0.546E-13 0.237E-01 -.506E-01   -.675E-03 0.311E-02 -.984E-03   -.966E-07 0.770E-07 -.839E-06
   -.206E-01 -.344E-01 0.208E-01   0.204E-01 0.348E-01 -.197E-01   -.184E-03 -.515E-03 -.555E-03   0.138E-06 0.306E-06 -.329E-06
   -.276E-03 -.493E-01 0.252E-01   0.346E-13 0.506E-01 -.237E-01   -.675E-03 0.984E-03 -.311E-02   -.107E-06 0.744E-06 -.702E-07
   -.912E-02 -.924E-02 0.924E-02   0.131E-01 0.667E-02 -.667E-02   -.329E-02 0.198E-02 -.198E-02   -.580E-06 0.423E-06 -.462E-06
   0.137E-03 -.521E-02 0.250E-01   0.294E-13 0.551E-02 -.253E-01   -.149E-03 -.200E-03 0.183E-03   -.921E-07 0.720E-07 -.343E-06
   -.206E-01 -.208E-01 0.344E-01   0.204E-01 0.197E-01 -.348E-01   -.184E-03 0.555E-03 0.515E-03   0.995E-07 0.227E-06 -.260E-06
   0.137E-03 -.250E-01 0.521E-02   0.648E-13 0.253E-01 -.551E-02   -.149E-03 -.183E-03 0.200E-03   -.847E-07 0.483E-06 -.149E-06
   -.796E-02 -.847E-02 0.847E-02   0.807E-02 0.832E-02 -.832E-02   -.613E-04 0.632E-04 -.632E-04   -.111E-06 0.268E-06 -.153E-06
   0.645E-02 -.713E-02 0.713E-02   -.457E-02 0.852E-02 -.852E-02   -.134E-02 -.107E-02 0.107E-02   -.184E-09 -.746E-07 0.874E-07
   0.614E-02 -.127E-01 0.181E-01   -.466E-02 0.125E-01 -.163E-01   -.102E-02 0.450E-03 -.190E-02   0.788E-07 -.279E-06 -.161E-06
   0.754E-02 -.687E-02 0.929E-02   -.801E-02 0.804E-02 -.101E-01   0.332E-03 -.886E-03 0.781E-03   -.470E-08 -.926E-07 0.116E-06
   0.614E-02 -.181E-01 0.127E-01   -.466E-02 0.163E-01 -.125E-01   -.102E-02 0.190E-02 -.450E-03   0.849E-07 0.981E-07 0.294E-06
   0.925E-02 -.508E-02 0.508E-02   -.950E-02 0.551E-02 -.551E-02   0.251E-03 -.348E-03 0.348E-03   0.233E-06 0.271E-09 0.510E-08
   0.510E-02 -.798E-02 0.113E-01   -.505E-02 0.771E-02 -.113E-01   -.494E-04 0.185E-03 0.490E-04   0.589E-07 -.981E-07 -.706E-07
   0.754E-02 -.929E-02 0.687E-02   -.801E-02 0.101E-01 -.804E-02   0.332E-03 -.781E-03 0.886E-03   -.237E-07 -.588E-07 -.944E-08
   0.510E-02 -.113E-01 0.798E-02   -.505E-02 0.113E-01 -.771E-02   -.493E-04 -.489E-04 -.185E-03   0.124E-06 0.172E-06 0.458E-07
   -.714E-02 0.789E-05 -.170E-03   0.804E-02 0.481E-03 -.140E-02   -.688E-03 -.384E-03 0.120E-02   0.565E-08 0.754E-08 0.262E-06
   -.727E-02 -.714E-02 0.714E-02   0.608E-02 0.673E-02 -.673E-02   0.420E-03 -.229E-03 0.229E-03   0.527E-07 -.728E-08 -.275E-07
   0.709E-02 0.135E-01 -.505E-03   -.799E-02 -.118E-01 -.447E-03   0.687E-03 -.116E-02 0.848E-03   0.653E-07 0.219E-06 0.889E-07
   -.353E-03 -.346E-02 0.305E-02   0.103E-02 0.238E-02 -.366E-02   -.265E-03 0.533E-03 0.861E-03   -.897E-07 0.584E-07 0.423E-07
   0.709E-02 0.505E-03 -.135E-01   -.799E-02 0.447E-03 0.118E-01   0.687E-03 -.848E-03 0.116E-02   0.356E-08 -.137E-06 -.220E-06
   0.790E-02 0.626E-03 -.626E-03   -.806E-02 -.693E-03 0.693E-03   0.112E-03 -.963E-04 0.965E-04   0.172E-06 0.114E-07 -.109E-07
   -.714E-02 0.170E-03 -.784E-05   0.804E-02 0.140E-02 -.481E-03   -.688E-03 -.120E-02 0.384E-03   -.110E-07 -.184E-06 -.286E-07
   -.353E-03 -.305E-02 0.346E-02   0.103E-02 0.366E-02 -.238E-02   -.265E-03 -.861E-03 -.532E-03   -.479E-07 -.166E-07 -.798E-07
 -----------------------------------------------------------------------------------------------
   0.194E-04 0.474E-04 -.473E-04   0.218E-12 -.440E-12 0.162E-13   -.194E-04 -.486E-04 0.484E-04   -.239E-07 0.666E-07 -.807E-07
 
 
 POSITION                                       TOTAL-FORCE (eV/Angst)
 -----------------------------------------------------------------------------------
      1.36715      1.37715      1.36715        -0.000972     -0.132359     -0.001607
      0.00000      0.00000      0.00000         0.020432      0.032360      0.019741
      1.36715      4.10144      4.09144        -0.000972      0.001607      0.132359
      0.00000      2.73429      2.73429        -0.041025      0.012337     -0.012337
      1.36715      6.83573      6.83573         0.000947     -0.001876     -0.001200
      0.00000      5.46858      5.46858         0.020432     -0.019741     -0.032360
      1.36715      9.57002      9.57002         0.000947      0.001200      0.001876
      0.00000      8.20287      8.20287        -0.000943      0.000011     -0.000010
      4.10144      1.36715      4.10144         0.001893     -0.005861      0.005861
      2.73429      0.00000      2.73429        -0.019608      0.032906     -0.019692
      4.10144      4.10144      6.83573        -0.002290      0.001056     -0.001422
      2.73429      2.73429      5.46858        -0.019608      0.019692     -0.032906
      4.10144      6.83573      9.57002        -0.000416     -0.000162      0.000162
      2.73429      5.46858      8.20287         0.000500      0.000399     -0.000003
      4.10144      9.57002     12.30431        -0.002290      0.001422     -0.001056
      2.73429      8.20287     10.93716         0.000500      0.000003     -0.000399
      6.83573      1.36715      6.83573        -0.000209     -0.001939     -0.000103
      5.46858      0.00000      5.46858         0.000949      0.001560     -0.001560
      6.83573      4.10144      9.57002        -0.000521      0.000104      0.000127
      5.46858      2.73429      8.20287        -0.000039     -0.000553     -0.000365
      6.83573      6.83573     12.30431        -0.000521     -0.000127     -0.000104
      5.46858      5.46858     10.93716         0.000161      0.000213     -0.000213
      6.83573      9.57002     15.03860        -0.000209      0.000103      0.001939
      5.46858      8.20287     13.67145        -0.000039      0.000365      0.000553
      9.57002      1.36715      9.57002        -0.001098     -0.005065     -0.000995
      8.20287      0.00000      8.20287        -0.000085      0.002426     -0.000220
      9.57002      4.10144     12.30431        -0.004070      0.000629     -0.000629
      8.20287      2.73429     10.93716         0.000147      0.000220     -0.000547
      9.57002      6.83573     15.03860        -0.001098      0.000995      0.005065
      8.20287      5.46858     13.67145         0.000147      0.000547     -0.000220
      9.57002      9.57002     17.77289        -0.000541     -0.000105      0.000105
      8.20287      8.20287     16.40574        -0.000085      0.000220     -0.002426
      4.10144      4.10144      1.36715         0.004064      0.002547     -0.002547
      2.73429      2.73429      0.00000         0.020180      0.033200     -0.020443
      4.10144      6.83573      4.10144        -0.000756     -0.000917      0.005128
      2.73429      5.46858      2.73429         0.020180      0.020443     -0.033200
      4.10144      9.57002      6.83573         0.000544     -0.000045      0.000045
      2.73429      8.20287      5.46858        -0.000502      0.000395      0.000170
      4.10144     12.30431      9.57002        -0.000756     -0.005128      0.000917
      2.73429     10.93716      8.20287        -0.000502     -0.000170     -0.000395
      6.83573      4.10144      4.10144         0.000150      0.000104     -0.000522
      5.46858      2.73429      2.73429        -0.000688     -0.000589      0.000589
      6.83573      6.83573      6.83573        -0.000150      0.000376     -0.000104
      5.46858      5.46858      5.46858         0.000359     -0.000442      0.000268
      6.83573      9.57002      9.57002        -0.000150      0.000104     -0.000376
      5.46858      8.20287      8.20287        -0.000038     -0.000117      0.000117
      6.83573     12.30431     12.30431         0.000150      0.000522     -0.000104
      5.46858     10.93716     10.93716         0.000359     -0.000268      0.000442
      9.57002      4.10144      6.83573         0.000269      0.000116     -0.000244
      8.20287      2.73429      5.46858        -0.000180     -0.000070      0.000313
      9.57002      6.83573      9.57002        -0.000417      0.000255     -0.000255
      8.20287      5.46858      8.20287         0.000061     -0.000258     -0.000074
      9.57002      9.57002     12.30431         0.000269      0.000244     -0.000116
      8.20287      8.20287     10.93716         0.000061      0.000074      0.000258
      9.57002     12.30431     15.03860        -0.000024      0.000114     -0.000114
      8.20287     10.93716     13.67145        -0.000180     -0.000313      0.000070
     12.30431      4.10144      9.57002         0.000962      0.001584     -0.002202
     10.93716      2.73429      8.20287        -0.000360     -0.000274      0.000409
     12.30431      6.83573     12.30431         0.000962      0.002202     -0.001584
     10.93716      5.46858     10.93716         0.000682     -0.000417      0.000417
     12.30431      9.57002     15.03860         0.000013      0.000095     -0.000251
     10.93716      8.20287     13.67145        -0.000360     -0.000409      0.000274
     12.30431     12.30431     17.77289         0.000013      0.000251     -0.000095
     10.93716     10.93716     16.40574         0.000014     -0.000178      0.000178
      6.83573      6.83573      1.36715         0.000578     -0.000130     -0.000105
      5.46858      5.46858      0.00000         0.000396     -0.000265      0.000265
      6.83573      9.57002      4.10144         0.000149      0.000104      0.001951
      5.46858      8.20287      2.73429        -0.000554     -0.000420     -0.002213
      6.83573     12.30431      6.83573         0.000149     -0.001951     -0.000104
      5.46858     10.93716      5.46858        -0.000318      0.000080     -0.000080
      6.83573     15.03860      9.57002         0.000578      0.000105      0.000129
      5.46858     13.67145      8.20287        -0.000554      0.002213      0.000420
      9.57002      6.83573      4.10144         0.000221      0.000034     -0.000335
      8.20287      5.46858      2.73429        -0.000059      0.000063      0.000313
      9.57002      9.57002      6.83573        -0.000545      0.000254     -0.000254
      8.20287      8.20287      5.46858         0.000178     -0.000258      0.000059
      9.57002     12.30431      9.57002         0.000221      0.000335     -0.000034
      8.20287     10.93716      8.20287         0.000178     -0.000059      0.000258
      9.57002     15.03860     12.30431         0.000003      0.000106     -0.000106
      8.20287     13.67145     10.93716        -0.000059     -0.000313     -0.000063
     12.30431      6.83573      6.83573        -0.000011      0.000143     -0.000465
     10.93716      5.46858      5.46858        -0.000134      0.000032      0.000187
     12.30431      9.57002      9.57002        -0.000011      0.000465     -0.000143
     10.93716      8.20287      8.20287         0.000318     -0.000025      0.000025
     12.30431     12.30431     12.30431         0.000012      0.000115     -0.000094
     10.93716     10.93716     10.93716        -0.000134     -0.000187     -0.000032
     12.30431     15.03860     15.03860         0.000012      0.000094     -0.000115
     10.93716     13.67145     13.67145        -0.000048     -0.000130      0.000130
     15.03860      6.83573      9.57002         0.000299      0.000195     -0.000195
     13.67145      5.46858      8.20287        -0.000452      0.000232     -0.000133
     15.03860      9.57002     12.30431        -0.000270      0.000302     -0.000091
     13.67145      8.20287     10.93716        -0.000452      0.000133     -0.000232
     15.03860     12.30431     15.03860        -0.000025      0.000139     -0.000139
     13.67145     10.93716     13.67145        -0.000016     -0.000084      0.000132
     15.03860     15.03860     17.77289        -0.000271      0.000091     -0.000302
     13.67145     13.67145     16.40574        -0.000016     -0.000132      0.000084
      9.57002      9.57002      1.36715         0.002288      0.001363      0.000845
      8.20287      8.20287      0.00000        -0.000189      0.000592     -0.000221
      9.57002     12.30431      4.10144         0.001923     -0.003958      0.003958
      8.20287     10.93716      2.73429         0.000135      0.000224     -0.002396
      9.57002     15.03860      6.83573         0.002288     -0.000845     -0.001363
      8.20287     13.67145      5.46858         0.000135      0.002396     -0.000224
      9.57002     17.77289      9.57002         0.000299     -0.000102      0.000102
      8.20287     16.40574      8.20287        -0.000189      0.000222     -0.000592
     12.30431      9.57002      4.10144        -0.000951      0.001571     -0.002270
     10.93716      8.20287      2.73429        -0.000352     -0.000099      0.000499
     12.30431     12.30431      6.83573        -0.000951      0.002270     -0.001571
     10.93716     10.93716      5.46858         0.000686     -0.000590      0.000590
     12.30431     15.03860      9.57002        -0.000012      0.000094     -0.000164
     10.93716     13.67145      8.20287        -0.000352     -0.000499      0.000099
     12.30431     17.77289     12.30431        -0.000012      0.000164     -0.000094
     10.93716     16.40574     10.93716         0.000044     -0.000086      0.000086
     15.03860      9.57002      6.83573         0.000540      0.000313     -0.000313
     13.67145      8.20287      5.46858         0.000467      0.000229     -0.000040
     15.03860     12.30431      9.57002        -0.000137      0.000276     -0.000060
     13.67145     10.93716      8.20287         0.000467      0.000041     -0.000229
     15.03860     15.03860     12.30431        -0.000003      0.000082     -0.000082
     13.67145     13.67145     10.93716         0.000002     -0.000084      0.000040
     15.03860     17.77289     15.03860        -0.000138      0.000060     -0.000276
     13.67145     16.40574     13.67145         0.000002     -0.000040      0.000084
     17.77289      9.57002      9.57002         0.000209      0.000104     -0.000374
     16.40574      8.20287      8.20287        -0.000773     -0.000638      0.000638
     17.77289     12.30431     12.30431        -0.000208      0.000524     -0.000104
     16.40574     10.93716     10.93716         0.000408     -0.000542      0.000258
     17.77289     15.03860     15.03860        -0.000208      0.000104     -0.000524
     16.40574     13.67145     13.67145        -0.000044     -0.000163      0.000163
     17.77289     17.77289     17.77289         0.000209      0.000374     -0.000104
     16.40574     16.40574     16.40574         0.000408     -0.000258      0.000542
 -----------------------------------------------------------------------------------
    total drift:                               -0.000000     -0.000001      0.000001


--------------------------------------------------------------------------------------------------------



  FREE ENERGIE OF THE ION-ELECTRON SYSTEM (eV)
  ---------------------------------------------------
  free  energy   TOTEN  =      -682.56817607 eV

  energy  without entropy=     -682.56817607  energy(sigma->0) =     -682.56817607
 


--------------------------------------------------------------------------------------------------------


    POTLOK:  cpu time    0.5062: real time    0.5075


--------------------------------------------------------------------------------------------------------


     LOOP+:  cpu time  123.2403: real time  123.6156
    4ORBIT:  cpu time    0.0000: real time    0.0000

 total amount of memory used by VASP MPI-rank0   118934. kBytes
=======================================================================

   base      :      30000. kBytes
   nonl-proj :       7011. kBytes
   fftplans  :      53058. kBytes
   grid      :      20148. kBytes
   one-center:         21. kBytes
   wavefun   :       8696. kBytes
 
  
  
 General timing and accounting informations for this job:
 ========================================================
  
                  Total CPU time used (sec):      131.052
                            User time (sec):      129.200
                          System time (sec):        1.852
                         Elapsed time (sec):      131.509
  
                   Maximum memory used (kb):      241464.
                   Average memory used (kb):           0.
  
                          Minor page faults:        80057
                          Major page faults:            0
                 Voluntary context switches:          446
