 vasp.5.4.4.18Apr17-6-g9f103f2a35 (build Aug 16 2020 16:33:06) complex          
  
 executed on             LinuxIFC date 2026.08.15  14:45:35
 running on   40 total cores
 distrk:  each k-point on   40 cores,    1 groups
 distr:  one band on NCORES_PER_BAND=  20 cores,    2 groups


--------------------------------------------------------------------------------------------------------


 INCAR:
 POTCAR:   PAW_PBE Si 05Jan2001                   

 ----------------------------------------------------------------------------- 
|                                                                             |
|           W    W    AA    RRRRR   N    N  II  N    N   GGGG   !!!           |
|           W    W   A  A   R    R  NN   N  II  NN   N  G    G  !!!           |
|           W    W  A    A  R    R  N N  N  II  N N  N  G       !!!           |
|           W WW W  AAAAAA  RRRRR   N  N N  II  N  N N  G  GGG   !            |
|           WW  WW  A    A  R   R   N   NN  II  N   NN  G    G                |
|           W    W  A    A  R    R  N    N  II  N    N   GGGG   !!!           |
|                                                                             |
|      For optimal performance we recommend to set                            |
|        NCORE= 4 - approx SQRT( number of cores)                             |
|      NCORE specifies how many cores store one orbital (NPAR=cpu/NCORE).     |
|      This setting can  greatly improve the performance of VASP for DFT.     |
|      The default,   NCORE=1            might be grossly inefficient         |
|      on modern multi-core architectures or massively parallel machines.     |
|      Do your own testing !!!!                                               |
|      Unfortunately you need to use the default for GW and RPA calculations. |
|      (for HF NCORE is supported but not extensively tested yet)             |
|                                                                             |
 ----------------------------------------------------------------------------- 

 POTCAR:   PAW_PBE Si 05Jan2001                   
   VRHFIN =Si: s2p2                                                             
   LEXCH  = PE                                                                  
   EATOM  =   103.0669 eV,    7.5752 Ry                                         
                                                                                
   TITEL  = PAW_PBE Si 05Jan2001                                                
   LULTRA =        F    use ultrasoft PP ?                                      
   IUNSCR =        1    unscreen: 0-lin 1-nonlin 2-no                           
   RPACOR =    1.500    partial core radius                                     
   POMASS =   28.085; ZVAL   =    4.000    mass and valenz                      
   RCORE  =    1.900    outmost cutoff radius                                   
   RWIGS  =    2.480; RWIGS  =    1.312    wigner-seitz radius (au A)           
   ENMAX  =  245.345; ENMIN  =  184.009 eV                                      
   ICORE  =        2    local potential                                         
   LCOR   =        T    correct aug charges                                     
   LPAW   =        T    paw PP                                                  
   EAUG   =  322.069                                                            
   DEXC   =    -.007                                                            
   RMAX   =    2.944    core radius for proj-oper                               
   RAUG   =    1.300    factor for augmentation sphere                          
   RDEP   =    1.993    radius for radial grids                                 
   QCUT   =   -4.246; QGAM   =    8.493    optimization parameters              
                                                                                
   Description                                                                  
     l     E      TYP  RCUT    TYP  RCUT                                        
     0   .000     23  1.900                                                     
     0   .000     23  1.900                                                     
     1   .000     23  1.900                                                     
     1   .000     23  1.900                                                     
     2   .000      7  1.900                                                     
  local pseudopotential read in
  partial core-charges read in
  atomic valenz-charges read in
  non local Contribution for L=           0  read in
    real space projection operators read in
  non local Contribution for L=           0  read in
    real space projection operators read in
  non local Contribution for L=           1  read in
    real space projection operators read in
  non local Contribution for L=           1  read in
    real space projection operators read in
    PAW grid and wavefunctions read in
 
   number of l-projection  operators is LMAX  =           4
   number of lm-projection operators is LMMAX =           8
 

 ----------------------------------------------------------------------------- 
|                                                                             |
|  ADVICE TO THIS USER RUNNING 'VASP/VAMP'   (HEAR YOUR MASTER'S VOICE ...):  |
|                                                                             |
|      You have a (more or less) 'large supercell' and for larger cells       |
|      it might be more efficient to use real space projection operators      |
|      So try LREAL= Auto  in the INCAR   file.                               |
|      Mind: If you want to do a very accurate calculations keep the          |
|      reciprocal projection scheme          (i.e. LREAL=.FALSE.)             |
|                                                                             |
 ----------------------------------------------------------------------------- 

 PAW_PBE Si 05Jan2001                   :
 energy of atom  1       EATOM= -103.0669
 kinetic energy error for atom=    0.0006 (will be added to EATOM!!)
 
 
 POSCAR: Si                                      
  positions in direct lattice
  No initial velocities read in
 exchange correlation table for  LEXCH =        8
   RHO(1)=    0.500       N(1)  =     2000
   RHO(2)=  100.500       N(2)  =     4000
 


--------------------------------------------------------------------------------------------------------


 ion  position               nearest neighbor table
   1  0.062  0.063  0.062-  10 2.36   2 2.36   4 2.37  34 2.37
   2  0.000  0.000  0.000-   1 2.36   7 2.37  25 2.37  97 2.37
   3  0.313  0.062  0.062-   6 2.36   4 2.36  12 2.37  36 2.37
   4  0.250  0.000  0.000-   3 2.36  27 2.37  99 2.37   1 2.37
   5  0.562  0.062  0.062-   6 2.37   8 2.37  14 2.37  38 2.37
   6  0.500  0.000  0.000-   3 2.36   5 2.37  29 2.37 101 2.37
   7  0.812  0.062  0.062-   2 2.37   8 2.37  16 2.37  40 2.37
   8  0.750  0.000  0.000-   5 2.37   7 2.37  31 2.37 103 2.37
   9  0.062  0.312  0.062-  10 2.37  12 2.37  18 2.37  42 2.37
  10  0.000  0.250  0.000-   1 2.36   9 2.37  15 2.37 105 2.37
  11  0.312  0.312  0.062-  12 2.37  14 2.37  20 2.37  44 2.37
  12  0.250  0.250  0.000-   9 2.37  11 2.37 107 2.37   3 2.37
  13  0.562  0.312  0.062-  14 2.37  16 2.37  22 2.37  46 2.37
  14  0.500  0.250  0.000-   5 2.37  11 2.37  13 2.37 109 2.37
  15  0.812  0.312  0.062-  10 2.37  16 2.37  24 2.37  48 2.37
  16  0.750  0.250  0.000-   7 2.37  13 2.37  15 2.37 111 2.37
  17  0.062  0.562  0.062-  18 2.37  20 2.37  26 2.37  50 2.37
  18  0.000  0.500  0.000-   9 2.37  17 2.37  23 2.37 113 2.37
  19  0.312  0.562  0.062-  20 2.37  22 2.37  28 2.37  52 2.37
  20  0.250  0.500  0.000-  11 2.37  17 2.37  19 2.37 115 2.37
  21  0.562  0.562  0.062-  22 2.37  24 2.37  30 2.37  54 2.37
  22  0.500  0.500  0.000-  13 2.37  19 2.37  21 2.37 117 2.37
  23  0.812  0.562  0.062-  18 2.37  24 2.37  32 2.37  56 2.37
  24  0.750  0.500  0.000-  15 2.37  21 2.37  23 2.37 119 2.37
  25  0.062  0.812  0.062-   2 2.37  26 2.37  28 2.37  58 2.37
  26  0.000  0.750  0.000-  17 2.37  25 2.37  31 2.37 121 2.37
  27  0.312  0.812  0.062-   4 2.37  28 2.37  30 2.37  60 2.37
  28  0.250  0.750  0.000-  19 2.37  25 2.37  27 2.37 123 2.37
  29  0.562  0.812  0.062-   6 2.37  30 2.37  32 2.37  62 2.37
  30  0.500  0.750  0.000-  21 2.37  27 2.37  29 2.37 125 2.37
  31  0.812  0.812  0.062-   8 2.37  26 2.37  32 2.37  64 2.37
  32  0.750  0.750  0.000-  23 2.37  29 2.37  31 2.37 127 2.37
  33  0.062  0.062  0.312-  34 2.37  36 2.37  42 2.37  66 2.37
  34  0.000  0.000  0.250-  33 2.37  39 2.37  57 2.37   1 2.37
  35  0.312  0.062  0.312-  36 2.37  38 2.37  44 2.37  68 2.37
  36  0.250  0.000  0.250-  33 2.37  35 2.37  59 2.37   3 2.37
  37  0.562  0.062  0.312-  38 2.37  40 2.37  46 2.37  70 2.37
  38  0.500  0.000  0.250-   5 2.37  35 2.37  37 2.37  61 2.37
  39  0.812  0.062  0.312-  34 2.37  40 2.37  48 2.37  72 2.37
  40  0.750  0.000  0.250-   7 2.37  37 2.37  39 2.37  63 2.37
  41  0.062  0.312  0.312-  42 2.37  44 2.37  50 2.37  74 2.37
  42  0.000  0.250  0.250-   9 2.37  33 2.37  41 2.37  47 2.37
  43  0.312  0.312  0.312-  44 2.37  46 2.37  52 2.37  76 2.37
  44  0.250  0.250  0.250-  11 2.37  35 2.37  41 2.37  43 2.37
  45  0.562  0.312  0.312-  46 2.37  48 2.37  54 2.37  78 2.37
  46  0.500  0.250  0.250-  13 2.37  37 2.37  43 2.37  45 2.37
  47  0.812  0.312  0.312-  42 2.37  48 2.37  56 2.37  80 2.37
  48  0.750  0.250  0.250-  15 2.37  39 2.37  45 2.37  47 2.37
  49  0.062  0.562  0.312-  50 2.37  52 2.37  58 2.37  82 2.37
  50  0.000  0.500  0.250-  17 2.37  41 2.37  49 2.37  55 2.37
  51  0.312  0.562  0.312-  52 2.37  54 2.37  60 2.37  84 2.37
  52  0.250  0.500  0.250-  19 2.37  43 2.37  49 2.37  51 2.37
  53  0.562  0.562  0.312-  54 2.37  56 2.37  62 2.37  86 2.37
  54  0.500  0.500  0.250-  21 2.37  45 2.37  51 2.37  53 2.37
  55  0.812  0.562  0.312-  50 2.37  56 2.37  64 2.37  88 2.37
  56  0.750  0.500  0.250-  23 2.37  47 2.37  53 2.37  55 2.37
  57  0.062  0.812  0.312-  34 2.37  58 2.37  60 2.37  90 2.37
  58  0.000  0.750  0.250-  25 2.37  49 2.37  57 2.37  63 2.37
  59  0.312  0.812  0.312-  36 2.37  60 2.37  62 2.37  92 2.37
  60  0.250  0.750  0.250-  27 2.37  51 2.37  57 2.37  59 2.37
  61  0.562  0.812  0.312-  38 2.37  62 2.37  64 2.37  94 2.37
  62  0.500  0.750  0.250-  29 2.37  53 2.37  59 2.37  61 2.37
  63  0.812  0.812  0.312-  40 2.37  58 2.37  64 2.37  96 2.37
  64  0.750  0.750  0.250-  31 2.37  55 2.37  61 2.37  63 2.37
  65  0.062  0.062  0.562-  66 2.37  68 2.37  74 2.37  98 2.37
  66  0.000  0.000  0.500-  33 2.37  65 2.37  71 2.37  89 2.37
  67  0.312  0.062  0.562-  68 2.37  70 2.37  76 2.37 100 2.37
  68  0.250  0.000  0.500-  35 2.37  65 2.37  67 2.37  91 2.37
  69  0.562  0.062  0.562-  70 2.37  72 2.37  78 2.37 102 2.37
  70  0.500  0.000  0.500-  37 2.37  67 2.37  69 2.37  93 2.37
  71  0.812  0.062  0.562-  66 2.37  72 2.37  80 2.37 104 2.37
  72  0.750  0.000  0.500-  39 2.37  69 2.37  71 2.37  95 2.37
  73  0.062  0.312  0.562-  74 2.37  76 2.37  82 2.37 106 2.37
  74  0.000  0.250  0.500-  41 2.37  65 2.37  73 2.37  79 2.37
  75  0.312  0.312  0.562-  76 2.37  78 2.37  84 2.37 108 2.37
  76  0.250  0.250  0.500-  43 2.37  67 2.37  73 2.37  75 2.37
  77  0.562  0.312  0.562-  78 2.37  80 2.37  86 2.37 110 2.37
  78  0.500  0.250  0.500-  45 2.37  69 2.37  75 2.37  77 2.37
  79  0.812  0.312  0.562-  74 2.37  80 2.37  88 2.37 112 2.37
  80  0.750  0.250  0.500-  47 2.37  71 2.37  77 2.37  79 2.37
  81  0.062  0.562  0.562-  82 2.37  84 2.37  90 2.37 114 2.37
  82  0.000  0.500  0.500-  49 2.37  73 2.37  81 2.37  87 2.37
  83  0.312  0.562  0.562-  84 2.37  86 2.37  92 2.37 116 2.37
  84  0.250  0.500  0.500-  51 2.37  75 2.37  81 2.37  83 2.37
  85  0.562  0.562  0.562-  86 2.37  88 2.37  94 2.37 118 2.37
  86  0.500  0.500  0.500-  53 2.37  77 2.37  83 2.37  85 2.37
  87  0.812  0.562  0.562-  82 2.37  88 2.37  96 2.37 120 2.37
  88  0.750  0.500  0.500-  55 2.37  79 2.37  85 2.37  87 2.37
  89  0.062  0.812  0.562-  66 2.37  90 2.37  92 2.37 122 2.37
  90  0.000  0.750  0.500-  57 2.37  81 2.37  89 2.37  95 2.37
  91  0.312  0.812  0.562-  68 2.37  92 2.37  94 2.37 124 2.37
  92  0.250  0.750  0.500-  59 2.37  83 2.37  89 2.37  91 2.37
  93  0.562  0.812  0.562-  70 2.37  94 2.37  96 2.37 126 2.37
  94  0.500  0.750  0.500-  61 2.37  85 2.37  91 2.37  93 2.37
  95  0.812  0.812  0.562-  72 2.37  90 2.37  96 2.37 128 2.37
  96  0.750  0.750  0.500-  63 2.37  87 2.37  93 2.37  95 2.37
  97  0.062  0.062  0.812-   2 2.37  98 2.37 100 2.37 106 2.37
  98  0.000  0.000  0.750-  65 2.37  97 2.37 103 2.37 121 2.37
  99  0.312  0.062  0.812-   4 2.37 100 2.37 102 2.37 108 2.37
 100  0.250  0.000  0.750-  67 2.37  97 2.37  99 2.37 123 2.37
 101  0.562  0.062  0.812-   6 2.37 102 2.37 104 2.37 110 2.37
 102  0.500  0.000  0.750-  69 2.37  99 2.37 101 2.37 125 2.37
 103  0.812  0.062  0.812-   8 2.37  98 2.37 104 2.37 112 2.37
 104  0.750  0.000  0.750-  71 2.37 101 2.37 103 2.37 127 2.37
 105  0.062  0.312  0.812-  10 2.37 106 2.37 108 2.37 114 2.37
 106  0.000  0.250  0.750-  73 2.37  97 2.37 105 2.37 111 2.37
 107  0.312  0.312  0.812-  12 2.37 108 2.37 110 2.37 116 2.37
 108  0.250  0.250  0.750-  75 2.37  99 2.37 105 2.37 107 2.37
 109  0.562  0.312  0.812-  14 2.37 110 2.37 112 2.37 118 2.37
 110  0.500  0.250  0.750-  77 2.37 101 2.37 107 2.37 109 2.37
 111  0.812  0.312  0.812-  16 2.37 106 2.37 112 2.37 120 2.37
 112  0.750  0.250  0.750-  79 2.37 103 2.37 109 2.37 111 2.37
 113  0.062  0.562  0.812-  18 2.37 114 2.37 116 2.37 122 2.37
 114  0.000  0.500  0.750-  81 2.37 105 2.37 113 2.37 119 2.37
 115  0.312  0.562  0.812-  20 2.37 116 2.37 118 2.37 124 2.37
 116  0.250  0.500  0.750-  83 2.37 107 2.37 113 2.37 115 2.37
 117  0.562  0.562  0.812-  22 2.37 118 2.37 120 2.37 126 2.37
 118  0.500  0.500  0.750-  85 2.37 109 2.37 115 2.37 117 2.37
 119  0.812  0.562  0.812-  24 2.37 114 2.37 120 2.37 128 2.37
 120  0.750  0.500  0.750-  87 2.37 111 2.37 117 2.37 119 2.37
 121  0.062  0.812  0.812-  26 2.37  98 2.37 122 2.37 124 2.37
 122  0.000  0.750  0.750-  89 2.37 113 2.37 121 2.37 127 2.37
 123  0.312  0.812  0.812-  28 2.37 100 2.37 124 2.37 126 2.37
 124  0.250  0.750  0.750-  91 2.37 115 2.37 121 2.37 123 2.37
 125  0.562  0.812  0.812-  30 2.37 102 2.37 126 2.37 128 2.37
 126  0.500  0.750  0.750-  93 2.37 117 2.37 123 2.37 125 2.37
 127  0.812  0.812  0.812-  32 2.37 104 2.37 122 2.37 128 2.37
 128  0.750  0.750  0.750-  95 2.37 119 2.37 125 2.37 127 2.37
 

IMPORTANT INFORMATION: All symmetrisations will be switched off!
NOSYMM: (Re-)initialisation of all symmetry stuff for point group C_1.

 
 
 KPOINTS: K-Spacing Value to Generate K-Mesh: 0.03

Automatic generation of k-mesh.
Space group operators:
 irot       det(A)        alpha          n_x          n_y          n_z        tau_x        tau_y        tau_z
    1     1.000000     0.000000     1.000000     0.000000     0.000000     0.000000     0.000000     0.000000
 
 Subroutine IBZKPT returns following result:
 ===========================================
 
 Found      1 irreducible k-points:
 
 Following reciprocal coordinates:
            Coordinates               Weight
  0.000000  0.000000  0.000000      1.000000
 
 Following cartesian coordinates:
            Coordinates               Weight
  0.000000  0.000000  0.000000      1.000000
 


--------------------------------------------------------------------------------------------------------




 Dimension of arrays:
   k-points           NKPTS =      1   k-points in BZ     NKDIM =      1   number of bands    NBANDS=    322
   number of dos      NEDOS =    301   number of ions     NIONS =    128
   non local maximal  LDIM  =      4   non local SUM 2l+1 LMDIM =      8
   total plane-waves  NPLWV = ******
   max r-space proj   IRMAX =      1   max aug-charges    IRDMAX= 176819
   dimension x,y,z NGX =   120 NGY =  120 NGZ =  120
   dimension x,y,z NGXF=   240 NGYF=  240 NGZF=  240
   support grid    NGXF=   480 NGYF=  480 NGZF=  480
   ions per type =             128
   NGX,Y,Z   is equivalent  to a cutoff of  12.90, 12.90, 12.90 a.u.
   NGXF,Y,Z  is equivalent  to a cutoff of  25.80, 25.80, 25.80 a.u.

 SYSTEM =  unknown system                          
 POSCAR =  Si                                      

 Startparameter for this run:
   NWRITE =      2    write-flag & timer
   PREC   = accura    normal or accurate (medium, high low for compatibility)
   ISTART =      0    job   : 0-new  1-cont  2-samecut
   ICHARG =      2    charge: 1-file 2-atom 10-const
   ISPIN  =      1    spin polarized calculation?
   LNONCOLLINEAR =      F non collinear calculations
   LSORBIT =      F    spin-orbit coupling
   INIWAV =      1    electr: 0-lowe 1-rand  2-diag
   LASPH  =      F    aspherical Exc in radial PAW
   METAGGA=      F    non-selfconsistent MetaGGA calc.

 Electronic Relaxation 1
   ENCUT  =  500.0 eV  36.75 Ry    6.06 a.u.  28.20 28.20 28.20*2*pi/ulx,y,z
   ENINI  =  500.0     initial cutoff
   ENAUG  =  322.1 eV  augmentation charge cutoff
   NELM   =     60;   NELMIN=  2; NELMDL= -5     # of ELM steps 
   EDIFF  = 0.1E-07   stopping-criterion for ELM
   LREAL  =      F    real-space projection
   NLSPLINE    = F    spline interpolate recip. space projectors
   LCOMPAT=      F    compatible to vasp.4.4
   GGA_COMPAT  = T    GGA compatible to vasp.4.4-vasp.4.6
   LMAXPAW     = -100 max onsite density
   LMAXMIX     =    2 max onsite mixed and CHGCAR
   VOSKOWN=      0    Vosko Wilk Nusair interpolation
   ROPT   =    0.00000
 Ionic relaxation
   EDIFFG = 0.1E-06   stopping-criterion for IOM
   NSW    =      0    number of steps for IOM
   NBLOCK =      1;   KBLOCK =      1    inner block; outer block 
   IBRION =     -1    ionic relax: 0-MD 1-quasi-New 2-CG
   NFREE  =      0    steps in history (QN), initial steepest desc. (CG)
   ISIF   =      2    stress and relaxation
   IWAVPR =     10    prediction:  0-non 1-charg 2-wave 3-comb
   ISYM   =      0    0-nonsym 1-usesym 2-fastsym
   LCORR  =      T    Harris-Foulkes like correction to forces

   POTIM  = 0.5000    time-step for ionic-motion
   TEIN   =    0.0    initial temperature
   TEBEG  =    0.0;   TEEND  =   0.0 temperature during run
   SMASS  =  -3.00    Nose mass-parameter (am)
   estimated Nose-frequenzy (Omega)   =  0.10E-29 period in steps =****** mass=  -0.547E-26a.u.
   SCALEE = 1.0000    scale energy and forces
   NPACO  =    256;   APACO  = 16.0  distance and # of slots for P.C.
   PSTRESS=    0.0 pullay stress

  Mass of Ions in am
   POMASS =  28.09
  Ionic Valenz
   ZVAL   =   4.00
  Atomic Wigner-Seitz radii
   RWIGS  =  -1.00
  virtual crystal weights 
   VCA    =   1.00
   NELECT =     512.0000    total number of electrons
   NUPDOWN=      -1.0000    fix difference up-down

 DOS related values:
   EMIN   =  10.00;   EMAX   =-10.00  energy-range for DOS
   EFERMI =   0.00
   ISMEAR =     0;   SIGMA  =   0.05  broadening in eV -4-tet -1-fermi 0-gaus

 Electronic relaxation 2 (details)
   IALGO  =     38    algorithm
   LDIAG  =      T    sub-space diagonalisation (order eigenvalues)
   LSUBROT=      F    optimize rotation matrix (better conditioning)
   TURBO    =      0    0=normal 1=particle mesh
   IRESTART =      0    0=no restart 2=restart with 2 vectors
   NREBOOT  =      0    no. of reboots
   NMIN     =      0    reboot dimension
   EREF     =   0.00    reference energy to select bands
   IMIX   =      4    mixing-type and parameters
     AMIX     =   0.40;   BMIX     =  1.00
     AMIX_MAG =   1.60;   BMIX_MAG =  1.00
     AMIN     =   0.10
     WC   =   100.;   INIMIX=   1;  MIXPRE=   1;  MAXMIX= -45

 Intra band minimization:
   WEIMIN = 0.0000     energy-eigenvalue tresh-hold
   EBREAK =  0.78E-11  absolut break condition
   DEPER  =   0.30     relativ break condition  

   TIME   =   0.40     timestep for ELM

  volume/ion in A,a.u.               =      20.44       137.95
  Fermi-wavevector in a.u.,A,eV,Ry     =   0.950423  1.796039 12.290193  0.903304
  Thomas-Fermi vector in A             =   2.078798
 
 Write flags
   LWAVE        =      F    write WAVECAR
   LDOWNSAMPLE  =      F    k-point downsampling of WAVECAR
   LCHARG       =      F    write CHGCAR
   LVTOT        =      F    write LOCPOT, total local potential
   LVHAR        =      F    write LOCPOT, Hartree potential only
   LELF         =      F    write electronic localiz. function (ELF)
   LORBIT       =      0    0 simple, 1 ext, 2 COOP (PROOUT), +10 PAW based schemes


 Dipole corrections
   LMONO  =      F    monopole corrections only (constant potential shift)
   LDIPOL =      F    correct potential (dipole corrections)
   IDIPOL =      0    1-x, 2-y, 3-z, 4-all directions 
   EPSILON=  1.0000000 bulk dielectric constant

 Exchange correlation treatment:
   GGA     =    --    GGA type
   LEXCH   =     8    internal setting for exchange type
   VOSKOWN=      0    Vosko Wilk Nusair interpolation
   LHFCALC =     F    Hartree Fock is set to
   LHFONE  =     F    Hartree Fock one center treatment
   AEXX    =    0.0000 exact exchange contribution

 Linear response parameters
   LEPSILON=     F    determine dielectric tensor
   LRPA    =     F    only Hartree local field effects (RPA)
   LNABLA  =     F    use nabla operator in PAW spheres
   LVEL    =     F    velocity operator in full k-point grid
   LINTERFAST=   F  fast interpolation
   KINTER  =     0    interpolate to denser k-point grid
   CSHIFT  =0.1000    complex shift for real part using Kramers Kronig
   OMEGAMAX=  -1.0    maximum frequency
   DEG_THRESHOLD= 0.2000000E-02 threshold for treating states as degnerate
   RTIME   =   -0.100 relaxation time in fs
  (WPLASMAI=    0.000 imaginary part of plasma frequency in eV, 0.658/RTIME)
   DFIELD  = 0.0000000 0.0000000 0.0000000 field for delta impulse in time
 
 Orbital magnetization related:
   ORBITALMAG=     F  switch on orbital magnetization
   LCHIMAG   =     F  perturbation theory with respect to B field
   DQ        =  0.001000  dq finite difference perturbation B field
   LLRAUG    =     F  two centre corrections for induced B field



--------------------------------------------------------------------------------------------------------


 Static calculation
 charge density and potential will be updated during run
 non-spin polarized calculation
 Variant of blocked Davidson
 Davidson routine will perform the subspace rotation
 perform sub-space diagonalisation
    after iterative eigenvector-optimisation
 modified Broyden-mixing scheme, WC =      100.0
 initial mixing is a Kerker type mixing with AMIX =  0.4000 and BMIX =      1.0000
 Hartree-type preconditioning will be used
 using additional bands           66
 reciprocal scheme for non local part
 use partial core corrections
 calculate Harris-corrections to forces 
   (improved forces if not selfconsistent)
 use gradient corrections 
 use of overlap-Matrix (Vanderbilt PP)
 Gauss-broadening in eV      SIGMA  =   0.05


--------------------------------------------------------------------------------------------------------


  energy-cutoff  :      500.00
  volume of cell :     2616.64
      direct lattice vectors                 reciprocal lattice vectors
     0.000000000 10.937160696 10.937160696    -0.045715704  0.045715704  0.045715704
    10.937160696  0.000000000 10.937160696     0.045715704 -0.045715704  0.045715704
    10.937160696 10.937160696  0.000000000     0.045715704  0.045715704 -0.045715704

  length of vectors
    15.467480990 15.467480990 15.467480990     0.079181922  0.079181922  0.079181922


 
 k-points in units of 2pi/SCALE and weight: K-Spacing Value to Generate K-Mesh: 0.03
   0.00000000  0.00000000  0.00000000       1.000
 
 k-points in reciprocal lattice and weights: K-Spacing Value to Generate K-Mesh: 0.03
   0.00000000  0.00000000  0.00000000       1.000
 
 position of ions in fractional coordinates (direct lattice) 
   0.06204284  0.06295716  0.06204284
   0.00000000  0.00000000  0.00000000
   0.31295716  0.06204284  0.06204284
   0.25000000  0.00000000  0.00000000
   0.56250000  0.06250000  0.06250000
   0.50000000  0.00000000  0.00000000
   0.81250000  0.06250000  0.06250000
   0.75000000  0.00000000  0.00000000
   0.06250000  0.31250000  0.06250000
   0.00000000  0.25000000  0.00000000
   0.31250000  0.31250000  0.06250000
   0.25000000  0.25000000  0.00000000
   0.56250000  0.31250000  0.06250000
   0.50000000  0.25000000  0.00000000
   0.81250000  0.31250000  0.06250000
   0.75000000  0.25000000  0.00000000
   0.06250000  0.56250000  0.06250000
   0.00000000  0.50000000  0.00000000
   0.31250000  0.56250000  0.06250000
   0.25000000  0.50000000  0.00000000
   0.56250000  0.56250000  0.06250000
   0.50000000  0.50000000  0.00000000
   0.81250000  0.56250000  0.06250000
   0.75000000  0.50000000  0.00000000
   0.06250000  0.81250000  0.06250000
   0.00000000  0.75000000  0.00000000
   0.31250000  0.81250000  0.06250000
   0.25000000  0.75000000  0.00000000
   0.56250000  0.81250000  0.06250000
   0.50000000  0.75000000  0.00000000
   0.81250000  0.81250000  0.06250000
   0.75000000  0.75000000  0.00000000
   0.06250000  0.06250000  0.31250000
   0.00000000  0.00000000  0.25000000
   0.31250000  0.06250000  0.31250000
   0.25000000  0.00000000  0.25000000
   0.56250000  0.06250000  0.31250000
   0.50000000  0.00000000  0.25000000
   0.81250000  0.06250000  0.31250000
   0.75000000  0.00000000  0.25000000
   0.06250000  0.31250000  0.31250000
   0.00000000  0.25000000  0.25000000
   0.31250000  0.31250000  0.31250000
   0.25000000  0.25000000  0.25000000
   0.56250000  0.31250000  0.31250000
   0.50000000  0.25000000  0.25000000
   0.81250000  0.31250000  0.31250000
   0.75000000  0.25000000  0.25000000
   0.06250000  0.56250000  0.31250000
   0.00000000  0.50000000  0.25000000
   0.31250000  0.56250000  0.31250000
   0.25000000  0.50000000  0.25000000
   0.56250000  0.56250000  0.31250000
   0.50000000  0.50000000  0.25000000
   0.81250000  0.56250000  0.31250000
   0.75000000  0.50000000  0.25000000
   0.06250000  0.81250000  0.31250000
   0.00000000  0.75000000  0.25000000
   0.31250000  0.81250000  0.31250000
   0.25000000  0.75000000  0.25000000
   0.56250000  0.81250000  0.31250000
   0.50000000  0.75000000  0.25000000
   0.81250000  0.81250000  0.31250000
   0.75000000  0.75000000  0.25000000
   0.06250000  0.06250000  0.56250000
   0.00000000  0.00000000  0.50000000
   0.31250000  0.06250000  0.56250000
   0.25000000  0.00000000  0.50000000
   0.56250000  0.06250000  0.56250000
   0.50000000  0.00000000  0.50000000
   0.81250000  0.06250000  0.56250000
   0.75000000  0.00000000  0.50000000
   0.06250000  0.31250000  0.56250000
   0.00000000  0.25000000  0.50000000
   0.31250000  0.31250000  0.56250000
   0.25000000  0.25000000  0.50000000
   0.56250000  0.31250000  0.56250000
   0.50000000  0.25000000  0.50000000
   0.81250000  0.31250000  0.56250000
   0.75000000  0.25000000  0.50000000
   0.06250000  0.56250000  0.56250000
   0.00000000  0.50000000  0.50000000
   0.31250000  0.56250000  0.56250000
   0.25000000  0.50000000  0.50000000
   0.56250000  0.56250000  0.56250000
   0.50000000  0.50000000  0.50000000
   0.81250000  0.56250000  0.56250000
   0.75000000  0.50000000  0.50000000
   0.06250000  0.81250000  0.56250000
   0.00000000  0.75000000  0.50000000
   0.31250000  0.81250000  0.56250000
   0.25000000  0.75000000  0.50000000
   0.56250000  0.81250000  0.56250000
   0.50000000  0.75000000  0.50000000
   0.81250000  0.81250000  0.56250000
   0.75000000  0.75000000  0.50000000
   0.06250000  0.06250000  0.81250000
   0.00000000  0.00000000  0.75000000
   0.31250000  0.06250000  0.81250000
   0.25000000  0.00000000  0.75000000
   0.56250000  0.06250000  0.81250000
   0.50000000  0.00000000  0.75000000
   0.81250000  0.06250000  0.81250000
   0.75000000  0.00000000  0.75000000
   0.06250000  0.31250000  0.81250000
   0.00000000  0.25000000  0.75000000
   0.31250000  0.31250000  0.81250000
   0.25000000  0.25000000  0.75000000
   0.56250000  0.31250000  0.81250000
   0.50000000  0.25000000  0.75000000
   0.81250000  0.31250000  0.81250000
   0.75000000  0.25000000  0.75000000
   0.06250000  0.56250000  0.81250000
   0.00000000  0.50000000  0.75000000
   0.31250000  0.56250000  0.81250000
   0.25000000  0.50000000  0.75000000
   0.56250000  0.56250000  0.81250000
   0.50000000  0.50000000  0.75000000
   0.81250000  0.56250000  0.81250000
   0.75000000  0.50000000  0.75000000
   0.06250000  0.81250000  0.81250000
   0.00000000  0.75000000  0.75000000
   0.31250000  0.81250000  0.81250000
   0.25000000  0.75000000  0.75000000
   0.56250000  0.81250000  0.81250000
   0.50000000  0.75000000  0.75000000
   0.81250000  0.81250000  0.81250000
   0.75000000  0.75000000  0.75000000
 
 position of ions in cartesian coordinates  (Angst):
   1.36714509  1.35714509  1.36714509
   0.00000000  0.00000000  0.00000000
   1.35714509  4.10143526  4.10143526
   0.00000000  2.73429017  2.73429017
   1.36714509  6.83572544  6.83572544
   0.00000000  5.46858035  5.46858035
   1.36714509  9.57001561  9.57001561
   0.00000000  8.20287052  8.20287052
   4.10143526  1.36714509  4.10143526
   2.73429017  0.00000000  2.73429017
   4.10143526  4.10143526  6.83572544
   2.73429017  2.73429017  5.46858035
   4.10143526  6.83572544  9.57001561
   2.73429017  5.46858035  8.20287052
   4.10143526  9.57001561 12.30430578
   2.73429017  8.20287052 10.93716070
   6.83572544  1.36714509  6.83572544
   5.46858035  0.00000000  5.46858035
   6.83572544  4.10143526  9.57001561
   5.46858035  2.73429017  8.20287052
   6.83572544  6.83572544 12.30430578
   5.46858035  5.46858035 10.93716070
   6.83572544  9.57001561 15.03859596
   5.46858035  8.20287052 13.67145087
   9.57001561  1.36714509  9.57001561
   8.20287052  0.00000000  8.20287052
   9.57001561  4.10143526 12.30430578
   8.20287052  2.73429017 10.93716070
   9.57001561  6.83572544 15.03859596
   8.20287052  5.46858035 13.67145087
   9.57001561  9.57001561 17.77288613
   8.20287052  8.20287052 16.40574104
   4.10143526  4.10143526  1.36714509
   2.73429017  2.73429017  0.00000000
   4.10143526  6.83572544  4.10143526
   2.73429017  5.46858035  2.73429017
   4.10143526  9.57001561  6.83572544
   2.73429017  8.20287052  5.46858035
   4.10143526 12.30430578  9.57001561
   2.73429017 10.93716070  8.20287052
   6.83572544  4.10143526  4.10143526
   5.46858035  2.73429017  2.73429017
   6.83572544  6.83572544  6.83572544
   5.46858035  5.46858035  5.46858035
   6.83572544  9.57001561  9.57001561
   5.46858035  8.20287052  8.20287052
   6.83572544 12.30430578 12.30430578
   5.46858035 10.93716070 10.93716070
   9.57001561  4.10143526  6.83572544
   8.20287052  2.73429017  5.46858035
   9.57001561  6.83572544  9.57001561
   8.20287052  5.46858035  8.20287052
   9.57001561  9.57001561 12.30430578
   8.20287052  8.20287052 10.93716070
   9.57001561 12.30430578 15.03859596
   8.20287052 10.93716070 13.67145087
  12.30430578  4.10143526  9.57001561
  10.93716070  2.73429017  8.20287052
  12.30430578  6.83572544 12.30430578
  10.93716070  5.46858035 10.93716070
  12.30430578  9.57001561 15.03859596
  10.93716070  8.20287052 13.67145087
  12.30430578 12.30430578 17.77288613
  10.93716070 10.93716070 16.40574104
   6.83572544  6.83572544  1.36714509
   5.46858035  5.46858035  0.00000000
   6.83572544  9.57001561  4.10143526
   5.46858035  8.20287052  2.73429017
   6.83572544 12.30430578  6.83572544
   5.46858035 10.93716070  5.46858035
   6.83572544 15.03859596  9.57001561
   5.46858035 13.67145087  8.20287052
   9.57001561  6.83572544  4.10143526
   8.20287052  5.46858035  2.73429017
   9.57001561  9.57001561  6.83572544
   8.20287052  8.20287052  5.46858035
   9.57001561 12.30430578  9.57001561
   8.20287052 10.93716070  8.20287052
   9.57001561 15.03859596 12.30430578
   8.20287052 13.67145087 10.93716070
  12.30430578  6.83572544  6.83572544
  10.93716070  5.46858035  5.46858035
  12.30430578  9.57001561  9.57001561
  10.93716070  8.20287052  8.20287052
  12.30430578 12.30430578 12.30430578
  10.93716070 10.93716070 10.93716070
  12.30430578 15.03859596 15.03859596
  10.93716070 13.67145087 13.67145087
  15.03859596  6.83572544  9.57001561
  13.67145087  5.46858035  8.20287052
  15.03859596  9.57001561 12.30430578
  13.67145087  8.20287052 10.93716070
  15.03859596 12.30430578 15.03859596
  13.67145087 10.93716070 13.67145087
  15.03859596 15.03859596 17.77288613
  13.67145087 13.67145087 16.40574104
   9.57001561  9.57001561  1.36714509
   8.20287052  8.20287052  0.00000000
   9.57001561 12.30430578  4.10143526
   8.20287052 10.93716070  2.73429017
   9.57001561 15.03859596  6.83572544
   8.20287052 13.67145087  5.46858035
   9.57001561 17.77288613  9.57001561
   8.20287052 16.40574104  8.20287052
  12.30430578  9.57001561  4.10143526
  10.93716070  8.20287052  2.73429017
  12.30430578 12.30430578  6.83572544
  10.93716070 10.93716070  5.46858035
  12.30430578 15.03859596  9.57001561
  10.93716070 13.67145087  8.20287052
  12.30430578 17.77288613 12.30430578
  10.93716070 16.40574104 10.93716070
  15.03859596  9.57001561  6.83572544
  13.67145087  8.20287052  5.46858035
  15.03859596 12.30430578  9.57001561
  13.67145087 10.93716070  8.20287052
  15.03859596 15.03859596 12.30430578
  13.67145087 13.67145087 10.93716070
  15.03859596 17.77288613 15.03859596
  13.67145087 16.40574104 13.67145087
  17.77288613  9.57001561  9.57001561
  16.40574104  8.20287052  8.20287052
  17.77288613 12.30430578 12.30430578
  16.40574104 10.93716070 10.93716070
  17.77288613 15.03859596 15.03859596
  16.40574104 13.67145087 13.67145087
  17.77288613 17.77288613 17.77288613
  16.40574104 16.40574104 16.40574104
 


--------------------------------------------------------------------------------------------------------


 k-point  1 :   0.0000 0.0000 0.0000  plane waves:   66299

 maximum and minimum number of plane-waves per node :      3320     3310

 maximum number of plane-waves:     66299
 maximum index in each direction: 
   IXMAX=   28   IYMAX=   28   IZMAX=   28
   IXMIN=  -28   IYMIN=  -28   IZMIN=  -28


 parallel 3D FFT for wavefunctions:
    minimum data exchange during FFTs selected (reduces bandwidth)
 parallel 3D FFT for charge:
    minimum data exchange during FFTs selected (reduces bandwidth)


 total amount of memory used by VASP MPI-rank0   118934. kBytes
=======================================================================

   base      :      30000. kBytes
   nonl-proj :       7011. kBytes
   fftplans  :      53058. kBytes
   grid      :      20148. kBytes
   one-center:         21. kBytes
   wavefun   :       8696. kBytes
 
     INWAV:  cpu time    0.0000: real time    0.0000
 Broyden mixing: mesh for mixing (old mesh)
   NGX = 57   NGY = 57   NGZ = 57
  (NGX  =240   NGY  =240   NGZ  =240)
  gives a total of 185193 points

 initial charge density was supplied:
 charge density of overlapping atoms calculated
 number of electron     512.0000000 magnetization 
 keeping initial charge density in first step


--------------------------------------------------------------------------------------------------------


 Maximum index for augmentation-charges         4439 (set IRDMAX)


--------------------------------------------------------------------------------------------------------


 First call to EWALD:  gamma=   0.129
 Maximum number of real-space cells 3x 3x 3
 Maximum number of reciprocal cells 3x 3x 3

    FEWALD:  cpu time    0.0061: real time    0.0061


--------------------------------------- Iteration      1(   1)  ---------------------------------------


    POTLOK:  cpu time    0.2281: real time    0.2330
    SETDIJ:  cpu time    0.2916: real time    0.2925
     EDDAV:  cpu time    4.8020: real time    4.8155
       DOS:  cpu time    0.0005: real time    0.0005
    --------------------------------------------
      LOOP:  cpu time    5.3222: real time    5.3416

 eigenvalue-minimisations  :   644
 total energy-change (2. order) : 0.1374877E+04  (-0.1908717E+05)
 number of electron     512.0000000 magnetization 
 augmentation part      512.0000000 magnetization 

 Free energy of the ion-electron system (eV)
  ---------------------------------------------------
  alpha Z        PSCENC =       210.78028765
  Ewald energy   TEWEN  =    -14524.86521881
  -Hartree energ DENC   =      -724.62053048
  -exchange      EXHF   =         0.00000000
  -V(xc)+E(xc)   XCENC  =     -1195.83148028
  PAW double counting   =      4221.13331941    -1969.18571412
  entropy T*S    EENTRO =        -0.01583662
  eigenvalues    EBANDS =      2165.00111610
  atomic energy  EATOM  =     13192.48085998
  Solvation  Ediel_sol  =         0.00000000
  ---------------------------------------------------
  free energy    TOTEN  =      1374.87680283 eV

  energy without entropy =     1374.89263945  energy(sigma->0) =     1374.88472114


--------------------------------------------------------------------------------------------------------




--------------------------------------- Iteration      1(   2)  ---------------------------------------


     EDDAV:  cpu time    5.4584: real time    5.4723
       DOS:  cpu time    0.0005: real time    0.0005
    --------------------------------------------
      LOOP:  cpu time    5.4589: real time    5.4727

 eigenvalue-minimisations  :   758
 total energy-change (2. order) :-0.1911891E+04  (-0.1811811E+04)
 number of electron     512.0000000 magnetization 
 augmentation part      512.0000000 magnetization 

 Free energy of the ion-electron system (eV)
  ---------------------------------------------------
  alpha Z        PSCENC =       210.78028765
  Ewald energy   TEWEN  =    -14524.86521881
  -Hartree energ DENC   =      -724.62053048
  -exchange      EXHF   =         0.00000000
  -V(xc)+E(xc)   XCENC  =     -1195.83148028
  PAW double counting   =      4221.13331941    -1969.18571412
  entropy T*S    EENTRO =        -0.00000197
  eigenvalues    EBANDS =       253.09431470
  atomic energy  EATOM  =     13192.48085998
  Solvation  Ediel_sol  =         0.00000000
  ---------------------------------------------------
  free energy    TOTEN  =      -537.01416392 eV

  energy without entropy =     -537.01416195  energy(sigma->0) =     -537.01416293


--------------------------------------------------------------------------------------------------------




--------------------------------------- Iteration      1(   3)  ---------------------------------------


     EDDAV:  cpu time    5.5422: real time    5.5579
       DOS:  cpu time    0.0003: real time    0.0003
    --------------------------------------------
      LOOP:  cpu time    5.5425: real time    5.5582

 eigenvalue-minimisations  :   768
 total energy-change (2. order) :-0.1530087E+03  (-0.1483243E+03)
 number of electron     512.0000000 magnetization 
 augmentation part      512.0000000 magnetization 

 Free energy of the ion-electron system (eV)
  ---------------------------------------------------
  alpha Z        PSCENC =       210.78028765
  Ewald energy   TEWEN  =    -14524.86521881
  -Hartree energ DENC   =      -724.62053048
  -exchange      EXHF   =         0.00000000
  -V(xc)+E(xc)   XCENC  =     -1195.83148028
  PAW double counting   =      4221.13331941    -1969.18571412
  entropy T*S    EENTRO =        -0.00000000
  eigenvalues    EBANDS =       100.08559903
  atomic energy  EATOM  =     13192.48085998
  Solvation  Ediel_sol  =         0.00000000
  ---------------------------------------------------
  free energy    TOTEN  =      -690.02287762 eV

  energy without entropy =     -690.02287762  energy(sigma->0) =     -690.02287762


--------------------------------------------------------------------------------------------------------




--------------------------------------- Iteration      1(   4)  ---------------------------------------


     EDDAV:  cpu time    5.4073: real time    5.4202
       DOS:  cpu time    0.0004: real time    0.0004
    --------------------------------------------
      LOOP:  cpu time    5.4077: real time    5.4206

 eigenvalue-minimisations  :   752
 total energy-change (2. order) :-0.4510302E+01  (-0.4454549E+01)
 number of electron     512.0000000 magnetization 
 augmentation part      512.0000000 magnetization 

 Free energy of the ion-electron system (eV)
  ---------------------------------------------------
  alpha Z        PSCENC =       210.78028765
  Ewald energy   TEWEN  =    -14524.86521881
  -Hartree energ DENC   =      -724.62053048
  -exchange      EXHF   =         0.00000000
  -V(xc)+E(xc)   XCENC  =     -1195.83148028
  PAW double counting   =      4221.13331941    -1969.18571412
  entropy T*S    EENTRO =        -0.00000000
  eigenvalues    EBANDS =        95.57529716
  atomic energy  EATOM  =     13192.48085998
  Solvation  Ediel_sol  =         0.00000000
  ---------------------------------------------------
  free energy    TOTEN  =      -694.53317949 eV

  energy without entropy =     -694.53317949  energy(sigma->0) =     -694.53317949


--------------------------------------------------------------------------------------------------------




--------------------------------------- Iteration      1(   5)  ---------------------------------------


     EDDAV:  cpu time    5.3848: real time    5.3983
       DOS:  cpu time    0.0004: real time    0.6877
    CHARGE:  cpu time    0.5080: real time    0.5093
    MIXING:  cpu time    0.0100: real time    0.0102
    --------------------------------------------
      LOOP:  cpu time    5.9033: real time    6.6056

 eigenvalue-minimisations  :   744
 total energy-change (2. order) :-0.1666988E+00  (-0.1660201E+00)
 number of electron     511.9999999 magnetization 
 augmentation part      -29.7895384 magnetization 

 Broyden mixing:
  rms(total) = 0.24757E+01    rms(broyden)= 0.24757E+01
  rms(prec ) = 0.29957E+01
  weight for this iteration     100.00

 Free energy of the ion-electron system (eV)
  ---------------------------------------------------
  alpha Z        PSCENC =       210.78028765
  Ewald energy   TEWEN  =    -14524.86521881
  -Hartree energ DENC   =      -724.62053048
  -exchange      EXHF   =         0.00000000
  -V(xc)+E(xc)   XCENC  =     -1195.83148028
  PAW double counting   =      4221.13331941    -1969.18571412
  entropy T*S    EENTRO =        -0.00000000
  eigenvalues    EBANDS =        95.40859841
  atomic energy  EATOM  =     13192.48085998
  Solvation  Ediel_sol  =         0.00000000
  ---------------------------------------------------
  free energy    TOTEN  =      -694.69987824 eV

  energy without entropy =     -694.69987824  energy(sigma->0) =     -694.69987824


--------------------------------------------------------------------------------------------------------




--------------------------------------- Iteration      1(   6)  ---------------------------------------


    POTLOK:  cpu time    0.2245: real time   11.5858
    SETDIJ:  cpu time    0.2699: real time    0.2705
     EDDAV:  cpu time    5.0765: real time    5.0885
       DOS:  cpu time    0.0004: real time    0.0004
    CHARGE:  cpu time    0.5020: real time    0.5032
    MIXING:  cpu time    0.0108: real time    0.0108
    --------------------------------------------
      LOOP:  cpu time    6.0841: real time   17.4593

 eigenvalue-minimisations  :   696
 total energy-change (2. order) : 0.8400056E+01  (-0.4776006E+00)
 number of electron     511.9999999 magnetization 
 augmentation part      -29.4084496 magnetization 

 Broyden mixing:
  rms(total) = 0.14789E+01    rms(broyden)= 0.14789E+01
  rms(prec ) = 0.17864E+01
  weight for this iteration     100.00

 eigenvalues of (default mixing * dielectric matrix)
  average eigenvalue GAMMA=   2.4617
  2.4617

 Free energy of the ion-electron system (eV)
  ---------------------------------------------------
  alpha Z        PSCENC =       210.78028765
  Ewald energy   TEWEN  =    -14524.86521881
  -Hartree energ DENC   =      -824.85124667
  -exchange      EXHF   =         0.00000000
  -V(xc)+E(xc)   XCENC  =     -1180.31882712
  PAW double counting   =      4464.76740347    -2219.65431754
  entropy T*S    EENTRO =        -0.00000000
  eigenvalues    EBANDS =       195.36123643
  atomic energy  EATOM  =     13192.48085998
  Solvation  Ediel_sol  =         0.00000000
  ---------------------------------------------------
  free energy    TOTEN  =      -686.29982261 eV

  energy without entropy =     -686.29982261  energy(sigma->0) =     -686.29982261


--------------------------------------------------------------------------------------------------------




--------------------------------------- Iteration      1(   7)  ---------------------------------------


    POTLOK:  cpu time    0.2236: real time    0.2242
    SETDIJ:  cpu time    0.2788: real time    0.2795
     EDDAV:  cpu time    4.9152: real time    4.9268
       DOS:  cpu time    0.0004: real time    0.0004
    CHARGE:  cpu time    0.5015: real time    0.5028
    MIXING:  cpu time    0.0108: real time    0.0109
    --------------------------------------------
      LOOP:  cpu time    5.9304: real time    5.9444

 eigenvalue-minimisations  :   664
 total energy-change (2. order) : 0.3872834E+01  (-0.9702469E+00)
 number of electron     511.9999999 magnetization 
 augmentation part      -28.9140531 magnetization 

 Broyden mixing:
  rms(total) = 0.13042E+00    rms(broyden)= 0.13042E+00
  rms(prec ) = 0.15186E+00
  weight for this iteration     100.00

 eigenvalues of (default mixing * dielectric matrix)
  average eigenvalue GAMMA=   2.4942
  2.4942  2.4942

 Free energy of the ion-electron system (eV)
  ---------------------------------------------------
  alpha Z        PSCENC =       210.78028765
  Ewald energy   TEWEN  =    -14524.86521881
  -Hartree energ DENC   =      -991.88679158
  -exchange      EXHF   =         0.00000000
  -V(xc)+E(xc)   XCENC  =     -1153.93884683
  PAW double counting   =      4789.67463241    -2553.37348956
  entropy T*S    EENTRO =        -0.00000000
  eigenvalues    EBANDS =       348.70157832
  atomic energy  EATOM  =     13192.48085998
  Solvation  Ediel_sol  =         0.00000000
  ---------------------------------------------------
  free energy    TOTEN  =      -682.42698842 eV

  energy without entropy =     -682.42698842  energy(sigma->0) =     -682.42698842


--------------------------------------------------------------------------------------------------------




--------------------------------------- Iteration      1(   8)  ---------------------------------------


    POTLOK:  cpu time    0.2248: real time    0.2255
    SETDIJ:  cpu time    0.2771: real time    0.2778
     EDDAV:  cpu time    5.0326: real time    5.0478
       DOS:  cpu time    0.0004: real time    0.0004
    CHARGE:  cpu time    0.5051: real time    0.5064
    MIXING:  cpu time    0.0107: real time    0.0107
    --------------------------------------------
      LOOP:  cpu time    6.0507: real time    6.0685

 eigenvalue-minimisations  :   680
 total energy-change (2. order) :-0.1321325E+00  (-0.4951076E-01)
 number of electron     511.9999999 magnetization 
 augmentation part      -28.9853849 magnetization 

 Broyden mixing:
  rms(total) = 0.28112E-01    rms(broyden)= 0.28112E-01
  rms(prec ) = 0.37993E-01
  weight for this iteration     100.00

 eigenvalues of (default mixing * dielectric matrix)
  average eigenvalue GAMMA=   2.1011
  1.4552  2.7602  2.0878

 Free energy of the ion-electron system (eV)
  ---------------------------------------------------
  alpha Z        PSCENC =       210.78028765
  Ewald energy   TEWEN  =    -14524.86521881
  -Hartree energ DENC   =      -986.32546527
  -exchange      EXHF   =         0.00000000
  -V(xc)+E(xc)   XCENC  =     -1153.99567416
  PAW double counting   =      4718.67615440    -2480.15525921
  entropy T*S    EENTRO =        -0.00000000
  eigenvalues    EBANDS =       340.84519447
  atomic energy  EATOM  =     13192.48085998
  Solvation  Ediel_sol  =         0.00000000
  ---------------------------------------------------
  free energy    TOTEN  =      -682.55912095 eV

  energy without entropy =     -682.55912095  energy(sigma->0) =     -682.55912095


--------------------------------------------------------------------------------------------------------




--------------------------------------- Iteration      1(   9)  ---------------------------------------


    POTLOK:  cpu time    0.2250: real time    0.2274
    SETDIJ:  cpu time    0.2782: real time    0.2789
     EDDAV:  cpu time    5.4926: real time    5.5055
       DOS:  cpu time    0.0004: real time    0.0004
    CHARGE:  cpu time    0.5041: real time    0.5053
    MIXING:  cpu time    0.0105: real time    0.0105
    --------------------------------------------
      LOOP:  cpu time    6.5108: real time    6.5281

 eigenvalue-minimisations  :   768
 total energy-change (2. order) :-0.6363267E-02  (-0.2455282E-02)
 number of electron     511.9999999 magnetization 
 augmentation part      -28.9800625 magnetization 

 Broyden mixing:
  rms(total) = 0.15940E-01    rms(broyden)= 0.15940E-01
  rms(prec ) = 0.18165E-01
  weight for this iteration     100.00

 eigenvalues of (default mixing * dielectric matrix)
  average eigenvalue GAMMA=   2.2889
  1.0210  3.3928  2.7019  2.0399

 Free energy of the ion-electron system (eV)
  ---------------------------------------------------
  alpha Z        PSCENC =       210.78028765
  Ewald energy   TEWEN  =    -14524.86521881
  -Hartree energ DENC   =      -991.21531488
  -exchange      EXHF   =         0.00000000
  -V(xc)+E(xc)   XCENC  =     -1153.27688940
  PAW double counting   =      4725.25213515    -2486.97137397
  entropy T*S    EENTRO =        -0.00000000
  eigenvalues    EBANDS =       345.25003008
  atomic energy  EATOM  =     13192.48085998
  Solvation  Ediel_sol  =         0.00000000
  ---------------------------------------------------
  free energy    TOTEN  =      -682.56548422 eV

  energy without entropy =     -682.56548422  energy(sigma->0) =     -682.56548422


--------------------------------------------------------------------------------------------------------




--------------------------------------- Iteration      1(  10)  ---------------------------------------


    POTLOK:  cpu time    0.2251: real time    0.2263
    SETDIJ:  cpu time    0.2803: real time    0.2809
     EDDAV:  cpu time    5.0171: real time    5.0289
       DOS:  cpu time    0.0004: real time    0.0004
    CHARGE:  cpu time    0.5023: real time    0.5034
    MIXING:  cpu time    0.0104: real time    0.0104
    --------------------------------------------
      LOOP:  cpu time    6.0355: real time    6.0504

 eigenvalue-minimisations  :   680
 total energy-change (2. order) :-0.2688982E-02  (-0.5922854E-03)
 number of electron     511.9999999 magnetization 
 augmentation part      -28.9811115 magnetization 

 Broyden mixing:
  rms(total) = 0.48087E-02    rms(broyden)= 0.48087E-02
  rms(prec ) = 0.57578E-02
  weight for this iteration     100.00

 eigenvalues of (default mixing * dielectric matrix)
  average eigenvalue GAMMA=   1.9829
  3.2385  2.6116  2.1591  1.0580  0.8472

 Free energy of the ion-electron system (eV)
  ---------------------------------------------------
  alpha Z        PSCENC =       210.78028765
  Ewald energy   TEWEN  =    -14524.86521881
  -Hartree energ DENC   =      -991.22001218
  -exchange      EXHF   =         0.00000000
  -V(xc)+E(xc)   XCENC  =     -1153.35187783
  PAW double counting   =      4721.46604475    -2483.16680300
  entropy T*S    EENTRO =        -0.00000000
  eigenvalues    EBANDS =       345.30854625
  atomic energy  EATOM  =     13192.48085998
  Solvation  Ediel_sol  =         0.00000000
  ---------------------------------------------------
  free energy    TOTEN  =      -682.56817320 eV

  energy without entropy =     -682.56817320  energy(sigma->0) =     -682.56817320


--------------------------------------------------------------------------------------------------------




--------------------------------------- Iteration      1(  11)  ---------------------------------------


    POTLOK:  cpu time    0.2244: real time    0.2251
    SETDIJ:  cpu time    0.2780: real time    0.2786
     EDDAV:  cpu time    5.5057: real time    5.5186
       DOS:  cpu time    0.0004: real time    0.0004
    CHARGE:  cpu time    0.5016: real time    0.5028
    MIXING:  cpu time    0.0106: real time    0.0106
    --------------------------------------------
      LOOP:  cpu time    6.5207: real time    6.5362

 eigenvalue-minimisations  :   760
 total energy-change (2. order) :-0.1330301E-04  (-0.2014335E-04)
 number of electron     511.9999999 magnetization 
 augmentation part      -28.9796168 magnetization 

 Broyden mixing:
  rms(total) = 0.49436E-03    rms(broyden)= 0.49427E-03
  rms(prec ) = 0.56621E-03
  weight for this iteration     100.00

 eigenvalues of (default mixing * dielectric matrix)
  average eigenvalue GAMMA=   2.0367
  3.3669  2.6907  2.2095  1.9905  0.9814  0.9814

 Free energy of the ion-electron system (eV)
  ---------------------------------------------------
  alpha Z        PSCENC =       210.78028765
  Ewald energy   TEWEN  =    -14524.86521881
  -Hartree energ DENC   =      -991.69469081
  -exchange      EXHF   =         0.00000000
  -V(xc)+E(xc)   XCENC  =     -1153.28785298
  PAW double counting   =      4723.32017570    -2485.06582062
  entropy T*S    EENTRO =        -0.00000000
  eigenvalues    EBANDS =       345.76407339
  atomic energy  EATOM  =     13192.48085998
  Solvation  Ediel_sol  =         0.00000000
  ---------------------------------------------------
  free energy    TOTEN  =      -682.56818650 eV

  energy without entropy =     -682.56818650  energy(sigma->0) =     -682.56818650


--------------------------------------------------------------------------------------------------------




--------------------------------------- Iteration      1(  12)  ---------------------------------------


    POTLOK:  cpu time    0.2242: real time    0.2249
    SETDIJ:  cpu time    0.2800: real time    0.2807
     EDDAV:  cpu time    5.2253: real time    5.2376
       DOS:  cpu time    0.0004: real time    0.0004
    CHARGE:  cpu time    0.5018: real time    0.5030
    MIXING:  cpu time    0.0112: real time    0.0112
    --------------------------------------------
      LOOP:  cpu time    6.2431: real time    6.2579

 eigenvalue-minimisations  :   720
 total energy-change (2. order) :-0.4720521E-05  (-0.1277237E-05)
 number of electron     511.9999999 magnetization 
 augmentation part      -28.9793413 magnetization 

 Broyden mixing:
  rms(total) = 0.21732E-03    rms(broyden)= 0.21711E-03
  rms(prec ) = 0.24708E-03
  weight for this iteration     100.00

 eigenvalues of (default mixing * dielectric matrix)
  average eigenvalue GAMMA=   1.9266
  3.3084  2.6941  2.2643  2.2643  1.0282  1.0282  0.8987

 Free energy of the ion-electron system (eV)
  ---------------------------------------------------
  alpha Z        PSCENC =       210.78028765
  Ewald energy   TEWEN  =    -14524.86521881
  -Hartree energ DENC   =      -991.74047492
  -exchange      EXHF   =         0.00000000
  -V(xc)+E(xc)   XCENC  =     -1153.28637457
  PAW double counting   =      4723.44066170    -2485.18272248
  entropy T*S    EENTRO =        -0.00000000
  eigenvalues    EBANDS =       345.80479024
  atomic energy  EATOM  =     13192.48085998
  Solvation  Ediel_sol  =         0.00000000
  ---------------------------------------------------
  free energy    TOTEN  =      -682.56819122 eV

  energy without entropy =     -682.56819122  energy(sigma->0) =     -682.56819122


--------------------------------------------------------------------------------------------------------




--------------------------------------- Iteration      1(  13)  ---------------------------------------


    POTLOK:  cpu time    0.2241: real time    0.2247
    SETDIJ:  cpu time    0.2793: real time    0.2800
     EDDAV:  cpu time    5.4447: real time    5.4575
       DOS:  cpu time    0.0004: real time    0.0004
    CHARGE:  cpu time    0.5009: real time    0.5021
    MIXING:  cpu time    0.0121: real time    0.0121
    --------------------------------------------
      LOOP:  cpu time    6.4615: real time    6.4768

 eigenvalue-minimisations  :   760
 total energy-change (2. order) : 0.4208410E-05  (-0.5597750E-07)
 number of electron     511.9999999 magnetization 
 augmentation part      -28.9794721 magnetization 

 Broyden mixing:
  rms(total) = 0.67269E-04    rms(broyden)= 0.66584E-04
  rms(prec ) = 0.78867E-04
  weight for this iteration     100.00

 eigenvalues of (default mixing * dielectric matrix)
  average eigenvalue GAMMA=   1.8749
  3.3081  2.6986  2.4841  2.1366  0.9673  0.9572  1.2236  1.2236

 Free energy of the ion-electron system (eV)
  ---------------------------------------------------
  alpha Z        PSCENC =       210.78028765
  Ewald energy   TEWEN  =    -14524.86521881
  -Hartree energ DENC   =      -991.72936493
  -exchange      EXHF   =         0.00000000
  -V(xc)+E(xc)   XCENC  =     -1153.28662047
  PAW double counting   =      4723.39583805    -2485.13415192
  entropy T*S    EENTRO =        -0.00000000
  eigenvalues    EBANDS =       345.79018344
  atomic energy  EATOM  =     13192.48085998
  Solvation  Ediel_sol  =         0.00000000
  ---------------------------------------------------
  free energy    TOTEN  =      -682.56818701 eV

  energy without entropy =     -682.56818701  energy(sigma->0) =     -682.56818701


--------------------------------------------------------------------------------------------------------




--------------------------------------- Iteration      1(  14)  ---------------------------------------


    POTLOK:  cpu time    0.2238: real time    0.2257
    SETDIJ:  cpu time    0.2786: real time    0.2792
     EDDAV:  cpu time    5.2404: real time    5.2533
       DOS:  cpu time    0.0004: real time    0.0004
    CHARGE:  cpu time    0.5025: real time    0.5037
    MIXING:  cpu time    0.0113: real time    0.0114
    --------------------------------------------
      LOOP:  cpu time    6.2571: real time    6.2737

 eigenvalue-minimisations  :   720
 total energy-change (2. order) :-0.8039860E-06  (-0.1056647E-07)
 number of electron     511.9999999 magnetization 
 augmentation part      -28.9794394 magnetization 

 Broyden mixing:
  rms(total) = 0.37540E-04    rms(broyden)= 0.36298E-04
  rms(prec ) = 0.47147E-04
  weight for this iteration     100.00

 eigenvalues of (default mixing * dielectric matrix)
  average eigenvalue GAMMA=   1.8194
  3.2925  2.7277  2.4318  2.2593  0.9344  1.0123  1.0123  1.3520  1.3520

 Free energy of the ion-electron system (eV)
  ---------------------------------------------------
  alpha Z        PSCENC =       210.78028765
  Ewald energy   TEWEN  =    -14524.86521881
  -Hartree energ DENC   =      -991.73870496
  -exchange      EXHF   =         0.00000000
  -V(xc)+E(xc)   XCENC  =     -1153.28547086
  PAW double counting   =      4723.42867583    -2485.16737342
  entropy T*S    EENTRO =        -0.00000000
  eigenvalues    EBANDS =       345.79875677
  atomic energy  EATOM  =     13192.48085998
  Solvation  Ediel_sol  =         0.00000000
  ---------------------------------------------------
  free energy    TOTEN  =      -682.56818782 eV

  energy without entropy =     -682.56818782  energy(sigma->0) =     -682.56818782


--------------------------------------------------------------------------------------------------------




--------------------------------------- Iteration      1(  15)  ---------------------------------------


    POTLOK:  cpu time    0.2246: real time    0.2260
    SETDIJ:  cpu time    0.2810: real time    0.2817
     EDDAV:  cpu time    3.7747: real time    3.7836
       DOS:  cpu time    0.0004: real time    0.0004
    CHARGE:  cpu time    0.5037: real time    0.5049
    MIXING:  cpu time    0.0115: real time    0.0115
    --------------------------------------------
      LOOP:  cpu time    4.7959: real time    4.8081

 eigenvalue-minimisations  :   448
 total energy-change (2. order) : 0.9804789E-06  (-0.2533613E-08)
 number of electron     511.9999999 magnetization 
 augmentation part      -28.9794657 magnetization 

 Broyden mixing:
  rms(total) = 0.11599E-04    rms(broyden)= 0.65474E-05
  rms(prec ) = 0.72100E-05
  weight for this iteration     100.00
  WARNING: grid for Broyden might be to small

 eigenvalues of (default mixing * dielectric matrix)
  average eigenvalue GAMMA=   1.8258
  3.2978  2.6688  2.5851  2.1399  2.0506  0.9420  0.9874  1.0292  1.2787  1.2787

 Free energy of the ion-electron system (eV)
  ---------------------------------------------------
  alpha Z        PSCENC =       210.78028765
  Ewald energy   TEWEN  =    -14524.86521881
  -Hartree energ DENC   =      -991.73326033
  -exchange      EXHF   =         0.00000000
  -V(xc)+E(xc)   XCENC  =     -1153.28600837
  PAW double counting   =      4723.40804755    -2485.14604496
  entropy T*S    EENTRO =        -0.00000000
  eigenvalues    EBANDS =       345.79315045
  atomic energy  EATOM  =     13192.48085998
  Solvation  Ediel_sol  =         0.00000000
  ---------------------------------------------------
  free energy    TOTEN  =      -682.56818684 eV

  energy without entropy =     -682.56818684  energy(sigma->0) =     -682.56818684


--------------------------------------------------------------------------------------------------------




--------------------------------------- Iteration      1(  16)  ---------------------------------------


    POTLOK:  cpu time    0.2239: real time    0.2316
    SETDIJ:  cpu time    0.2792: real time    0.2799
     EDDAV:  cpu time    3.3571: real time    3.3668
       DOS:  cpu time    0.0004: real time    0.0004
    CHARGE:  cpu time    0.5001: real time    0.5013
    MIXING:  cpu time    0.0115: real time    0.0116
    --------------------------------------------
      LOOP:  cpu time    4.3723: real time    4.3915

 eigenvalue-minimisations  :   376
 total energy-change (2. order) :-0.4711546E-07  (-0.2039242E-09)
 number of electron     511.9999999 magnetization 
 augmentation part      -28.9794687 magnetization 

 Broyden mixing:
  rms(total) = 0.99741E-05    rms(broyden)= 0.27951E-05
  rms(prec ) = 0.34040E-05
  weight for this iteration     100.00
  WARNING: grid for Broyden might be to small

 eigenvalues of (default mixing * dielectric matrix)
  average eigenvalue GAMMA=   1.7930
  3.2781  2.7669  2.5546  2.2426  2.2426  1.3413  1.3413  1.1277  0.9859  0.9211
  0.9211

 Free energy of the ion-electron system (eV)
  ---------------------------------------------------
  alpha Z        PSCENC =       210.78028765
  Ewald energy   TEWEN  =    -14524.86521881
  -Hartree energ DENC   =      -991.73346885
  -exchange      EXHF   =         0.00000000
  -V(xc)+E(xc)   XCENC  =     -1153.28594899
  PAW double counting   =      4723.40808830    -2485.14618131
  entropy T*S    EENTRO =        -0.00000000
  eigenvalues    EBANDS =       345.79339515
  atomic energy  EATOM  =     13192.48085998
  Solvation  Ediel_sol  =         0.00000000
  ---------------------------------------------------
  free energy    TOTEN  =      -682.56818688 eV

  energy without entropy =     -682.56818688  energy(sigma->0) =     -682.56818688


--------------------------------------------------------------------------------------------------------




--------------------------------------- Iteration      1(  17)  ---------------------------------------


    POTLOK:  cpu time    0.2244: real time    0.2250
    SETDIJ:  cpu time    0.2770: real time    0.2776
     EDDAV:  cpu time    3.3587: real time    3.3666
       DOS:  cpu time    0.0004: real time    0.0004
    CHARGE:  cpu time    0.4995: real time    0.5007
    MIXING:  cpu time    0.0122: real time    0.0122
    --------------------------------------------
      LOOP:  cpu time    4.3722: real time    4.3826

 eigenvalue-minimisations  :   376
 total energy-change (2. order) :-0.3585592E-07  (-0.2837547E-10)
 number of electron     511.9999999 magnetization 
 augmentation part      -28.9794699 magnetization 

 Broyden mixing:
  rms(total) = 0.96524E-05    rms(broyden)= 0.12245E-05
  rms(prec ) = 0.14646E-05
  weight for this iteration     100.00
  WARNING: grid for Broyden might be to small

 eigenvalues of (default mixing * dielectric matrix)
  average eigenvalue GAMMA=   1.7792
  3.2910  2.7111  2.5959  2.1435  2.1435  1.9209  1.2577  1.2577  0.9321  0.9720
  1.0622  1.0622

 Free energy of the ion-electron system (eV)
  ---------------------------------------------------
  alpha Z        PSCENC =       210.78028765
  Ewald energy   TEWEN  =    -14524.86521881
  -Hartree energ DENC   =      -991.73329568
  -exchange      EXHF   =         0.00000000
  -V(xc)+E(xc)   XCENC  =     -1153.28597603
  PAW double counting   =      4723.40840568    -2485.14653682
  entropy T*S    EENTRO =        -0.00000000
  eigenvalues    EBANDS =       345.79328711
  atomic energy  EATOM  =     13192.48085998
  Solvation  Ediel_sol  =         0.00000000
  ---------------------------------------------------
  free energy    TOTEN  =      -682.56818692 eV

  energy without entropy =     -682.56818692  energy(sigma->0) =     -682.56818692


--------------------------------------------------------------------------------------------------------




--------------------------------------- Iteration      1(  18)  ---------------------------------------


    POTLOK:  cpu time    0.2242: real time    0.2249
    SETDIJ:  cpu time    0.2780: real time    0.2787
     EDDAV:  cpu time    3.2684: real time    3.2761
       DOS:  cpu time    0.0004: real time    0.0004
    CHARGE:  cpu time    0.5009: real time    0.5021
    MIXING:  cpu time    0.0126: real time    0.0126
    --------------------------------------------
      LOOP:  cpu time    4.2846: real time    4.2949

 eigenvalue-minimisations  :   360
 total energy-change (2. order) : 0.1447552E-07  (-0.7924106E-11)
 number of electron     511.9999999 magnetization 
 augmentation part      -28.9794703 magnetization 

 Broyden mixing:
  rms(total) = 0.95879E-05    rms(broyden)= 0.50823E-06
  rms(prec ) = 0.62267E-06
  weight for this iteration     100.00
  WARNING: grid for Broyden might be to small

 eigenvalues of (default mixing * dielectric matrix)
  average eigenvalue GAMMA=   1.7920
  3.2994  2.6982  2.6982  2.3733  2.3733  2.1771  1.3418  1.3418  1.0883  1.0883
  1.0124  0.9349  0.8689

 Free energy of the ion-electron system (eV)
  ---------------------------------------------------
  alpha Z        PSCENC =       210.78028765
  Ewald energy   TEWEN  =    -14524.86521881
  -Hartree energ DENC   =      -991.73327906
  -exchange      EXHF   =         0.00000000
  -V(xc)+E(xc)   XCENC  =     -1153.28597992
  PAW double counting   =      4723.40791220    -2485.14603895
  entropy T*S    EENTRO =        -0.00000000
  eigenvalues    EBANDS =       345.79327001
  atomic energy  EATOM  =     13192.48085998
  Solvation  Ediel_sol  =         0.00000000
  ---------------------------------------------------
  free energy    TOTEN  =      -682.56818690 eV

  energy without entropy =     -682.56818690  energy(sigma->0) =     -682.56818690


--------------------------------------------------------------------------------------------------------




--------------------------------------- Iteration      1(  19)  ---------------------------------------


    POTLOK:  cpu time    0.2244: real time    0.2250
    SETDIJ:  cpu time    0.2773: real time    0.2779
     EDDAV:  cpu time    3.2352: real time    3.2429
       DOS:  cpu time    0.0004: real time    0.0004
    --------------------------------------------
      LOOP:  cpu time    3.7372: real time    3.7462

 eigenvalue-minimisations  :   352
 total energy-change (2. order) : 0.3587047E-08  ( 0.3642642E-12)
 number of electron     511.9999999 magnetization 
 augmentation part      -28.9794703 magnetization 

 Free energy of the ion-electron system (eV)
  ---------------------------------------------------
  alpha Z        PSCENC =       210.78028765
  Ewald energy   TEWEN  =    -14524.86521881
  -Hartree energ DENC   =      -991.73324969
  -exchange      EXHF   =         0.00000000
  -V(xc)+E(xc)   XCENC  =     -1153.28598560
  PAW double counting   =      4723.40769101    -2485.14581713
  entropy T*S    EENTRO =        -0.00000000
  eigenvalues    EBANDS =       345.79324569
  atomic energy  EATOM  =     13192.48085998
  Solvation  Ediel_sol  =         0.00000000
  ---------------------------------------------------
  free energy    TOTEN  =      -682.56818690 eV

  energy without entropy =     -682.56818690  energy(sigma->0) =     -682.56818690


--------------------------------------------------------------------------------------------------------




 average (electrostatic) potential at core
  the test charge radii are     0.9892
  (the norm of the test charge is              1.0000)
       1 -83.4160       2 -83.4151       3 -83.4139       4 -83.4137       5 -83.4160
       6 -83.4137       7 -83.4148       8 -83.4152       9 -83.4161      10 -83.4139
      11 -83.4140      12 -83.4142      13 -83.4141      14 -83.4142      15 -83.4138
      16 -83.4143      17 -83.4150      18 -83.4153      19 -83.4139      20 -83.4141
      21 -83.4139      22 -83.4141      23 -83.4140      24 -83.4138      25 -83.4163
      26 -83.4154      27 -83.4137      28 -83.4139      29 -83.4137      30 -83.4141
      31 -83.4143      32 -83.4138      33 -83.4139      34 -83.4142      35 -83.4136
      36 -83.4135      37 -83.4137      38 -83.4138      39 -83.4117      40 -83.4137
      41 -83.4138      42 -83.4137      43 -83.4135      44 -83.4134      45 -83.4135
      46 -83.4137      47 -83.4135      48 -83.4135      49 -83.4139      50 -83.4140
      51 -83.4133      52 -83.4136      53 -83.4135      54 -83.4135      55 -83.4138
      56 -83.4136      57 -83.4138      58 -83.4141      59 -83.4114      60 -83.4131
      61 -83.4137      62 -83.4134      63 -83.4138      64 -83.4139      65 -83.4138
      66 -83.4139      67 -83.4135      68 -83.4136      69 -83.4127      70 -83.4136
      71 -83.4134      72 -83.4124      73 -83.4139      74 -83.4139      75 -83.4133
      76 -83.4135      77 -83.4134      78 -83.4134      79 -83.4137      80 -83.4135
      81 -83.4136      82 -83.4139      83 -83.4126      84 -83.4133      85 -83.4136
      86 -83.4134      87 -83.4137      88 -83.4137      89 -83.4135      90 -83.4137
      91 -83.4134      92 -83.4122      93 -83.4136      94 -83.4136      95 -83.4134
      96 -83.4137      97 -83.4139      98 -83.4138      99 -83.4114     100 -83.4133
     101 -83.4133     102 -83.4125     103 -83.4139     104 -83.4134     105 -83.4136
     106 -83.4141     107 -83.4115     108 -83.4132     109 -83.4137     110 -83.4134
     111 -83.4139     112 -83.4138     113 -83.4137     114 -83.4136     115 -83.4135
     116 -83.4123     117 -83.4137     118 -83.4137     119 -83.4136     120 -83.4138
     121 -83.4140     122 -83.4137     123 -83.4136     124 -83.4136     125 -83.4135
     126 -83.4137     127 -83.4136     128 -83.4135
 
 
 
 E-fermi :   5.9198     XC(G=0):  -9.3007     alpha+bet :-11.7327


 k-point     1 :       0.0000    0.0000    0.0000
  band No.  band energies     occupation 
      1      -6.1630      2.00000
      2      -5.3787      2.00000
      3      -5.3783      2.00000
      4      -5.3777      2.00000
      5      -5.3775      2.00000
      6      -5.3774      2.00000
      7      -5.3774      2.00000
      8      -5.3768      2.00000
      9      -5.3760      2.00000
     10      -5.1007      2.00000
     11      -5.1002      2.00000
     12      -5.0997      2.00000
     13      -5.0994      2.00000
     14      -5.0994      2.00000
     15      -5.0984      2.00000
     16      -4.1593      2.00000
     17      -4.1584      2.00000
     18      -4.1575      2.00000
     19      -4.1571      2.00000
     20      -4.1570      2.00000
     21      -4.1570      2.00000
     22      -4.1569      2.00000
     23      -4.1569      2.00000
     24      -4.1567      2.00000
     25      -4.1564      2.00000
     26      -4.1553      2.00000
     27      -4.1550      2.00000
     28      -3.8821      2.00000
     29      -3.8812      2.00000
     30      -3.8812      2.00000
     31      -3.8803      2.00000
     32      -3.5009      2.00000
     33      -3.4992      2.00000
     34      -3.4979      2.00000
     35      -3.4967      2.00000
     36      -3.4966      2.00000
     37      -3.4965      2.00000
     38      -3.4964      2.00000
     39      -3.4963      2.00000
     40      -3.4963      2.00000
     41      -3.4963      2.00000
     42      -3.4963      2.00000
     43      -3.4962      2.00000
     44      -3.4962      2.00000
     45      -3.4961      2.00000
     46      -3.4961      2.00000
     47      -3.4961      2.00000
     48      -3.4960      2.00000
     49      -3.4960      2.00000
     50      -3.4959      2.00000
     51      -3.4958      2.00000
     52      -3.4958      2.00000
     53      -3.4947      2.00000
     54      -3.4933      2.00000
     55      -3.4917      2.00000
     56      -2.0921      2.00000
     57      -2.0920      2.00000
     58      -2.0909      2.00000
     59      -2.0909      2.00000
     60      -2.0899      2.00000
     61      -2.0898      2.00000
     62      -1.9381      2.00000
     63      -1.9369      2.00000
     64      -1.9362      2.00000
     65      -1.9355      2.00000
     66      -1.9355      2.00000
     67      -1.9354      2.00000
     68      -1.9353      2.00000
     69      -1.9353      2.00000
     70      -1.9352      2.00000
     71      -1.9347      2.00000
     72      -1.9339      2.00000
     73      -1.9327      2.00000
     74      -1.2193      2.00000
     75      -1.2184      2.00000
     76      -1.2184      2.00000
     77      -1.2175      2.00000
     78      -0.6737      2.00000
     79      -0.6717      2.00000
     80      -0.6710      2.00000
     81      -0.6691      2.00000
     82      -0.6690      2.00000
     83      -0.6689      2.00000
     84      -0.6688      2.00000
     85      -0.6688      2.00000
     86      -0.6688      2.00000
     87      -0.6687      2.00000
     88      -0.6687      2.00000
     89      -0.6686      2.00000
     90      -0.6686      2.00000
     91      -0.6685      2.00000
     92      -0.6685      2.00000
     93      -0.6684      2.00000
     94      -0.6684      2.00000
     95      -0.6684      2.00000
     96      -0.6683      2.00000
     97      -0.6682      2.00000
     98      -0.6677      2.00000
     99      -0.6663      2.00000
    100      -0.6654      2.00000
    101      -0.6644      2.00000
    102       0.2146      2.00000
    103       0.2153      2.00000
    104       0.2156      2.00000
    105       0.2166      2.00000
    106       0.2167      2.00000
    107       0.2168      2.00000
    108       0.2168      2.00000
    109       0.2168      2.00000
    110       0.2170      2.00000
    111       0.2178      2.00000
    112       0.2183      2.00000
    113       0.2186      2.00000
    114       1.7664      2.00000
    115       1.7667      2.00000
    116       1.7677      2.00000
    117       1.7678      2.00000
    118       1.7679      2.00000
    119       1.7682      2.00000
    120       1.7685      2.00000
    121       1.7693      2.00000
    122       1.8845      2.00000
    123       1.8854      2.00000
    124       1.8857      2.00000
    125       1.8858      2.00000
    126       1.8858      2.00000
    127       1.8859      2.00000
    128       1.8860      2.00000
    129       1.8862      2.00000
    130       1.8863      2.00000
    131       1.8863      2.00000
    132       1.8869      2.00000
    133       1.8871      2.00000
    134       1.9775      2.00000
    135       1.9778      2.00000
    136       1.9782      2.00000
    137       1.9784      2.00000
    138       1.9787      2.00000
    139       1.9789      2.00000
    140       1.9791      2.00000
    141       1.9794      2.00000
    142       1.9794      2.00000
    143       1.9796      2.00000
    144       1.9797      2.00000
    145       1.9799      2.00000
    146       2.1397      2.00000
    147       2.1400      2.00000
    148       2.1409      2.00000
    149       2.1415      2.00000
    150       2.1420      2.00000
    151       2.1424      2.00000
    152       2.1839      2.00000
    153       2.1850      2.00000
    154       2.1851      2.00000
    155       2.1859      2.00000
    156       2.1862      2.00000
    157       2.1865      2.00000
    158       2.1866      2.00000
    159       2.1867      2.00000
    160       2.1868      2.00000
    161       2.1869      2.00000
    162       2.1869      2.00000
    163       2.1870      2.00000
    164       2.1870      2.00000
    165       2.1870      2.00000
    166       2.1871      2.00000
    167       2.1871      2.00000
    168       2.1872      2.00000
    169       2.1872      2.00000
    170       2.1873      2.00000
    171       2.1876      2.00000
    172       2.1880      2.00000
    173       2.1883      2.00000
    174       2.1892      2.00000
    175       2.1898      2.00000
    176       2.8562      2.00000
    177       2.8562      2.00000
    178       2.8566      2.00000
    179       2.8566      2.00000
    180       2.8571      2.00000
    181       2.8571      2.00000
    182       3.4895      2.00000
    183       3.4901      2.00000
    184       3.4911      2.00000
    185       3.4918      2.00000
    186       3.4921      2.00000
    187       3.4922      2.00000
    188       3.4923      2.00000
    189       3.4923      2.00000
    190       3.4924      2.00000
    191       3.4924      2.00000
    192       3.4925      2.00000
    193       3.4925      2.00000
    194       3.4926      2.00000
    195       3.4926      2.00000
    196       3.4927      2.00000
    197       3.4927      2.00000
    198       3.4927      2.00000
    199       3.4928      2.00000
    200       3.4929      2.00000
    201       3.4930      2.00000
    202       3.4938      2.00000
    203       3.4939      2.00000
    204       3.4945      2.00000
    205       3.4953      2.00000
    206       3.8019      2.00000
    207       3.8026      2.00000
    208       3.8034      2.00000
    209       3.8035      2.00000
    210       3.8038      2.00000
    211       3.8038      2.00000
    212       3.8039      2.00000
    213       3.8039      2.00000
    214       3.8040      2.00000
    215       3.8042      2.00000
    216       3.8050      2.00000
    217       3.8059      2.00000
    218       4.3506      2.00000
    219       4.3513      2.00000
    220       4.3520      2.00000
    221       4.3525      2.00000
    222       4.3527      2.00000
    223       4.3529      2.00000
    224       4.3529      2.00000
    225       4.3530      2.00000
    226       4.3531      2.00000
    227       4.3534      2.00000
    228       4.3543      2.00000
    229       4.3550      2.00000
    230       4.4761      2.00000
    231       4.4767      2.00000
    232       4.4774      2.00000
    233       4.4776      2.00000
    234       4.4778      2.00000
    235       4.4780      2.00000
    236       4.4787      2.00000
    237       4.4793      2.00000
    238       4.9077      2.00000
    239       4.9098      2.00000
    240       4.9114      2.00000
    241       4.9115      2.00000
    242       4.9115      2.00000
    243       4.9116      2.00000
    244       4.9117      2.00000
    245       4.9117      2.00000
    246       4.9118      2.00000
    247       4.9118      2.00000
    248       4.9119      2.00000
    249       4.9120      2.00000
    250       4.9122      2.00000
    251       4.9123      2.00000
    252       4.9143      2.00000
    253       4.9153      2.00000
    254       5.6594      2.00000
    255       5.6604      2.00000
    256       5.6615      2.00000
    257       6.3940      0.00000
    258       6.3946      0.00000
    259       6.3951      0.00000
    260       6.3951      0.00000
    261       6.3956      0.00000
    262       6.3962      0.00000
    263       6.7950      0.00000
    264       6.7954      0.00000
    265       6.7961      0.00000
    266       6.7967      0.00000
    267       6.7970      0.00000
    268       6.7974      0.00000
    269       7.1206      0.00000
    270       7.1208      0.00000
    271       7.1208      0.00000
    272       7.1211      0.00000
    273       7.1820      0.00000
    274       7.1829      0.00000
    275       7.1844      0.00000
    276       7.1849      0.00000
    277       7.1857      0.00000
    278       7.1858      0.00000
    279       7.1858      0.00000
    280       7.1858      0.00000
    281       7.1859      0.00000
    282       7.1859      0.00000
    283       7.1859      0.00000
    284       7.1860      0.00000
    285       7.1860      0.00000
    286       7.1861      0.00000
    287       7.1861      0.00000
    288       7.1861      0.00000
    289       7.1862      0.00000
    290       7.1862      0.00000
    291       7.1863      0.00000
    292       7.1863      0.00000
    293       7.1875      0.00000
    294       7.1879      0.00000
    295       7.1884      0.00000
    296       7.1896      0.00000
    297       7.6111      0.00000
    298       7.6116      0.00000
    299       7.6120      0.00000
    300       7.6122      0.00000
    301       7.6124      0.00000
    302       7.6127      0.00000
    303       7.6127      0.00000
    304       7.6130      0.00000
    305       8.0811      0.00000
    306       8.0817      0.00000
    307       8.0819      0.00000
    308       8.0824      0.00000
    309       8.0828      0.00000
    310       8.0829      0.00000
    311       8.0829      0.00000
    312       8.0831      0.00000
    313       8.0835      0.00000
    314       8.0841      0.00000
    315       8.0841      0.00000
    316       8.0847      0.00000
    317       8.1987      0.00000
    318       8.1993      0.00000
    319       8.2000      0.00000
    320       8.7789      0.00000
    321       8.7792      0.00000
    322       8.7867      0.00000


--------------------------------------------------------------------------------------------------------


 soft charge-density along one line, spin component           1
         0         1         2         3         4         5         6         7         8         9
 total charge-density along one line
 
 pseudopotential strength for first ion, spin component:           1
 18.431  -0.001  -0.000   0.000  -0.000   0.000   0.000  -0.000
 -0.001   0.006   0.000   0.000   0.000  -0.000  -0.000  -0.000
 -0.000   0.000   4.180   0.000  -0.000  -0.004  -0.000   0.000
  0.000   0.000   0.000   4.180   0.000  -0.000  -0.004  -0.000
 -0.000   0.000  -0.000   0.000   4.180   0.000  -0.000  -0.004
  0.000  -0.000  -0.004  -0.000   0.000   0.005  -0.000   0.000
  0.000  -0.000  -0.000  -0.004  -0.000  -0.000   0.005   0.000
 -0.000  -0.000   0.000  -0.000  -0.004   0.000   0.000   0.005
 total augmentation occupancy for first ion, spin component:           1
  1.463  -0.793  -0.003  -0.000   0.000   0.004   0.000  -0.000
 -0.793   0.732   0.002  -0.000   0.000  -0.004   0.000  -0.000
 -0.003   0.002   1.037  -0.000   0.000  -0.551  -0.000  -0.000
 -0.000  -0.000  -0.000   1.037   0.004  -0.000  -0.551  -0.005
  0.000   0.000   0.000   0.004   1.037  -0.000  -0.005  -0.551
  0.004  -0.004  -0.551  -0.000  -0.000   0.351   0.000  -0.000
  0.000   0.000  -0.000  -0.551  -0.005   0.000   0.351   0.004
 -0.000  -0.000  -0.000  -0.005  -0.551  -0.000   0.004   0.351


------------------------ aborting loop because EDIFF is reached ----------------------------------------


    CHARGE:  cpu time    0.5004: real time    0.5017
    FORLOC:  cpu time    0.2014: real time    0.2018
    FORNL :  cpu time    5.5135: real time    5.5265
    STRESS:  cpu time    8.8259: real time    8.8468
    FORCOR:  cpu time    0.4137: real time    0.4147
    FORHAR:  cpu time    0.2474: real time    0.2479
    MIXING:  cpu time    0.0100: real time    0.0100
    OFIELD:  cpu time    0.0001: real time    0.0001

  FORCE on cell =-STRESS in cart. coord.  units (eV):
  Direction    XX          YY          ZZ          XY          YZ          ZX
  --------------------------------------------------------------------------------------
  Alpha Z   210.78029   210.78029   210.78029
  Ewald   -4841.67378 -4841.67377 -4841.66445     0.00021     0.77485     0.77548
  Hartree   330.57718   330.57717   330.57888     0.00010     0.08842     0.08884
  E(xc)   -1619.14448 -1619.14448 -1619.14457     0.00001    -0.00662    -0.00662
  Local   -1899.80306 -1899.80305 -1899.81359    -0.00006    -0.81817    -0.81923
  n-local  4936.76670  4936.76668  4936.76854     0.00000     0.15912     0.15913
  augment  -736.53093  -736.53094  -736.53103    -0.00027    -0.00728    -0.00729
  Kinetic  3628.38901  3628.38905  3628.38862     0.00003    -0.10309    -0.10308
  Fock        0.00000     0.00000     0.00000     0.00000     0.00000     0.00000
  -------------------------------------------------------------------------------------
  Total       9.36092     9.36096     9.36268     0.00001     0.08724     0.08723
  in kB       5.73172     5.73175     5.73280     0.00001     0.05342     0.05341
  external pressure =        5.73 kB  Pullay stress =        0.00 kB


 VOLUME and BASIS-vectors are now :
 -----------------------------------------------------------------------------
  energy-cutoff  :      500.00
  volume of cell :     2616.64
      direct lattice vectors                 reciprocal lattice vectors
     0.000000000 10.937160696 10.937160696    -0.045715704  0.045715704  0.045715704
    10.937160696  0.000000000 10.937160696     0.045715704 -0.045715704  0.045715704
    10.937160696 10.937160696  0.000000000     0.045715704  0.045715704 -0.045715704

  length of vectors
    15.467480990 15.467480990 15.467480990     0.079181922  0.079181922  0.079181922


 FORCES acting on ions
    electron-ion (+dipol)            ewald-force                    non-local-force                 convergence-correction
 -----------------------------------------------------------------------------------------------
   -.245E-01 -.531E+00 -.588E-02   0.358E-01 0.468E+00 0.108E-03   -.644E-02 0.193E+00 0.673E-02   0.650E-07 0.166E-05 -.427E-06
   0.190E+00 0.554E-02 0.204E+00   -.168E+00 -.747E-02 -.179E+00   -.440E-01 -.305E-01 -.453E-01   -.363E-06 0.597E-06 -.482E-06
   -.524E+00 0.252E-01 0.596E-01   0.469E+00 -.236E-01 -.601E-01   0.187E+00 -.311E-02 -.147E-02   0.173E-05 -.243E-06 -.729E-06
   -.197E+00 0.207E+00 0.403E+00   0.170E+00 -.179E+00 -.347E+00   0.142E-01 -.817E-01 -.958E-01   0.102E-05 -.183E-06 -.126E-05
   -.247E-01 0.139E-01 0.182E-01   0.361E-01 -.761E-02 -.128E-01   -.645E-02 -.737E-02 -.671E-02   -.193E-07 0.323E-06 0.270E-06
   -.230E-02 -.193E+00 -.183E+00   0.180E-02 0.166E+00 0.157E+00   -.328E-01 0.478E-01 0.467E-01   0.300E-06 0.610E-06 0.476E-06
   0.697E-04 0.250E-01 0.599E-01   0.394E-02 -.235E-01 -.604E-01   -.330E-02 -.312E-02 -.148E-02   0.141E-06 -.180E-06 -.507E-06
   -.639E-02 0.665E-02 0.163E-01   0.114E-02 -.378E-02 -.123E-01   0.367E-02 -.355E-02 -.462E-02   0.347E-06 0.748E-07 -.497E-09
   0.310E-01 -.843E-01 0.515E-02   -.237E-01 0.962E-01 -.109E-03   -.984E-02 -.498E-02 -.696E-02   0.983E-07 0.654E-06 0.381E-07
   -.214E+00 -.182E-01 -.206E+00   0.188E+00 0.177E-01 0.181E+00   0.471E-01 -.327E-01 0.466E-01   0.462E-06 0.609E-06 0.147E-06
   0.277E-01 0.174E-02 0.674E-01   -.259E-01 -.481E-03 -.681E-01   -.309E-02 -.417E-03 -.142E-02   0.115E-06 -.759E-07 -.637E-06
   0.100E-01 -.213E+00 0.223E+00   -.111E-01 0.187E+00 -.194E+00   -.318E-01 0.464E-01 -.484E-01   0.664E-06 0.448E-06 -.796E-06
   -.637E-02 0.124E-01 0.152E-01   0.757E-02 -.124E-01 -.161E-01   -.109E-02 0.292E-03 0.522E-03   -.951E-07 0.222E-06 0.326E-07
   -.142E-01 0.111E-01 0.310E-01   0.150E-01 -.129E-01 -.295E-01   -.706E-03 0.144E-02 -.107E-02   -.496E-07 0.217E-06 -.157E-06
   -.589E-01 0.172E-01 -.176E-02   0.600E-01 -.155E-01 0.229E-02   0.846E-03 -.318E-02 0.156E-03   0.610E-06 -.508E-07 -.360E-06
   -.222E-01 0.366E-01 0.230E-01   0.222E-01 -.379E-01 -.217E-01   -.234E-03 0.121E-02 -.877E-03   0.442E-07 -.347E-07 -.275E-06
   0.949E-02 -.650E-02 0.735E-02   -.101E-01 0.120E-01 -.802E-02   0.590E-03 -.364E-02 0.515E-03   0.909E-07 0.272E-06 0.878E-07
   0.666E-02 -.304E-01 0.364E-02   -.380E-02 0.227E-01 -.325E-05   -.355E-02 0.585E-02 -.364E-02   0.497E-07 0.364E-06 -.146E-06
   0.169E-03 0.101E-02 0.980E-02   0.534E-03 -.481E-03 -.104E-01   -.694E-03 -.630E-03 0.710E-05   0.209E-06 -.187E-06 -.243E-06
   0.683E-02 -.674E-02 0.202E-01   -.734E-02 0.622E-02 -.180E-01   0.138E-03 0.123E-03 -.221E-02   0.415E-06 -.685E-07 -.192E-06
   -.250E-02 0.610E-03 0.738E-02   0.259E-02 0.545E-03 -.805E-02   0.242E-03 -.109E-02 0.459E-03   0.146E-06 0.243E-06 -.124E-06
   -.285E-02 0.476E-02 0.111E-01   0.266E-02 -.525E-02 -.101E-01   0.591E-04 0.268E-03 -.748E-03   -.184E-07 -.379E-07 -.110E-06
   0.859E-03 -.124E-01 -.323E-02   0.525E-03 0.123E-01 0.229E-02   -.132E-02 0.358E-03 0.668E-03   0.179E-06 0.249E-06 -.125E-06
   -.118E-01 -.635E-03 -.400E-02   0.106E-01 0.590E-03 0.356E-02   0.138E-02 -.245E-03 0.128E-03   0.115E-07 0.313E-06 -.273E-06
   -.593E-02 -.215E-01 0.125E-02   -.338E-03 0.338E-01 -.792E-02   0.712E-02 -.712E-02 0.742E-02   -.905E-07 -.560E-07 0.239E-07
   0.556E-02 -.157E-01 0.569E-02   -.831E-02 0.883E-02 -.766E-02   0.348E-02 0.448E-02 0.282E-02   0.195E-06 0.362E-06 0.264E-06
   -.345E-01 0.244E-01 0.591E-01   0.366E-01 -.236E-01 -.604E-01   -.165E-02 -.327E-02 -.169E-02   0.531E-06 -.174E-06 -.774E-06
   -.129E-01 -.670E-02 0.138E-01   0.121E-01 0.921E-02 -.104E-01   0.275E-03 -.179E-02 -.324E-02   0.386E-06 -.117E-06 -.432E-06
   0.177E-01 -.504E-01 0.815E-02   -.155E-01 0.503E-01 -.802E-02   -.365E-02 0.208E-02 0.681E-03   -.351E-06 0.649E-06 -.596E-07
   0.202E-01 -.124E-01 0.268E-01   -.221E-01 0.121E-01 -.252E-01   0.214E-02 -.267E-03 -.832E-03   -.130E-06 0.312E-06 -.932E-07
   0.319E-02 -.718E-02 0.390E-02   -.274E-02 0.758E-02 -.574E-02   -.283E-03 -.298E-03 0.136E-02   0.694E-07 0.513E-07 0.137E-06
   0.510E-02 -.148E-01 -.211E-02   -.538E-02 0.133E-01 0.162E-02   -.310E-03 0.203E-02 0.396E-03   0.121E-06 0.597E-07 -.132E-06
   0.847E-01 0.244E-01 -.588E-01   -.837E-01 -.236E-01 0.601E-01   -.459E-02 -.332E-02 0.169E-02   -.768E-06 -.308E-06 0.251E-06
   0.188E+00 0.883E-03 -.222E+00   -.159E+00 0.202E-02 0.194E+00   -.488E-01 -.351E-01 0.484E-01   -.693E-06 0.140E-06 0.574E-06
   0.325E-01 0.694E-01 0.809E-02   -.316E-01 -.702E-01 -.802E-02   -.265E-02 -.122E-02 0.672E-03   -.846E-07 -.716E-06 -.434E-07
   0.264E-01 0.239E+00 -.180E+00   -.249E-01 -.212E+00 0.153E+00   -.337E-01 -.470E-01 0.474E-01   0.226E-06 -.875E-06 0.361E-06
   -.152E-02 0.880E-02 0.103E-01   0.181E-02 -.849E-02 -.103E-01   -.659E-03 -.565E-03 0.922E-04   -.212E-06 -.830E-07 0.354E-06
   -.107E-01 0.281E-01 0.139E-01   0.128E-01 -.268E-01 -.155E-01   -.166E-02 -.100E-02 0.138E-02   -.113E-06 -.331E-06 0.254E-06
   -.460E-02 -.272E-01 -.221E-02   -.590E-03 0.384E-01 0.815E-02   0.604E-02 -.648E-02 -.673E-02   -.248E-06 -.388E-07 0.345E-06
   -.557E-02 -.107E-01 0.197E-01   0.811E-02 0.129E-01 -.194E-01   -.212E-02 -.182E-02 -.148E-03   -.193E-06 -.157E-06 0.260E-06
   0.374E-01 0.101E-02 0.254E-02   -.381E-01 -.481E-03 -.229E-02   0.371E-03 -.634E-03 0.211E-04   -.236E-06 -.137E-06 0.170E-06
   0.600E-01 -.334E-01 -.164E-01   -.594E-01 0.343E-01 0.139E-01   -.226E-03 -.949E-03 0.188E-02   -.304E-06 -.187E-06 0.196E-06
   0.982E-02 0.111E-01 0.735E-02   -.101E-01 -.117E-01 -.802E-02   0.264E-03 0.274E-03 0.456E-03   -.718E-07 -.192E-06 0.271E-07
   0.438E-01 0.252E-01 0.265E-01   -.444E-01 -.241E-01 -.260E-01   0.633E-03 -.615E-03 -.172E-03   -.210E-06 -.273E-06 -.122E-06
   -.404E-02 0.971E-03 0.253E-02   0.434E-02 -.447E-03 -.229E-02   -.252E-03 -.628E-03 0.267E-04   -.129E-06 0.133E-07 0.424E-06
   -.135E-02 0.968E-02 0.110E-01   0.191E-02 -.928E-02 -.112E-01   -.440E-03 -.319E-03 0.122E-03   0.181E-08 -.873E-07 0.908E-07
   0.986E-02 -.177E-01 -.781E-02   -.102E-01 0.176E-01 0.802E-02   0.263E-03 0.371E-04 0.415E-05   -.134E-06 -.195E-06 -.699E-07
   -.174E-01 -.181E-01 -.980E-03   0.168E-01 0.196E-01 -.929E-03   0.407E-03 -.124E-02 0.159E-02   0.185E-06 -.196E-07 0.266E-06
   0.268E-02 0.114E-02 -.320E-02   -.322E-02 -.481E-03 0.329E-02   0.178E-03 -.781E-03 0.632E-04   -.316E-06 -.147E-06 0.786E-07
   0.143E-01 -.502E-02 0.209E-02   -.135E-01 0.562E-02 -.294E-02   -.673E-03 -.503E-03 0.672E-03   -.193E-06 -.458E-07 0.189E-06
   -.638E-02 0.728E-02 0.459E-03   0.757E-02 -.784E-02 -.110E-04   -.109E-02 0.238E-03 -.389E-03   -.723E-07 -.186E-06 0.180E-06
   0.952E-03 0.590E-02 0.382E-02   -.720E-03 -.479E-02 -.339E-02   -.268E-03 -.856E-03 -.330E-03   0.344E-07 -.875E-07 0.133E-06
   -.365E-02 -.260E-02 0.240E-02   0.430E-02 0.252E-02 -.229E-02   -.755E-03 0.132E-03 0.176E-03   -.359E-06 -.114E-06 0.203E-07
   -.517E-02 0.942E-03 0.381E-02   0.531E-02 -.711E-03 -.452E-02   -.113E-03 -.268E-03 0.536E-03   0.613E-07 -.961E-08 -.840E-07
   0.542E-02 -.510E-02 -.342E-03   -.551E-02 0.473E-02 0.544E-05   0.116E-04 0.242E-03 0.336E-03   -.229E-06 -.715E-08 0.118E-06
   0.252E-02 -.952E-02 -.216E-02   -.229E-02 0.965E-02 0.111E-02   -.263E-03 -.530E-04 0.894E-03   -.299E-06 0.512E-07 -.866E-07
   -.110E-01 0.256E-01 -.596E-01   0.956E-02 -.236E-01 0.601E-01   0.283E-03 -.357E-02 0.148E-02   0.146E-06 -.309E-06 0.723E-06
   -.475E-02 -.120E-01 -.177E-01   0.722E-02 0.138E-01 0.165E-01   -.197E-02 -.160E-02 0.853E-03   -.175E-06 -.201E-06 0.387E-06
   -.247E-01 0.240E-01 0.561E-02   0.361E-01 -.302E-01 0.109E-03   -.646E-02 0.697E-02 -.667E-02   -.195E-07 -.460E-06 -.120E-06
   -.335E-01 0.338E-01 0.590E-03   0.344E-01 -.323E-01 -.337E-04   -.945E-03 -.108E-02 -.556E-03   -.782E-07 -.392E-06 -.142E-06
   -.102E-01 0.526E-02 0.416E-02   0.956E-02 -.555E-02 -.475E-02   0.346E-03 0.199E-03 0.588E-03   -.221E-06 -.627E-07 0.195E-06
   -.165E-01 -.913E-02 0.852E-02   0.180E-01 0.809E-02 -.106E-01   -.121E-02 0.756E-03 0.168E-02   -.379E-06 0.123E-07 0.210E-07
   -.147E-04 -.101E-01 -.247E-03   -.183E-04 0.955E-02 0.458E-04   -.936E-04 0.306E-03 0.189E-03   -.249E-07 -.591E-07 0.194E-06
   0.243E-03 -.414E-02 0.352E-02   0.645E-03 0.470E-02 -.401E-02   -.740E-03 -.378E-03 0.474E-03   -.224E-06 0.623E-07 0.166E-06
   0.218E-01 0.153E-01 -.736E-02   -.229E-01 -.155E-01 0.802E-02   0.617E-03 -.118E-03 -.515E-03   0.755E-07 0.122E-06 -.158E-06
   0.270E-01 0.144E-01 -.240E-01   -.253E-01 -.131E-01 0.215E-01   -.209E-02 -.111E-02 0.218E-02   0.639E-07 0.165E-06 -.131E-06
   0.158E-01 0.133E-01 -.254E-02   -.155E-01 -.132E-01 0.229E-02   -.562E-03 -.599E-03 -.233E-04   0.207E-06 -.217E-06 -.291E-06
   0.181E-01 0.248E-01 -.398E-02   -.174E-01 -.232E-01 0.355E-02   -.771E-03 -.178E-02 0.123E-03   0.269E-06 -.254E-06 -.238E-06
   0.983E-02 0.824E-02 -.738E-02   -.101E-01 -.411E-02 0.805E-02   0.271E-03 -.267E-02 -.460E-03   -.877E-08 0.256E-06 0.193E-06
   0.838E-02 0.830E-02 0.151E-03   -.743E-02 -.740E-02 0.774E-05   -.849E-03 -.741E-03 -.160E-03   -.670E-07 0.207E-07 0.245E-07
   0.151E-01 -.536E-05 -.156E-01   -.155E-01 -.481E-03 0.150E-01   0.547E-04 0.383E-03 0.641E-03   -.106E-07 -.530E-07 0.178E-06
   0.857E-02 -.103E-01 -.114E-01   -.110E-01 0.466E-02 0.137E-01   0.284E-02 0.381E-02 -.278E-02   0.538E-07 0.195E-06 0.148E-06
   0.126E-01 0.145E-01 -.725E-02   -.136E-01 -.149E-01 0.805E-02   0.659E-03 0.395E-03 -.608E-03   -.189E-06 0.891E-08 -.591E-07
   0.218E-01 0.105E-01 -.571E-02   -.214E-01 -.104E-01 0.513E-02   -.302E-03 -.179E-03 0.447E-03   -.214E-06 0.377E-07 -.173E-06
   0.350E-02 0.878E-02 -.103E-01   -.274E-02 -.848E-02 0.103E-01   -.601E-03 -.559E-03 -.954E-04   0.966E-07 -.723E-07 -.142E-06
   0.120E-01 0.135E-01 -.381E-02   -.119E-01 -.127E-01 0.452E-02   -.147E-03 -.649E-03 -.536E-03   -.106E-06 -.149E-06 -.562E-07
   0.779E-03 0.206E-02 -.800E-02   -.453E-03 -.231E-02 0.802E-02   -.443E-03 0.393E-03 0.118E-03   -.132E-06 0.284E-06 0.161E-06
   0.227E-02 0.447E-02 -.741E-02   -.259E-02 -.400E-02 0.669E-02   0.258E-03 -.410E-03 0.578E-03   -.750E-07 0.103E-06 0.334E-06
   0.986E-02 0.511E-02 -.476E-02   -.103E-01 -.554E-02 0.475E-02   0.325E-03 0.350E-03 0.237E-04   -.290E-07 -.540E-08 -.180E-06
   0.104E-01 -.189E-02 -.977E-02   -.104E-01 0.174E-02 0.901E-02   -.151E-03 0.153E-03 0.687E-03   -.149E-06 -.107E-06 -.234E-07
   -.473E-03 0.819E-02 -.121E-01   -.183E-04 -.750E-02 0.127E-01   0.366E-03 -.820E-03 -.214E-03   0.408E-07 -.513E-07 0.186E-06
   0.574E-02 0.762E-02 -.823E-02   -.478E-02 -.736E-02 0.798E-02   -.695E-03 -.291E-03 0.189E-03   -.862E-09 -.465E-07 0.196E-06
   0.726E-03 0.522E-02 -.462E-02   0.394E-02 -.551E-02 0.475E-02   -.299E-02 0.200E-03 -.125E-03   0.222E-06 -.665E-07 -.379E-08
   -.278E-02 0.835E-02 -.745E-02   0.269E-02 -.741E-02 0.790E-02   0.628E-05 -.844E-03 -.371E-03   0.902E-07 -.275E-06 0.176E-06
   -.475E-03 0.313E-02 -.193E-03   -.183E-04 -.369E-02 -.544E-05   0.367E-03 0.437E-03 0.187E-03   -.505E-07 0.246E-06 -.871E-07
   -.218E-02 0.212E-02 -.300E-02   0.262E-02 -.259E-02 0.210E-02   -.388E-03 0.421E-03 0.720E-03   -.258E-07 0.928E-07 -.814E-07
   0.346E-02 0.524E-02 -.464E-02   -.369E-02 -.554E-02 0.477E-02   0.102E-03 0.201E-03 -.125E-03   0.108E-06 -.126E-06 -.464E-08
   0.513E-02 0.290E-02 -.225E-02   -.470E-02 -.268E-02 0.204E-02   -.297E-03 -.136E-03 0.162E-03   -.291E-07 -.150E-07 -.136E-06
   0.734E-02 0.127E-01 -.145E-01   -.850E-02 -.124E-01 0.161E-01   0.903E-03 -.753E-04 -.120E-02   0.271E-07 -.131E-06 0.600E-07
   0.554E-02 0.917E-02 -.223E-01   -.398E-02 -.845E-02 0.210E-01   -.922E-03 -.926E-03 0.152E-02   0.101E-06 0.209E-07 0.211E-06
   0.462E-02 0.124E-01 -.309E-02   -.523E-02 -.135E-01 0.229E-02   0.511E-03 0.887E-03 0.520E-03   0.124E-06 -.173E-06 -.287E-06
   -.810E-02 0.145E-01 -.606E-02   0.173E-02 -.170E-01 0.869E-02   0.432E-02 0.302E-02 -.308E-02   0.245E-06 0.515E-07 -.360E-06
   0.544E-02 0.417E-02 0.569E-04   -.553E-02 -.479E-02 0.544E-05   0.140E-04 0.492E-03 -.378E-04   -.949E-07 0.272E-06 0.211E-07
   0.951E-03 0.798E-02 0.686E-03   -.366E-03 -.774E-02 -.992E-03   -.404E-03 -.160E-03 0.338E-03   0.111E-07 0.179E-06 -.185E-06
   0.847E-02 0.128E-03 -.118E-01   -.782E-02 -.481E-03 0.128E-01   -.467E-03 0.236E-03 -.811E-03   -.952E-07 0.378E-07 0.154E-06
   0.446E-02 0.957E-03 -.510E-02   -.372E-02 -.374E-03 0.508E-02   -.637E-03 -.403E-03 0.242E-04   -.177E-07 0.961E-07 0.577E-07
   0.598E-01 0.322E-01 0.243E-02   -.609E-01 -.315E-01 -.229E-02   -.110E-02 -.245E-02 -.834E-03   -.646E-06 -.168E-06 -.204E-06
   0.218E-01 0.123E-01 0.211E-02   -.206E-01 -.114E-01 -.162E-02   -.115E-02 -.730E-03 -.400E-03   -.243E-07 0.576E-07 0.269E-06
   0.307E-01 0.352E-01 -.639E-02   -.234E-01 -.244E-01 -.109E-03   -.979E-02 -.793E-02 0.649E-02   -.607E-07 -.608E-06 -.219E-06
   0.303E-01 0.578E-02 0.119E-02   -.289E-01 -.296E-02 0.187E-02   -.130E-02 -.277E-02 -.225E-02   0.102E-06 -.290E-06 -.234E-06
   0.218E-01 0.787E-03 -.527E-01   -.212E-01 -.481E-03 0.524E-01   -.246E-02 0.550E-03 0.217E-02   -.291E-06 -.258E-07 0.744E-06
   0.364E-01 0.907E-02 -.191E-01   -.343E-01 -.148E-01 0.159E-01   -.249E-02 0.405E-02 0.329E-02   -.411E-06 0.815E-07 0.328E-06
   0.734E-02 0.628E-02 0.245E-03   -.850E-02 -.786E-02 -.200E-04   0.906E-03 0.126E-02 -.167E-03   0.907E-07 0.132E-06 0.191E-06
   0.124E-01 -.222E-02 -.147E-01   -.114E-01 0.956E-03 0.139E-01   -.727E-03 0.104E-02 0.138E-02   0.290E-07 -.200E-06 0.126E-06
   -.951E-02 0.250E-01 -.594E-01   0.956E-02 -.235E-01 0.604E-01   0.663E-03 -.313E-02 0.102E-02   -.841E-07 -.158E-06 0.439E-06
   0.210E-01 0.425E-01 -.207E-01   -.199E-01 -.430E-01 0.205E-01   -.556E-03 0.620E-03 -.179E-03   -.205E-06 -.136E-06 -.117E-06
   -.252E-01 -.469E-02 -.557E-02   0.361E-01 0.966E-02 -.149E-03   -.600E-02 -.617E-02 0.666E-02   0.134E-06 0.702E-08 -.500E-07
   -.801E-02 0.903E-02 -.261E-01   0.746E-02 -.646E-02 0.270E-01   0.471E-03 -.197E-02 -.864E-03   -.420E-07 -.301E-06 -.810E-07
   -.104E-01 0.478E-02 0.468E-02   0.956E-02 -.554E-02 -.481E-02   0.644E-03 0.663E-03 0.124E-03   -.193E-06 0.398E-07 0.215E-06
   -.130E-01 0.437E-02 -.176E-01   0.140E-01 -.588E-02 0.164E-01   -.760E-03 0.133E-02 0.845E-03   -.327E-06 0.148E-06 0.364E-06
   -.477E-03 0.296E-01 0.207E-03   -.183E-04 -.303E-01 -.544E-05   0.369E-03 0.499E-03 -.189E-03   0.326E-07 -.136E-06 -.269E-06
   0.380E-02 0.121E-01 0.444E-04   -.338E-02 -.124E-01 -.224E-04   -.288E-03 0.384E-03 -.224E-04   -.392E-07 -.327E-08 0.315E-07
   -.324E-02 -.719E-02 -.391E-02   0.181E-02 0.759E-02 0.574E-02   0.106E-02 -.300E-03 -.135E-02   0.160E-07 0.130E-06 0.826E-07
   -.590E-02 0.474E-02 -.179E-01   0.530E-02 -.435E-02 0.169E-01   0.281E-03 -.575E-03 0.117E-02   -.155E-06 0.224E-07 0.500E-07
   -.214E-03 -.370E-02 0.735E-02   -.475E-03 0.227E-02 -.804E-02   0.573E-03 0.104E-02 0.499E-03   0.128E-06 -.213E-07 -.123E-06
   -.125E-01 -.227E-02 -.188E-02   0.578E-02 0.532E-02 -.625E-03   0.470E-02 -.337E-02 0.300E-02   0.132E-06 -.267E-06 0.234E-06
   0.599E-03 0.511E-02 0.478E-02   -.768E-03 -.554E-02 -.477E-02   0.760E-04 0.350E-03 -.236E-04   -.144E-06 0.612E-07 -.155E-07
   -.130E-02 0.358E-02 0.511E-02   0.167E-02 -.367E-02 -.508E-02   -.243E-03 0.201E-03 -.244E-04   -.159E-06 0.636E-07 0.114E-06
   -.214E-02 0.486E-02 -.724E-02   0.251E-02 -.538E-02 0.805E-02   -.318E-03 0.468E-03 -.668E-03   -.136E-06 0.226E-07 -.115E-06
   0.232E-04 0.114E-01 -.287E-02   0.356E-03 -.114E-01 0.303E-02   -.251E-03 0.470E-04 -.114E-03   -.198E-07 -.549E-07 -.172E-06
   0.102E-01 -.440E-04 0.323E-02   -.117E-01 -.447E-03 -.229E-02   0.121E-02 0.387E-03 -.671E-03   0.291E-06 0.359E-07 0.129E-06
   0.713E-02 -.146E-03 -.726E-02   -.673E-02 -.643E-03 0.607E-02   0.230E-03 0.652E-03 0.419E-03   -.827E-07 -.107E-06 0.256E-06
   0.947E-02 -.292E-02 0.784E-02   -.101E-01 0.151E-02 -.805E-02   0.593E-03 0.101E-02 0.572E-04   0.259E-06 -.104E-06 -.213E-06
   0.746E-02 0.344E-02 0.407E-02   -.773E-02 -.237E-02 -.306E-02   0.495E-03 -.532E-03 -.628E-03   0.825E-07 -.171E-06 -.128E-06
   0.226E-01 -.803E-05 0.322E-02   -.222E-01 -.481E-03 -.229E-02   -.376E-03 0.384E-03 -.667E-03   -.188E-06 0.717E-07 0.118E-06
   0.853E-02 0.383E-02 0.443E-02   -.835E-02 -.340E-02 -.408E-02   -.899E-04 -.289E-03 -.385E-03   -.153E-06 0.900E-07 0.312E-07
   0.951E-02 -.432E-02 -.738E-02   -.101E-01 0.436E-02 0.805E-02   0.592E-03 0.793E-05 -.520E-03   0.669E-07 0.545E-07 0.117E-07
   0.887E-02 -.489E-03 -.763E-02   -.937E-02 0.356E-03 0.709E-02   0.176E-03 0.405E-03 0.176E-03   0.432E-07 -.168E-06 0.163E-06
 -----------------------------------------------------------------------------------------------
   -.601E-04 -.514E-04 -.278E-04   0.499E-13 -.394E-12 -.990E-13   0.610E-04 0.516E-04 0.284E-04   0.424E-07 0.309E-07 -.833E-07
 
 
 POSITION                                       TOTAL-FORCE (eV/Angst)
 -----------------------------------------------------------------------------------
      1.36715      1.35715      1.36715         0.004915      0.131262      0.000960
      0.00000      0.00000      0.00000        -0.022579     -0.032380     -0.020051
      1.35715      4.10144      4.10144         0.131275     -0.001579     -0.002007
      0.00000      2.73429      2.73429        -0.012914     -0.053071     -0.040483
      1.36715      6.83573      6.83573         0.004918     -0.001105     -0.001336
      0.00000      5.46858      5.46858        -0.033335      0.020318      0.020326
      1.36715      9.57002      9.57002         0.000718     -0.001586     -0.002031
      0.00000      8.20287      8.20287        -0.001577     -0.000685     -0.000672
      4.10144      1.36715      4.10144        -0.002536      0.006940     -0.001914
      2.73429      0.00000      2.73429         0.020770     -0.033196      0.020866
      4.10144      4.10144      6.83573        -0.001298      0.000845     -0.002167
      2.73429      2.73429      5.46858        -0.032907      0.020202     -0.019609
      4.10144      6.83573      9.57002         0.000104      0.000225     -0.000358
      2.73429      5.46858      8.20287         0.000091     -0.000399      0.000419
      4.10144      9.57002     12.30431         0.001928     -0.001435      0.000687
      2.73429      8.20287     10.93716        -0.000263     -0.000082      0.000500
      6.83573      1.36715      6.83573        -0.000047      0.001827     -0.000151
      5.46858      0.00000      5.46858        -0.000681     -0.001857     -0.000000
      6.83573      4.10144      9.57002         0.000009     -0.000105     -0.000641
      5.46858      2.73429      8.20287        -0.000365     -0.000394     -0.000037
      6.83573      6.83573     12.30431         0.000324      0.000066     -0.000207
      5.46858      5.46858     10.93716        -0.000135     -0.000214      0.000239
      6.83573      9.57002     15.03860         0.000066      0.000267     -0.000270
      5.46858      8.20287     13.67145         0.000143     -0.000289     -0.000315
      9.57002      1.36715      9.57002         0.000859      0.005189      0.000756
      8.20287      0.00000      8.20287         0.000723     -0.002436      0.000858
      9.57002      4.10144     12.30431         0.000439     -0.002534     -0.002978
      8.20287      2.73429     10.93716        -0.000548      0.000723      0.000147
      9.57002      6.83573     15.03860        -0.001435      0.001986      0.000812
      8.20287      5.46858     13.67145         0.000272     -0.000545      0.000813
      9.57002      9.57002     17.77289         0.000167      0.000104     -0.000479
      8.20287      8.20287     16.40574        -0.000595      0.000449     -0.000088
      4.10144      4.10144      1.36715        -0.003589     -0.002523      0.002972
      2.73429      2.73429      0.00000        -0.019698     -0.032221      0.019606
      4.10144      6.83573      4.10144        -0.001779     -0.002062      0.000742
      2.73429      5.46858      2.73429        -0.032219     -0.019870      0.020294
      4.10144      9.57002      6.83573        -0.000375     -0.000255      0.000123
      2.73429      8.20287      5.46858         0.000407      0.000284     -0.000263
      4.10144     12.30431      9.57002         0.000845      0.004643     -0.000798
      2.73429     10.93716      8.20287         0.000415      0.000411      0.000185
      6.83573      4.10144      4.10144        -0.000315     -0.000105      0.000273
      5.46858      2.73429      2.73429         0.000417     -0.000094     -0.000687
      6.83573      6.83573      6.83573        -0.000046     -0.000312     -0.000209
      5.46858      5.46858      5.46858         0.000058      0.000442      0.000325
      6.83573      9.57002      9.57002         0.000046     -0.000105      0.000270
      5.46858      8.20287      8.20287         0.000117      0.000080     -0.000037
      6.83573     12.30431     12.30431        -0.000046     -0.000043      0.000208
      5.46858     10.93716     10.93716        -0.000245      0.000271     -0.000319
      9.57002      4.10144      6.83573        -0.000366     -0.000117      0.000148
      8.20287      2.73429      5.46858         0.000223      0.000100     -0.000180
      9.57002      6.83573      9.57002         0.000104     -0.000316      0.000059
      8.20287      5.46858      8.20287        -0.000036      0.000256      0.000099
      9.57002      9.57002     12.30431        -0.000102      0.000055      0.000282
      8.20287      8.20287     10.93716         0.000019     -0.000037     -0.000176
      9.57002     12.30431     15.03860        -0.000082     -0.000125     -0.000000
      8.20287     10.93716     13.67145        -0.000033      0.000075     -0.000150
     12.30431      4.10144      9.57002        -0.001204     -0.001572      0.002017
     10.93716      2.73429      8.20287         0.000499      0.000241     -0.000361
     12.30431      6.83573     12.30431         0.004915      0.000782     -0.000948
     10.93716      5.46858     10.93716        -0.000092      0.000415      0.000000
     12.30431      9.57002     15.03860        -0.000264     -0.000094     -0.000001
     10.93716      8.20287     13.67145         0.000274     -0.000280     -0.000359
     12.30431     12.30431     17.77289        -0.000127     -0.000239     -0.000013
     10.93716     10.93716     16.40574         0.000148      0.000177     -0.000014
      6.83573      6.83573      1.36715        -0.000418     -0.000292      0.000147
      5.46858      5.46858      0.00000        -0.000405      0.000266     -0.000277
      6.83573      9.57002      4.10144        -0.000290     -0.000474     -0.000271
      5.46858      8.20287      2.73429        -0.000126     -0.000251     -0.000315
      6.83573     12.30431      6.83573        -0.000048      0.001461      0.000208
      5.46858     10.93716      5.46858         0.000102      0.000157     -0.000001
      6.83573     15.03860      9.57002        -0.000350     -0.000103      0.000100
      5.46858     13.67145      8.20287         0.000419     -0.001878     -0.000553
      9.57002      6.83573      4.10144        -0.000302     -0.000048      0.000196
      8.20287      5.46858      2.73429         0.000144     -0.000077     -0.000138
      9.57002      9.57002      6.83573         0.000165     -0.000254     -0.000121
      8.20287      8.20287      5.46858        -0.000074      0.000180      0.000176
      9.57002     12.30431      9.57002        -0.000116      0.000144      0.000137
      8.20287     10.93716      8.20287        -0.000059      0.000059     -0.000139
      9.57002     15.03860     12.30431        -0.000095     -0.000082      0.000014
      8.20287     13.67145     10.93716        -0.000077     -0.000002     -0.000073
     12.30431      6.83573      6.83573        -0.000126     -0.000130      0.000383
     10.93716      5.46858      5.46858         0.000264     -0.000031     -0.000056
     12.30431      9.57002      9.57002         0.001683     -0.000094      0.000002
     10.93716      8.20287      8.20287        -0.000080      0.000102      0.000077
     12.30431     12.30431     12.30431        -0.000126     -0.000125     -0.000012
     10.93716     10.93716     10.93716         0.000053     -0.000052     -0.000182
     12.30431     15.03860     15.03860        -0.000125     -0.000094      0.000001
     10.93716     13.67145     13.67145         0.000129      0.000082     -0.000048
     15.03860      6.83573      9.57002        -0.000254      0.000223      0.000358
     13.67145      5.46858      8.20287         0.000630     -0.000213      0.000218
     15.03860      9.57002     12.30431        -0.000106     -0.000303     -0.000283
     13.67145      8.20287     10.93716        -0.002059      0.000537     -0.000452
     15.03860     12.30431     15.03860        -0.000082     -0.000127      0.000025
     13.67145     10.93716     13.67145         0.000180      0.000084      0.000031
     15.03860     15.03860     17.77289         0.000176     -0.000117      0.000210
     13.67145     13.67145     16.40574         0.000099      0.000179     -0.000002
      9.57002      9.57002      1.36715        -0.002139     -0.001793     -0.000693
      8.20287      8.20287      0.00000         0.000052      0.000174      0.000091
      9.57002     12.30431      4.10144        -0.002532      0.002883     -0.000011
      8.20287     10.93716      2.73429         0.000135      0.000053      0.000809
      9.57002     15.03860      6.83573        -0.001854      0.000857      0.001824
      8.20287     13.67145      5.46858        -0.000396     -0.001696      0.000132
      9.57002     17.77289      9.57002        -0.000254     -0.000317      0.000059
      8.20287     16.40574      8.20287         0.000177     -0.000222      0.000585
     12.30431      9.57002      4.10144         0.000710     -0.001587      0.002034
     10.93716      8.20287      2.73429         0.000496      0.000055     -0.000349
     12.30431     12.30431      6.83573         0.004915     -0.001200      0.000948
     10.93716     10.93716      5.46858        -0.000085      0.000597     -0.000006
     12.30431     15.03860      9.57002        -0.000239     -0.000094     -0.000001
     10.93716     13.67145      8.20287         0.000259     -0.000182     -0.000366
     12.30431     17.77289     12.30431        -0.000127     -0.000179      0.000012
     10.93716     16.40574     10.93716         0.000133      0.000072     -0.000000
     15.03860      9.57002      6.83573        -0.000376      0.000105      0.000478
     13.67145      8.20287      5.46858        -0.000318     -0.000188      0.000191
     15.03860     12.30431      9.57002        -0.000116     -0.000397     -0.000196
     13.67145     10.93716      8.20287        -0.002029     -0.000318      0.000495
     15.03860     15.03860     12.30431        -0.000093     -0.000082     -0.000014
     13.67145     13.67145     10.93716         0.000132      0.000113      0.000002
     15.03860     17.77289     15.03860         0.000055     -0.000044      0.000137
     13.67145     16.40574     13.67145         0.000128      0.000041      0.000046
     17.77289      9.57002      9.57002        -0.000311     -0.000104      0.000271
     16.40574      8.20287      8.20287         0.000637     -0.000137     -0.000772
     17.77289     12.30431     12.30431        -0.000046     -0.000401     -0.000150
     16.40574     10.93716     10.93716         0.000229      0.000542      0.000379
     17.77289     15.03860     15.03860         0.000042     -0.000104      0.000270
     16.40574     13.67145     13.67145         0.000087      0.000134     -0.000029
     17.77289     17.77289     17.77289        -0.000045      0.000045      0.000149
     16.40574     16.40574     16.40574        -0.000322      0.000273     -0.000365
 -----------------------------------------------------------------------------------
    total drift:                                0.000001      0.000000      0.000001


--------------------------------------------------------------------------------------------------------



  FREE ENERGIE OF THE ION-ELECTRON SYSTEM (eV)
  ---------------------------------------------------
  free  energy   TOTEN  =      -682.56818690 eV

  energy  without entropy=     -682.56818690  energy(sigma->0) =     -682.56818690
 


--------------------------------------------------------------------------------------------------------


    POTLOK:  cpu time    0.5038: real time    0.5050


--------------------------------------------------------------------------------------------------------


     LOOP+:  cpu time  121.9326: real time  134.3076
    4ORBIT:  cpu time    0.0000: real time    0.0000

 total amount of memory used by VASP MPI-rank0   118934. kBytes
=======================================================================

   base      :      30000. kBytes
   nonl-proj :       7011. kBytes
   fftplans  :      53058. kBytes
   grid      :      20148. kBytes
   one-center:         21. kBytes
   wavefun   :       8696. kBytes
 
  
  
 General timing and accounting informations for this job:
 ========================================================
  
                  Total CPU time used (sec):      129.725
                            User time (sec):      127.101
                          System time (sec):        2.625
                         Elapsed time (sec):      142.176
  
                   Maximum memory used (kb):      240680.
                   Average memory used (kb):           0.
  
                          Minor page faults:        81148
                          Major page faults:            0
                 Voluntary context switches:          496
