<?xml version="1.0" encoding="ISO-8859-1"?>
<modeling>
 <generator>
  <i name="program" type="string">vasp </i>
  <i name="version" type="string">5.4.4.18Apr17-6-g9f103f2a35  </i>
  <i name="subversion" type="string">(build Aug 16 2020 16:33:06) complex            parallel </i>
  <i name="platform" type="string">LinuxIFC </i>
  <i name="date" type="string">2026 08 15 </i>
  <i name="time" type="string">15:49:33 </i>
 </generator>
 <incar>
  <i type="string" name="PREC">accurate</i>
  <i type="logical" name="ADDGRID"> T  </i>
  <i type="int" name="IBRION">    -1</i>
  <i name="EDIFF">      0.00000001</i>
  <i type="int" name="ISYM">     0</i>
  <i name="ENCUT">    500.00000000</i>
  <i type="logical" name="LREAL"> F  </i>
  <i type="int" name="ISMEAR">     0</i>
  <i name="SIGMA">      0.05000000</i>
  <i type="logical" name="LWAVE"> F  </i>
  <i type="logical" name="LCHARG"> F  </i>
  <v type="int" name="KPOINT_BSE">    -1     0     0     0</v>
 </incar>
 <structure name="primitive_cell" >
  <crystal>
   <varray name="basis" >
    <v>       0.00000000      10.93716070      10.93716070 </v>
    <v>      10.93716070       0.00000000      10.93716070 </v>
    <v>      10.93716070      10.93716070       0.00000000 </v>
   </varray>
   <i name="volume">   2616.63878844 </i>
   <varray name="rec_basis" >
    <v>      -0.04571570       0.04571570       0.04571570 </v>
    <v>       0.04571570      -0.04571570       0.04571570 </v>
    <v>       0.04571570       0.04571570      -0.04571570 </v>
   </varray>
  </crystal>
  <varray name="positions" >
   <v>       0.06295716       0.06204284       0.06295716 </v>
   <v>       0.25000000       0.00000000       0.00000000 </v>
   <v>       0.00000000       0.00000000       0.25000000 </v>
   <v>       0.00000000       0.25000000       0.00000000 </v>
   <v>      -0.00045716       0.00045716      -0.00045716 </v>
   <v>       0.31250000       0.06250000       0.06250000 </v>
   <v>       0.31250000      -0.18750000       0.06250000 </v>
   <v>       0.06250000       0.06250000       0.31250000 </v>
   <v>       0.06250000      -0.18750000       0.31250000 </v>
   <v>       0.06250000       0.31250000       0.06250000 </v>
   <v>       0.06250000      -0.18750000       0.06250000 </v>
   <v>      -0.18750000       0.06250000       0.31250000 </v>
   <v>       0.31250000       0.06250000      -0.18750000 </v>
   <v>      -0.18750000       0.06250000       0.06250000 </v>
   <v>      -0.18750000       0.31250000       0.06250000 </v>
   <v>       0.06250000       0.06250000      -0.18750000 </v>
   <v>       0.06250000       0.31250000      -0.18750000 </v>
   <v>       0.25000000       0.00000000       0.25000000 </v>
   <v>       0.25000000      -0.25000000       0.25000000 </v>
   <v>       0.25000000       0.25000000       0.00000000 </v>
   <v>       0.25000000      -0.25000000       0.00000000 </v>
   <v>       0.00000000       0.25000000       0.25000000 </v>
   <v>       0.00000000      -0.25000000       0.25000000 </v>
   <v>      -0.25000000       0.25000000       0.25000000 </v>
   <v>       0.25000000       0.25000000      -0.25000000 </v>
   <v>      -0.25000000       0.00000000       0.25000000 </v>
   <v>       0.25000000       0.00000000      -0.25000000 </v>
   <v>      -0.25000000       0.25000000       0.00000000 </v>
   <v>       0.00000000       0.25000000      -0.25000000 </v>
   <v>       0.31250000      -0.18750000       0.31250000 </v>
   <v>      -0.18750000       0.31250000       0.31250000 </v>
   <v>      -0.18750000      -0.18750000       0.31250000 </v>
   <v>       0.31250000       0.31250000      -0.18750000 </v>
   <v>       0.31250000      -0.18750000      -0.18750000 </v>
   <v>      -0.18750000       0.31250000      -0.18750000 </v>
   <v>      -0.50000000       0.00000000       0.00000000 </v>
   <v>      -0.50000000      -0.25000000       0.00000000 </v>
   <v>       0.00000000       0.00000000      -0.50000000 </v>
   <v>       0.00000000      -0.25000000      -0.50000000 </v>
   <v>      -0.25000000       0.00000000      -0.50000000 </v>
   <v>      -0.50000000       0.00000000      -0.25000000 </v>
   <v>       0.00000000      -0.50000000       0.00000000 </v>
   <v>       0.00000000      -0.25000000       0.00000000 </v>
   <v>      -0.25000000      -0.50000000       0.00000000 </v>
   <v>       0.00000000      -0.50000000      -0.25000000 </v>
   <v>      -0.25000000       0.00000000       0.00000000 </v>
   <v>       0.00000000       0.00000000      -0.25000000 </v>
   <v>      -0.43750000      -0.18750000       0.06250000 </v>
   <v>       0.31250000       0.06250000       0.31250000 </v>
   <v>       0.31250000      -0.43750000       0.31250000 </v>
   <v>       0.06250000      -0.18750000      -0.43750000 </v>
   <v>       0.31250000      -0.43750000       0.06250000 </v>
   <v>       0.06250000       0.31250000       0.31250000 </v>
   <v>      -0.18750000       0.06250000      -0.43750000 </v>
   <v>      -0.43750000      -0.18750000      -0.18750000 </v>
   <v>       0.31250000       0.31250000       0.06250000 </v>
   <v>       0.06250000      -0.43750000       0.31250000 </v>
   <v>      -0.18750000      -0.18750000      -0.43750000 </v>
   <v>      -0.43750000       0.06250000      -0.18750000 </v>
   <v>      -0.18750000      -0.43750000       0.06250000 </v>
   <v>      -0.18750000      -0.18750000       0.06250000 </v>
   <v>      -0.43750000       0.06250000       0.31250000 </v>
   <v>      -0.43750000       0.31250000       0.31250000 </v>
   <v>       0.31250000       0.06250000      -0.43750000 </v>
   <v>       0.31250000       0.31250000      -0.43750000 </v>
   <v>       0.06250000      -0.43750000      -0.18750000 </v>
   <v>       0.06250000      -0.18750000      -0.18750000 </v>
   <v>      -0.43750000       0.31250000       0.06250000 </v>
   <v>       0.06250000       0.31250000      -0.43750000 </v>
   <v>      -0.18750000       0.06250000      -0.18750000 </v>
   <v>      -0.18750000      -0.43750000      -0.18750000 </v>
   <v>      -0.50000000      -0.25000000       0.25000000 </v>
   <v>       0.25000000      -0.25000000      -0.50000000 </v>
   <v>       0.25000000       0.25000000       0.25000000 </v>
   <v>       0.25000000      -0.50000000       0.25000000 </v>
   <v>      -0.25000000       0.25000000      -0.50000000 </v>
   <v>      -0.50000000       0.25000000      -0.25000000 </v>
   <v>      -0.25000000      -0.25000000      -0.50000000 </v>
   <v>      -0.50000000      -0.25000000      -0.25000000 </v>
   <v>       0.25000000      -0.50000000      -0.25000000 </v>
   <v>      -0.25000000      -0.50000000       0.25000000 </v>
   <v>      -0.25000000      -0.25000000       0.25000000 </v>
   <v>       0.25000000      -0.25000000      -0.25000000 </v>
   <v>       0.25000000       0.25000000      -0.50000000 </v>
   <v>      -0.50000000       0.25000000       0.25000000 </v>
   <v>      -0.25000000       0.25000000      -0.25000000 </v>
   <v>      -0.25000000      -0.50000000      -0.25000000 </v>
   <v>      -0.43750000       0.06250000       0.06250000 </v>
   <v>      -0.43750000      -0.43750000       0.06250000 </v>
   <v>       0.06250000       0.06250000      -0.43750000 </v>
   <v>       0.06250000      -0.43750000      -0.43750000 </v>
   <v>       0.06250000      -0.43750000       0.06250000 </v>
   <v>      -0.43750000       0.06250000      -0.43750000 </v>
   <v>      -0.50000000       0.00000000       0.25000000 </v>
   <v>       0.25000000       0.00000000      -0.50000000 </v>
   <v>      -0.50000000      -0.50000000       0.25000000 </v>
   <v>       0.25000000      -0.50000000      -0.50000000 </v>
   <v>      -0.50000000       0.25000000       0.00000000 </v>
   <v>      -0.50000000      -0.50000000       0.00000000 </v>
   <v>       0.00000000       0.25000000      -0.50000000 </v>
   <v>       0.00000000      -0.50000000      -0.50000000 </v>
   <v>       0.25000000      -0.50000000       0.00000000 </v>
   <v>       0.00000000      -0.50000000       0.25000000 </v>
   <v>      -0.50000000       0.00000000      -0.50000000 </v>
   <v>      -0.50000000       0.25000000      -0.50000000 </v>
   <v>      -0.43750000      -0.43750000       0.31250000 </v>
   <v>      -0.43750000      -0.18750000       0.31250000 </v>
   <v>       0.31250000      -0.43750000      -0.43750000 </v>
   <v>       0.31250000      -0.18750000      -0.43750000 </v>
   <v>      -0.18750000       0.31250000      -0.43750000 </v>
   <v>      -0.18750000      -0.43750000      -0.43750000 </v>
   <v>      -0.43750000       0.31250000      -0.18750000 </v>
   <v>      -0.43750000      -0.43750000      -0.18750000 </v>
   <v>      -0.18750000      -0.43750000       0.31250000 </v>
   <v>      -0.43750000       0.31250000      -0.43750000 </v>
   <v>      -0.43750000      -0.18750000      -0.43750000 </v>
   <v>       0.31250000      -0.43750000      -0.18750000 </v>
   <v>      -0.25000000      -0.25000000       0.00000000 </v>
   <v>       0.00000000      -0.25000000      -0.25000000 </v>
   <v>      -0.25000000       0.00000000      -0.25000000 </v>
   <v>      -0.25000000      -0.25000000      -0.25000000 </v>
   <v>       0.31250000       0.31250000       0.31250000 </v>
   <v>      -0.18750000      -0.18750000      -0.18750000 </v>
   <v>      -0.50000000      -0.50000000      -0.50000000 </v>
   <v>      -0.50000000      -0.25000000      -0.50000000 </v>
   <v>      -0.25000000      -0.50000000      -0.50000000 </v>
   <v>      -0.50000000      -0.50000000      -0.25000000 </v>
   <v>      -0.43750000      -0.43750000      -0.43750000 </v>
  </varray>
 </structure>
 <varray name="primitive_index" >
  <v type="int" >        1 </v>
  <v type="int" >       66 </v>
  <v type="int" >       81 </v>
  <v type="int" >       69 </v>
  <v type="int" >       65 </v>
  <v type="int" >        2 </v>
  <v type="int" >       14 </v>
  <v type="int" >       17 </v>
  <v type="int" >       29 </v>
  <v type="int" >        5 </v>
  <v type="int" >       13 </v>
  <v type="int" >       20 </v>
  <v type="int" >       50 </v>
  <v type="int" >        4 </v>
  <v type="int" >        8 </v>
  <v type="int" >       49 </v>
  <v type="int" >       53 </v>
  <v type="int" >       82 </v>
  <v type="int" >       94 </v>
  <v type="int" >       70 </v>
  <v type="int" >       78 </v>
  <v type="int" >       85 </v>
  <v type="int" >       93 </v>
  <v type="int" >       88 </v>
  <v type="int" >      118 </v>
  <v type="int" >       84 </v>
  <v type="int" >      114 </v>
  <v type="int" >       72 </v>
  <v type="int" >      117 </v>
  <v type="int" >       30 </v>
  <v type="int" >       24 </v>
  <v type="int" >       32 </v>
  <v type="int" >       54 </v>
  <v type="int" >       62 </v>
  <v type="int" >       56 </v>
  <v type="int" >       67 </v>
  <v type="int" >       79 </v>
  <v type="int" >       97 </v>
  <v type="int" >      109 </v>
  <v type="int" >      100 </v>
  <v type="int" >      115 </v>
  <v type="int" >       73 </v>
  <v type="int" >       77 </v>
  <v type="int" >       76 </v>
  <v type="int" >      121 </v>
  <v type="int" >       68 </v>
  <v type="int" >      113 </v>
  <v type="int" >       15 </v>
  <v type="int" >       18 </v>
  <v type="int" >       26 </v>
  <v type="int" >       45 </v>
  <v type="int" >       10 </v>
  <v type="int" >       21 </v>
  <v type="int" >       36 </v>
  <v type="int" >       63 </v>
  <v type="int" >        6 </v>
  <v type="int" >       25 </v>
  <v type="int" >       48 </v>
  <v type="int" >       51 </v>
  <v type="int" >       12 </v>
  <v type="int" >       16 </v>
  <v type="int" >       19 </v>
  <v type="int" >       23 </v>
  <v type="int" >       34 </v>
  <v type="int" >       38 </v>
  <v type="int" >       57 </v>
  <v type="int" >       61 </v>
  <v type="int" >        7 </v>
  <v type="int" >       37 </v>
  <v type="int" >       52 </v>
  <v type="int" >       60 </v>
  <v type="int" >       95 </v>
  <v type="int" >      110 </v>
  <v type="int" >       86 </v>
  <v type="int" >       90 </v>
  <v type="int" >      104 </v>
  <v type="int" >      119 </v>
  <v type="int" >      112 </v>
  <v type="int" >      127 </v>
  <v type="int" >      122 </v>
  <v type="int" >       92 </v>
  <v type="int" >       96 </v>
  <v type="int" >      126 </v>
  <v type="int" >      102 </v>
  <v type="int" >       87 </v>
  <v type="int" >      120 </v>
  <v type="int" >      124 </v>
  <v type="int" >        3 </v>
  <v type="int" >       11 </v>
  <v type="int" >       33 </v>
  <v type="int" >       41 </v>
  <v type="int" >        9 </v>
  <v type="int" >       35 </v>
  <v type="int" >       83 </v>
  <v type="int" >       98 </v>
  <v type="int" >       91 </v>
  <v type="int" >      106 </v>
  <v type="int" >       71 </v>
  <v type="int" >       75 </v>
  <v type="int" >      101 </v>
  <v type="int" >      105 </v>
  <v type="int" >       74 </v>
  <v type="int" >       89 </v>
  <v type="int" >       99 </v>
  <v type="int" >      103 </v>
  <v type="int" >       27 </v>
  <v type="int" >       31 </v>
  <v type="int" >       42 </v>
  <v type="int" >       46 </v>
  <v type="int" >       40 </v>
  <v type="int" >       44 </v>
  <v type="int" >       55 </v>
  <v type="int" >       59 </v>
  <v type="int" >       28 </v>
  <v type="int" >       39 </v>
  <v type="int" >       47 </v>
  <v type="int" >       58 </v>
  <v type="int" >       80 </v>
  <v type="int" >      125 </v>
  <v type="int" >      116 </v>
  <v type="int" >      128 </v>
  <v type="int" >       22 </v>
  <v type="int" >       64 </v>
  <v type="int" >      107 </v>
  <v type="int" >      111 </v>
  <v type="int" >      108 </v>
  <v type="int" >      123 </v>
  <v type="int" >       43 </v>
 </varray>
 <kpoints>
  <generation param="Gamma">
   <v type="int" name="divisions">       1        1        1 </v>
   <v name="usershift">      0.00000000       0.00000000       0.00000000 </v>
   <v name="genvec1">      1.00000000       0.00000000       0.00000000 </v>
   <v name="genvec2">      0.00000000       1.00000000       0.00000000 </v>
   <v name="genvec3">      0.00000000       0.00000000       1.00000000 </v>
   <v name="shift">      0.00000000       0.00000000       0.00000000 </v>
  </generation>
  <varray name="kpointlist" >
   <v>       0.00000000       0.00000000       0.00000000 </v>
  </varray>
  <varray name="weights" >
   <v>       1.00000000 </v>
  </varray>
 </kpoints>
 <parameters>
  <separator name="general" >
   <i type="string" name="SYSTEM">unknown system</i>
   <i type="logical" name="LCOMPAT"> F  </i>
  </separator>
  <separator name="electronic" >
   <i type="string" name="PREC">accura</i>
   <i name="ENMAX">    500.00000000</i>
   <i name="ENAUG">    322.06900000</i>
   <i name="EDIFF">      0.00000001</i>
   <i type="int" name="IALGO">    38</i>
   <i type="int" name="IWAVPR">    10</i>
   <i type="int" name="NBANDS">   322</i>
   <i name="NELECT">    512.00000000</i>
   <i type="int" name="TURBO">     0</i>
   <i type="int" name="IRESTART">     0</i>
   <i type="int" name="NREBOOT">     0</i>
   <i type="int" name="NMIN">     0</i>
   <i name="EREF">      0.00000000</i>
   <separator name="electronic smearing" >
    <i type="int" name="ISMEAR">     0</i>
    <i name="SIGMA">      0.05000000</i>
    <i name="KSPACING">      0.50000000</i>
    <i type="logical" name="KGAMMA"> T  </i>
   </separator>
   <separator name="electronic projectors" >
    <i type="logical" name="LREAL"> F  </i>
    <v name="ROPT">      0.00000000</v>
    <i type="int" name="LMAXPAW">  -100</i>
    <i type="int" name="LMAXMIX">     2</i>
    <i type="logical" name="NLSPLINE"> F  </i>
   </separator>
   <separator name="electronic startup" >
    <i type="int" name="ISTART">     0</i>
    <i type="int" name="ICHARG">     2</i>
    <i type="int" name="INIWAV">     1</i>
   </separator>
   <separator name="electronic spin" >
    <i type="int" name="ISPIN">     1</i>
    <i type="logical" name="LNONCOLLINEAR"> F  </i>
    <v name="MAGMOM">      1.00000000      1.00000000      1.00000000      1.00000000      1.00000000      1.00000000      1.00000000      1.00000000      1.00000000      1.00000000      1.00000000      1.00000000      1.00000000      1.00000000      1.00000000      1.00000000      1.00000000      1.00000000      1.00000000      1.00000000
      1.00000000      1.00000000      1.00000000      1.00000000      1.00000000      1.00000000      1.00000000      1.00000000      1.00000000      1.00000000      1.00000000      1.00000000      1.00000000      1.00000000      1.00000000      1.00000000      1.00000000      1.00000000      1.00000000      1.00000000
      1.00000000      1.00000000      1.00000000      1.00000000      1.00000000      1.00000000      1.00000000      1.00000000      1.00000000      1.00000000      1.00000000      1.00000000      1.00000000      1.00000000      1.00000000      1.00000000      1.00000000      1.00000000      1.00000000      1.00000000
      1.00000000      1.00000000      1.00000000      1.00000000      1.00000000      1.00000000      1.00000000      1.00000000      1.00000000      1.00000000      1.00000000      1.00000000      1.00000000      1.00000000      1.00000000      1.00000000      1.00000000      1.00000000      1.00000000      1.00000000
      1.00000000      1.00000000      1.00000000      1.00000000      1.00000000      1.00000000      1.00000000      1.00000000      1.00000000      1.00000000      1.00000000      1.00000000      1.00000000      1.00000000      1.00000000      1.00000000      1.00000000      1.00000000      1.00000000      1.00000000
      1.00000000      1.00000000      1.00000000      1.00000000      1.00000000      1.00000000      1.00000000      1.00000000      1.00000000      1.00000000      1.00000000      1.00000000      1.00000000      1.00000000      1.00000000      1.00000000      1.00000000      1.00000000      1.00000000      1.00000000
      1.00000000      1.00000000      1.00000000      1.00000000      1.00000000      1.00000000      1.00000000      1.00000000</v>
    <i name="NUPDOWN">     -1.00000000</i>
    <i type="logical" name="LSORBIT"> F  </i>
    <v name="SAXIS">      0.00000000      0.00000000      1.00000000</v>
    <i type="logical" name="LSPIRAL"> F  </i>
    <v name="QSPIRAL">      0.00000000      0.00000000      0.00000000</v>
    <i type="logical" name="LZEROZ"> F  </i>
   </separator>
   <separator name="electronic exchange-correlation" >
    <i type="logical" name="LASPH"> F  </i>
    <i type="logical" name="LMETAGGA"> F  </i>
   </separator>
   <separator name="electronic convergence" >
    <i type="int" name="NELM">    60</i>
    <i type="int" name="NELMDL">    -5</i>
    <i type="int" name="NELMIN">     2</i>
    <i name="ENINI">    500.00000000</i>
    <separator name="electronic convergence detail" >
     <i type="logical" name="LDIAG"> T  </i>
     <i type="logical" name="LSUBROT"> F  </i>
     <i name="WEIMIN">      0.00000000</i>
     <i name="EBREAK">      0.00000000</i>
     <i name="DEPER">      0.30000000</i>
     <i type="int" name="NRMM">     4</i>
     <i name="TIME">      0.40000000</i>
    </separator>
   </separator>
   <separator name="electronic mixer" >
    <i name="AMIX">      0.40000000</i>
    <i name="BMIX">      1.00000000</i>
    <i name="AMIN">      0.10000000</i>
    <i name="AMIX_MAG">      1.60000000</i>
    <i name="BMIX_MAG">      1.00000000</i>
    <separator name="electronic mixer details" >
     <i type="int" name="IMIX">     4</i>
     <i type="logical" name="MIXFIRST"> F  </i>
     <i type="int" name="MAXMIX">   -45</i>
     <i name="WC">    100.00000000</i>
     <i type="int" name="INIMIX">     1</i>
     <i type="int" name="MIXPRE">     1</i>
     <i type="int" name="MREMOVE">     5</i>
    </separator>
   </separator>
   <separator name="electronic dipolcorrection" >
    <i type="logical" name="LDIPOL"> F  </i>
    <i type="logical" name="LMONO"> F  </i>
    <i type="int" name="IDIPOL">     0</i>
    <i name="EPSILON">      1.00000000</i>
    <v name="DIPOL">   -100.00000000   -100.00000000   -100.00000000</v>
    <i name="EFIELD">      0.00000000</i>
   </separator>
  </separator>
  <separator name="grids" >
   <i type="int" name="NGX">   120</i>
   <i type="int" name="NGY">   120</i>
   <i type="int" name="NGZ">   120</i>
   <i type="int" name="NGXF">   240</i>
   <i type="int" name="NGYF">   240</i>
   <i type="int" name="NGZF">   240</i>
   <i type="logical" name="ADDGRID"> T  </i>
  </separator>
  <separator name="ionic" >
   <i type="int" name="NSW">     0</i>
   <i type="int" name="IBRION">    -1</i>
   <i type="int" name="MDALGO">     0</i>
   <i type="int" name="ISIF">     2</i>
   <i name="PSTRESS">      0.00000000</i>
   <i name="EDIFFG">      0.00000010</i>
   <i type="int" name="NFREE">     0</i>
   <i name="POTIM">      0.50000000</i>
   <i name="SMASS">     -3.00000000</i>
   <i name="SCALEE">      1.00000000</i>
  </separator>
  <separator name="ionic md" >
   <i name="TEBEG">      0.00010000</i>
   <i name="TEEND">      0.00010000</i>
   <i type="int" name="NBLOCK">     1</i>
   <i type="int" name="KBLOCK">     1</i>
   <i type="int" name="NPACO">   256</i>
   <i name="APACO">     16.00000000</i>
  </separator>
  <separator name="symmetry" >
   <i type="int" name="ISYM">     0</i>
   <i name="SYMPREC">      0.00001000</i>
  </separator>
  <separator name="dos" >
   <i type="int" name="LORBIT">     0</i>
   <v name="RWIGS">     -1.00000000</v>
   <i type="int" name="NEDOS">   301</i>
   <i name="EMIN">     10.00000000</i>
   <i name="EMAX">    -10.00000000</i>
   <i name="EFERMI">      0.00000000</i>
  </separator>
  <separator name="writing" >
   <i type="int" name="NWRITE">     2</i>
   <i type="logical" name="LWAVE"> F  </i>
   <i type="logical" name="LDOWNSAMPLE"> F  </i>
   <i type="logical" name="LCHARG"> F  </i>
   <i type="logical" name="LPARD"> F  </i>
   <i type="logical" name="LVTOT"> F  </i>
   <i type="logical" name="LVHAR"> F  </i>
   <i type="logical" name="LELF"> F  </i>
   <i type="logical" name="LOPTICS"> F  </i>
   <v name="STM">      0.00000000      0.00000000      0.00000000      0.00000000      0.00000000      0.00000000      0.00000000</v>
  </separator>
  <separator name="performance" >
   <i type="int" name="NPAR">     2</i>
   <i type="int" name="NSIM">     4</i>
   <i type="int" name="NBLK">    -1</i>
   <i type="logical" name="LPLANE"> T  </i>
   <i type="logical" name="LSCALAPACK"> T  </i>
   <i type="logical" name="LSCAAWARE"> F  </i>
   <i type="logical" name="LSCALU"> F  </i>
   <i type="logical" name="LASYNC"> F  </i>
   <i type="logical" name="LORBITALREAL"> F  </i>
  </separator>
  <separator name="miscellaneous" >
   <i type="int" name="IDIOT">     3</i>
   <i type="int" name="ISPECIAL">     0</i>
   <i type="logical" name="LMUSIC"> F  </i>
   <v name="POMASS">     28.08500000</v>
   <v name="DARWINR">      0.00000000</v>
   <v name="DARWINV">      1.00000000</v>
   <i type="logical" name="LCORR"> T  </i>
  </separator>
  <i type="logical" name="GGA_COMPAT"> T  </i>
  <i type="logical" name="LBERRY"> F  </i>
  <i type="int" name="ICORELEVEL">     0</i>
  <i type="logical" name="LDAU"> F  </i>
  <i type="int" name="I_CONSTRAINED_M">     0</i>
  <separator name="electronic exchange-correlation" >
   <i type="string" name="GGA">--</i>
   <i type="int" name="VOSKOWN">     0</i>
   <i type="logical" name="LHFCALC"> F  </i>
   <i type="string" name="PRECFOCK"></i>
   <i type="logical" name="LSYMGRAD"> F  </i>
   <i type="logical" name="LHFONE"> F  </i>
   <i type="logical" name="LRHFCALC"> F  </i>
   <i type="logical" name="LTHOMAS"> F  </i>
   <i type="logical" name="LMODELHF"> F  </i>
   <i name="ENCUT4O">     -1.00000000</i>
   <i type="int" name="EXXOEP">     0</i>
   <i type="int" name="FOURORBIT">     0</i>
   <i name="AEXX">      0.00000000</i>
   <i name="HFALPHA">      0.00000000</i>
   <i name="MCALPHA">      0.00000000</i>
   <i name="ALDAX">      1.00000000</i>
   <i name="AGGAX">      1.00000000</i>
   <i name="ALDAC">      1.00000000</i>
   <i name="AGGAC">      1.00000000</i>
   <i type="int" name="NKREDX">     1</i>
   <i type="int" name="NKREDY">     1</i>
   <i type="int" name="NKREDZ">     1</i>
   <i type="logical" name="SHIFTRED"> F  </i>
   <i type="logical" name="ODDONLY"> F  </i>
   <i type="logical" name="EVENONLY"> F  </i>
   <i type="int" name="LMAXFOCK">     0</i>
   <i type="int" name="NMAXFOCKAE">     0</i>
   <i type="logical" name="LFOCKAEDFT"> F  </i>
   <i name="HFSCREEN">      0.00000000</i>
   <i name="HFSCREENC">      0.00000000</i>
   <i type="int" name="NBANDSGWLOW">     0</i>
  </separator>
  <separator name="vdW DFT" >
   <i type="logical" name="LUSE_VDW"> F  </i>
   <i name="Zab_VDW">     -0.84910000</i>
   <i name="PARAM1">      0.12340000</i>
   <i name="PARAM2">      1.00000000</i>
   <i name="PARAM3">      0.00000000</i>
  </separator>
  <separator name="model GW" >
   <i type="int" name="MODEL_GW">     0</i>
   <i name="MODEL_EPS0">     12.26549432</i>
   <i name="MODEL_ALPHA">      1.00000000</i>
  </separator>
  <separator name="linear response parameters" >
   <i type="logical" name="LEPSILON"> F  </i>
   <i type="logical" name="LRPA"> F  </i>
   <i type="logical" name="LNABLA"> F  </i>
   <i type="logical" name="LVEL"> F  </i>
   <i type="int" name="KINTER">     0</i>
   <i name="CSHIFT">      0.10000000</i>
   <i name="OMEGAMAX">     -1.00000000</i>
   <i name="DEG_THRESHOLD">      0.00200000</i>
   <i name="RTIME">     -0.10000000</i>
   <i name="WPLASMAI">      0.00000000</i>
   <v name="DFIELD">      0.00000000      0.00000000      0.00000000</v>
   <v name="WPLASMA">      0.00000000      0.00000000      0.00000000      0.00000000      0.00000000      0.00000000      0.00000000      0.00000000      0.00000000</v>
  </separator>
  <separator name="orbital magnetization" >
   <i type="logical" name="NUCIND"> F  </i>
   <v name="MAGPOS">      0.00000000      0.00000000      0.00000000</v>
   <i type="logical" name="LNICSALL"> T  </i>
   <i type="logical" name="ORBITALMAG"> F  </i>
   <i type="logical" name="LMAGBLOCH"> F  </i>
   <i type="logical" name="LCHIMAG"> F  </i>
   <i type="logical" name="LGAUGE"> T  </i>
   <i type="int" name="MAGATOM">     0</i>
   <v name="MAGDIPOL">      0.00000000      0.00000000      0.00000000</v>
   <v name="AVECCONST">      0.00000000      0.00000000      0.00000000</v>
  </separator>
  <separator name="response functions" >
   <i type="logical" name="LADDER"> F  </i>
   <i type="logical" name="LRPAFORCE"> F  </i>
   <i type="logical" name="LFXC"> F  </i>
   <i type="logical" name="LHARTREE"> T  </i>
   <i type="int" name="IBSE">     0</i>
   <v type="int" name="KPOINT">    -1     0     0     0</v>
   <i type="logical" name="LTCTE"> F  </i>
   <i type="logical" name="LTETE"> F  </i>
   <i type="logical" name="LTRIPLET"> F  </i>
   <i type="logical" name="LFXCEPS"> F  </i>
   <i type="logical" name="LFXHEG"> F  </i>
   <i type="int" name="NATURALO">     2</i>
   <i type="logical" name="L2ORDER"> F  </i>
   <i type="logical" name="LMP2LT"> F  </i>
   <i type="logical" name="LUSEW"> F  </i>
   <i name="ENCUTGW">     -2.00000000</i>
   <i name="ENCUTGWSOFT">     -2.00000000</i>
   <i name="ENCUTLF">     -1.00000000</i>
   <i type="int" name="LMAXMP2">    -1</i>
   <i name="SCISSOR">      0.00000000</i>
   <i type="int" name="NOMEGA">     0</i>
   <i type="int" name="NOMEGAR">     0</i>
   <i type="int" name="NBANDSGW">    -1</i>
   <i type="int" name="NBANDSO">    -1</i>
   <i type="int" name="NBANDSV">    -1</i>
   <i type="int" name="NELM">     1</i>
   <i type="int" name="NELMHF">     1</i>
   <i type="int" name="DIM">     3</i>
   <i type="int" name="ANTIRES">     0</i>
   <i name="OMEGAMAX">    -30.00000000</i>
   <i name="OMEGAMIN">    -30.00000000</i>
   <i name="OMEGATL">   -200.00000000</i>
   <i type="int" name="OMEGAGRID">   140</i>
   <i name="CSHIFT">     -0.10000000</i>
   <i type="logical" name="SELFENERGY"> F  </i>
   <i type="logical" name="LSPECTRAL"> F  </i>
   <i type="logical" name="LSPECTRALGW"> F  </i>
   <i type="logical" name="LSINGLES"> F  </i>
   <i type="logical" name="LFERMIGW"> F  </i>
   <i type="logical" name="ODDONLYGW"> F  </i>
   <i type="logical" name="EVENONLYGW"> F  </i>
   <i type="int" name="NKREDLFX">     1</i>
   <i type="int" name="NKREDLFY">     1</i>
   <i type="int" name="NKREDLFZ">     1</i>
   <i type="int" name="MAXMEM">  2800</i>
   <i type="int" name="TELESCOPE">     0</i>
   <i type="int" name="TAUPAR">     1</i>
   <i type="int" name="OMEGAPAR">    -1</i>
   <i name="LAMBDA">      1.00000000</i>
  </separator>
  <separator name="External order field" >
   <i name="OFIELD_KAPPA">      0.00000000</i>
   <v name="OFIELD_K">      0.00000000      0.00000000      0.00000000</v>
   <i name="OFIELD_Q6_NEAR">      0.00000000</i>
   <i name="OFIELD_Q6_FAR">      0.00000000</i>
   <i name="OFIELD_A">      0.00000000</i>
  </separator>
 </parameters>
 <atominfo>
  <atoms>     128 </atoms>
  <types>       1 </types>
  <array name="atoms" >
   <dimension dim="1">ion</dimension>
   <field type="string">element</field>
   <field type="int">atomtype</field>
   <set>
    <rc><c>Si</c><c>   1</c></rc>
    <rc><c>Si</c><c>   1</c></rc>
    <rc><c>Si</c><c>   1</c></rc>
    <rc><c>Si</c><c>   1</c></rc>
    <rc><c>Si</c><c>   1</c></rc>
    <rc><c>Si</c><c>   1</c></rc>
    <rc><c>Si</c><c>   1</c></rc>
    <rc><c>Si</c><c>   1</c></rc>
    <rc><c>Si</c><c>   1</c></rc>
    <rc><c>Si</c><c>   1</c></rc>
    <rc><c>Si</c><c>   1</c></rc>
    <rc><c>Si</c><c>   1</c></rc>
    <rc><c>Si</c><c>   1</c></rc>
    <rc><c>Si</c><c>   1</c></rc>
    <rc><c>Si</c><c>   1</c></rc>
    <rc><c>Si</c><c>   1</c></rc>
    <rc><c>Si</c><c>   1</c></rc>
    <rc><c>Si</c><c>   1</c></rc>
    <rc><c>Si</c><c>   1</c></rc>
    <rc><c>Si</c><c>   1</c></rc>
    <rc><c>Si</c><c>   1</c></rc>
    <rc><c>Si</c><c>   1</c></rc>
    <rc><c>Si</c><c>   1</c></rc>
    <rc><c>Si</c><c>   1</c></rc>
    <rc><c>Si</c><c>   1</c></rc>
    <rc><c>Si</c><c>   1</c></rc>
    <rc><c>Si</c><c>   1</c></rc>
    <rc><c>Si</c><c>   1</c></rc>
    <rc><c>Si</c><c>   1</c></rc>
    <rc><c>Si</c><c>   1</c></rc>
    <rc><c>Si</c><c>   1</c></rc>
    <rc><c>Si</c><c>   1</c></rc>
    <rc><c>Si</c><c>   1</c></rc>
    <rc><c>Si</c><c>   1</c></rc>
    <rc><c>Si</c><c>   1</c></rc>
    <rc><c>Si</c><c>   1</c></rc>
    <rc><c>Si</c><c>   1</c></rc>
    <rc><c>Si</c><c>   1</c></rc>
    <rc><c>Si</c><c>   1</c></rc>
    <rc><c>Si</c><c>   1</c></rc>
    <rc><c>Si</c><c>   1</c></rc>
    <rc><c>Si</c><c>   1</c></rc>
    <rc><c>Si</c><c>   1</c></rc>
    <rc><c>Si</c><c>   1</c></rc>
    <rc><c>Si</c><c>   1</c></rc>
    <rc><c>Si</c><c>   1</c></rc>
    <rc><c>Si</c><c>   1</c></rc>
    <rc><c>Si</c><c>   1</c></rc>
    <rc><c>Si</c><c>   1</c></rc>
    <rc><c>Si</c><c>   1</c></rc>
    <rc><c>Si</c><c>   1</c></rc>
    <rc><c>Si</c><c>   1</c></rc>
    <rc><c>Si</c><c>   1</c></rc>
    <rc><c>Si</c><c>   1</c></rc>
    <rc><c>Si</c><c>   1</c></rc>
    <rc><c>Si</c><c>   1</c></rc>
    <rc><c>Si</c><c>   1</c></rc>
    <rc><c>Si</c><c>   1</c></rc>
    <rc><c>Si</c><c>   1</c></rc>
    <rc><c>Si</c><c>   1</c></rc>
    <rc><c>Si</c><c>   1</c></rc>
    <rc><c>Si</c><c>   1</c></rc>
    <rc><c>Si</c><c>   1</c></rc>
    <rc><c>Si</c><c>   1</c></rc>
    <rc><c>Si</c><c>   1</c></rc>
    <rc><c>Si</c><c>   1</c></rc>
    <rc><c>Si</c><c>   1</c></rc>
    <rc><c>Si</c><c>   1</c></rc>
    <rc><c>Si</c><c>   1</c></rc>
    <rc><c>Si</c><c>   1</c></rc>
    <rc><c>Si</c><c>   1</c></rc>
    <rc><c>Si</c><c>   1</c></rc>
    <rc><c>Si</c><c>   1</c></rc>
    <rc><c>Si</c><c>   1</c></rc>
    <rc><c>Si</c><c>   1</c></rc>
    <rc><c>Si</c><c>   1</c></rc>
    <rc><c>Si</c><c>   1</c></rc>
    <rc><c>Si</c><c>   1</c></rc>
    <rc><c>Si</c><c>   1</c></rc>
    <rc><c>Si</c><c>   1</c></rc>
    <rc><c>Si</c><c>   1</c></rc>
    <rc><c>Si</c><c>   1</c></rc>
    <rc><c>Si</c><c>   1</c></rc>
    <rc><c>Si</c><c>   1</c></rc>
    <rc><c>Si</c><c>   1</c></rc>
    <rc><c>Si</c><c>   1</c></rc>
    <rc><c>Si</c><c>   1</c></rc>
    <rc><c>Si</c><c>   1</c></rc>
    <rc><c>Si</c><c>   1</c></rc>
    <rc><c>Si</c><c>   1</c></rc>
    <rc><c>Si</c><c>   1</c></rc>
    <rc><c>Si</c><c>   1</c></rc>
    <rc><c>Si</c><c>   1</c></rc>
    <rc><c>Si</c><c>   1</c></rc>
    <rc><c>Si</c><c>   1</c></rc>
    <rc><c>Si</c><c>   1</c></rc>
    <rc><c>Si</c><c>   1</c></rc>
    <rc><c>Si</c><c>   1</c></rc>
    <rc><c>Si</c><c>   1</c></rc>
    <rc><c>Si</c><c>   1</c></rc>
    <rc><c>Si</c><c>   1</c></rc>
    <rc><c>Si</c><c>   1</c></rc>
    <rc><c>Si</c><c>   1</c></rc>
    <rc><c>Si</c><c>   1</c></rc>
    <rc><c>Si</c><c>   1</c></rc>
    <rc><c>Si</c><c>   1</c></rc>
    <rc><c>Si</c><c>   1</c></rc>
    <rc><c>Si</c><c>   1</c></rc>
    <rc><c>Si</c><c>   1</c></rc>
    <rc><c>Si</c><c>   1</c></rc>
    <rc><c>Si</c><c>   1</c></rc>
    <rc><c>Si</c><c>   1</c></rc>
    <rc><c>Si</c><c>   1</c></rc>
    <rc><c>Si</c><c>   1</c></rc>
    <rc><c>Si</c><c>   1</c></rc>
    <rc><c>Si</c><c>   1</c></rc>
    <rc><c>Si</c><c>   1</c></rc>
    <rc><c>Si</c><c>   1</c></rc>
    <rc><c>Si</c><c>   1</c></rc>
    <rc><c>Si</c><c>   1</c></rc>
    <rc><c>Si</c><c>   1</c></rc>
    <rc><c>Si</c><c>   1</c></rc>
    <rc><c>Si</c><c>   1</c></rc>
    <rc><c>Si</c><c>   1</c></rc>
    <rc><c>Si</c><c>   1</c></rc>
    <rc><c>Si</c><c>   1</c></rc>
    <rc><c>Si</c><c>   1</c></rc>
    <rc><c>Si</c><c>   1</c></rc>
   </set>
  </array>
  <array name="atomtypes" >
   <dimension dim="1">type</dimension>
   <field type="int">atomspertype</field>
   <field type="string">element</field>
   <field>mass</field>
   <field>valence</field>
   <field type="string">pseudopotential</field>
   <set>
    <rc><c> 128</c><c>Si</c><c>     28.08500000</c><c>      4.00000000</c><c> PAW_PBE Si 05Jan2001                   </c></rc>
   </set>
  </array>
 </atominfo>
 <structure name="initialpos" >
  <crystal>
   <varray name="basis" >
    <v>       0.00000000      10.93716070      10.93716070 </v>
    <v>      10.93716070       0.00000000      10.93716070 </v>
    <v>      10.93716070      10.93716070       0.00000000 </v>
   </varray>
   <i name="volume">   2616.63878844 </i>
   <varray name="rec_basis" >
    <v>      -0.04571570       0.04571570       0.04571570 </v>
    <v>       0.04571570      -0.04571570       0.04571570 </v>
    <v>       0.04571570       0.04571570      -0.04571570 </v>
   </varray>
  </crystal>
  <varray name="positions" >
   <v>       0.06295716       0.06204284       0.06295716 </v>
   <v>       0.31250000       0.06250000       0.06250000 </v>
   <v>       0.56250000       0.06250000       0.06250000 </v>
   <v>       0.81250000       0.06250000       0.06250000 </v>
   <v>       0.06250000       0.31250000       0.06250000 </v>
   <v>       0.31250000       0.31250000       0.06250000 </v>
   <v>       0.56250000       0.31250000       0.06250000 </v>
   <v>       0.81250000       0.31250000       0.06250000 </v>
   <v>       0.06250000       0.56250000       0.06250000 </v>
   <v>       0.31250000       0.56250000       0.06250000 </v>
   <v>       0.56250000       0.56250000       0.06250000 </v>
   <v>       0.81250000       0.56250000       0.06250000 </v>
   <v>       0.06250000       0.81250000       0.06250000 </v>
   <v>       0.31250000       0.81250000       0.06250000 </v>
   <v>       0.56250000       0.81250000       0.06250000 </v>
   <v>       0.81250000       0.81250000       0.06250000 </v>
   <v>       0.06250000       0.06250000       0.31250000 </v>
   <v>       0.31250000       0.06250000       0.31250000 </v>
   <v>       0.56250000       0.06250000       0.31250000 </v>
   <v>       0.81250000       0.06250000       0.31250000 </v>
   <v>       0.06250000       0.31250000       0.31250000 </v>
   <v>       0.31250000       0.31250000       0.31250000 </v>
   <v>       0.56250000       0.31250000       0.31250000 </v>
   <v>       0.81250000       0.31250000       0.31250000 </v>
   <v>       0.06250000       0.56250000       0.31250000 </v>
   <v>       0.31250000       0.56250000       0.31250000 </v>
   <v>       0.56250000       0.56250000       0.31250000 </v>
   <v>       0.81250000       0.56250000       0.31250000 </v>
   <v>       0.06250000       0.81250000       0.31250000 </v>
   <v>       0.31250000       0.81250000       0.31250000 </v>
   <v>       0.56250000       0.81250000       0.31250000 </v>
   <v>       0.81250000       0.81250000       0.31250000 </v>
   <v>       0.06250000       0.06250000       0.56250000 </v>
   <v>       0.31250000       0.06250000       0.56250000 </v>
   <v>       0.56250000       0.06250000       0.56250000 </v>
   <v>       0.81250000       0.06250000       0.56250000 </v>
   <v>       0.06250000       0.31250000       0.56250000 </v>
   <v>       0.31250000       0.31250000       0.56250000 </v>
   <v>       0.56250000       0.31250000       0.56250000 </v>
   <v>       0.81250000       0.31250000       0.56250000 </v>
   <v>       0.06250000       0.56250000       0.56250000 </v>
   <v>       0.31250000       0.56250000       0.56250000 </v>
   <v>       0.56250000       0.56250000       0.56250000 </v>
   <v>       0.81250000       0.56250000       0.56250000 </v>
   <v>       0.06250000       0.81250000       0.56250000 </v>
   <v>       0.31250000       0.81250000       0.56250000 </v>
   <v>       0.56250000       0.81250000       0.56250000 </v>
   <v>       0.81250000       0.81250000       0.56250000 </v>
   <v>       0.06250000       0.06250000       0.81250000 </v>
   <v>       0.31250000       0.06250000       0.81250000 </v>
   <v>       0.56250000       0.06250000       0.81250000 </v>
   <v>       0.81250000       0.06250000       0.81250000 </v>
   <v>       0.06250000       0.31250000       0.81250000 </v>
   <v>       0.31250000       0.31250000       0.81250000 </v>
   <v>       0.56250000       0.31250000       0.81250000 </v>
   <v>       0.81250000       0.31250000       0.81250000 </v>
   <v>       0.06250000       0.56250000       0.81250000 </v>
   <v>       0.31250000       0.56250000       0.81250000 </v>
   <v>       0.56250000       0.56250000       0.81250000 </v>
   <v>       0.81250000       0.56250000       0.81250000 </v>
   <v>       0.06250000       0.81250000       0.81250000 </v>
   <v>       0.31250000       0.81250000       0.81250000 </v>
   <v>       0.56250000       0.81250000       0.81250000 </v>
   <v>       0.81250000       0.81250000       0.81250000 </v>
   <v>       0.99954284       0.00045716       0.99954284 </v>
   <v>       0.25000000       0.00000000       0.00000000 </v>
   <v>       0.50000000       0.00000000       0.00000000 </v>
   <v>       0.75000000       0.00000000       0.00000000 </v>
   <v>       0.00000000       0.25000000       0.00000000 </v>
   <v>       0.25000000       0.25000000       0.00000000 </v>
   <v>       0.50000000       0.25000000       0.00000000 </v>
   <v>       0.75000000       0.25000000       0.00000000 </v>
   <v>       0.00000000       0.50000000       0.00000000 </v>
   <v>       0.25000000       0.50000000       0.00000000 </v>
   <v>       0.50000000       0.50000000       0.00000000 </v>
   <v>       0.75000000       0.50000000       0.00000000 </v>
   <v>       0.00000000       0.75000000       0.00000000 </v>
   <v>       0.25000000       0.75000000       0.00000000 </v>
   <v>       0.50000000       0.75000000       0.00000000 </v>
   <v>       0.75000000       0.75000000       0.00000000 </v>
   <v>       0.00000000       0.00000000       0.25000000 </v>
   <v>       0.25000000       0.00000000       0.25000000 </v>
   <v>       0.50000000       0.00000000       0.25000000 </v>
   <v>       0.75000000       0.00000000       0.25000000 </v>
   <v>       0.00000000       0.25000000       0.25000000 </v>
   <v>       0.25000000       0.25000000       0.25000000 </v>
   <v>       0.50000000       0.25000000       0.25000000 </v>
   <v>       0.75000000       0.25000000       0.25000000 </v>
   <v>       0.00000000       0.50000000       0.25000000 </v>
   <v>       0.25000000       0.50000000       0.25000000 </v>
   <v>       0.50000000       0.50000000       0.25000000 </v>
   <v>       0.75000000       0.50000000       0.25000000 </v>
   <v>       0.00000000       0.75000000       0.25000000 </v>
   <v>       0.25000000       0.75000000       0.25000000 </v>
   <v>       0.50000000       0.75000000       0.25000000 </v>
   <v>       0.75000000       0.75000000       0.25000000 </v>
   <v>       0.00000000       0.00000000       0.50000000 </v>
   <v>       0.25000000       0.00000000       0.50000000 </v>
   <v>       0.50000000       0.00000000       0.50000000 </v>
   <v>       0.75000000       0.00000000       0.50000000 </v>
   <v>       0.00000000       0.25000000       0.50000000 </v>
   <v>       0.25000000       0.25000000       0.50000000 </v>
   <v>       0.50000000       0.25000000       0.50000000 </v>
   <v>       0.75000000       0.25000000       0.50000000 </v>
   <v>       0.00000000       0.50000000       0.50000000 </v>
   <v>       0.25000000       0.50000000       0.50000000 </v>
   <v>       0.50000000       0.50000000       0.50000000 </v>
   <v>       0.75000000       0.50000000       0.50000000 </v>
   <v>       0.00000000       0.75000000       0.50000000 </v>
   <v>       0.25000000       0.75000000       0.50000000 </v>
   <v>       0.50000000       0.75000000       0.50000000 </v>
   <v>       0.75000000       0.75000000       0.50000000 </v>
   <v>       0.00000000       0.00000000       0.75000000 </v>
   <v>       0.25000000       0.00000000       0.75000000 </v>
   <v>       0.50000000       0.00000000       0.75000000 </v>
   <v>       0.75000000       0.00000000       0.75000000 </v>
   <v>       0.00000000       0.25000000       0.75000000 </v>
   <v>       0.25000000       0.25000000       0.75000000 </v>
   <v>       0.50000000       0.25000000       0.75000000 </v>
   <v>       0.75000000       0.25000000       0.75000000 </v>
   <v>       0.00000000       0.50000000       0.75000000 </v>
   <v>       0.25000000       0.50000000       0.75000000 </v>
   <v>       0.50000000       0.50000000       0.75000000 </v>
   <v>       0.75000000       0.50000000       0.75000000 </v>
   <v>       0.00000000       0.75000000       0.75000000 </v>
   <v>       0.25000000       0.75000000       0.75000000 </v>
   <v>       0.50000000       0.75000000       0.75000000 </v>
   <v>       0.75000000       0.75000000       0.75000000 </v>
  </varray>
 </structure>
 <calculation>
  <scstep>
   <time name="dav">    4.76    4.77</time>
   <time name="total">    5.27    5.29</time>
   <energy>
    <i name="alphaZ">    210.78028765 </i>
    <i name="ewald"> -14524.86516627 </i>
    <i name="hartreedc">   -724.62012241 </i>
    <i name="XCdc">  -1195.83147587 </i>
    <i name="pawpsdc">   4221.13331941 </i>
    <i name="pawaedc">  -1969.18571412 </i>
    <i name="eentropy">     -0.01577861 </i>
    <i name="bandstr">   2165.01378622 </i>
    <i name="atom">  13192.48085998 </i>
    <i name="e_fr_energy">   1374.88999598 </i>
    <i name="e_wo_entrp">   1374.90577460 </i>
    <i name="e_0_energy">   1374.89788529 </i>
   </energy>
  </scstep>
  <scstep>
   <time name="dav">    5.38    5.40</time>
   <time name="total">    5.38    5.40</time>
   <energy>
    <i name="e_fr_energy">   -537.02396525 </i>
    <i name="e_wo_entrp">   -537.02396338 </i>
    <i name="e_0_energy">   -537.02396432 </i>
   </energy>
  </scstep>
  <scstep>
   <time name="dav">    5.42    5.44</time>
   <time name="total">    5.42    5.44</time>
   <energy>
    <i name="e_fr_energy">   -690.02367715 </i>
    <i name="e_wo_entrp">   -690.02367715 </i>
    <i name="e_0_energy">   -690.02367715 </i>
   </energy>
  </scstep>
  <scstep>
   <time name="dav">    5.35    5.37</time>
   <time name="total">    5.35    5.38</time>
   <energy>
    <i name="e_fr_energy">   -694.53300259 </i>
    <i name="e_wo_entrp">   -694.53300259 </i>
    <i name="e_0_energy">   -694.53300259 </i>
   </energy>
  </scstep>
  <scstep>
   <time name="dav">    5.31    5.33</time>
   <time name="total">    5.82    5.83</time>
   <energy>
    <i name="e_fr_energy">   -694.69845661 </i>
    <i name="e_wo_entrp">   -694.69845661 </i>
    <i name="e_0_energy">   -694.69845661 </i>
   </energy>
  </scstep>
  <scstep>
   <time name="dav">    4.99    5.00</time>
   <time name="total">    5.98    6.00</time>
   <energy>
    <i name="e_fr_energy">   -686.29954853 </i>
    <i name="e_wo_entrp">   -686.29954853 </i>
    <i name="e_0_energy">   -686.29954853 </i>
   </energy>
  </scstep>
  <scstep>
   <time name="dav">    4.90    4.91</time>
   <time name="total">    5.89    5.91</time>
   <energy>
    <i name="e_fr_energy">   -682.42666194 </i>
    <i name="e_wo_entrp">   -682.42666194 </i>
    <i name="e_0_energy">   -682.42666194 </i>
   </energy>
  </scstep>
  <scstep>
   <time name="dav">    5.01    5.02</time>
   <time name="total">    6.00    6.02</time>
   <energy>
    <i name="e_fr_energy">   -682.55871862 </i>
    <i name="e_wo_entrp">   -682.55871862 </i>
    <i name="e_0_energy">   -682.55871862 </i>
   </energy>
  </scstep>
  <scstep>
   <time name="dav">    5.45    5.46</time>
   <time name="total">    6.48    6.50</time>
   <energy>
    <i name="e_fr_energy">   -682.56517672 </i>
    <i name="e_wo_entrp">   -682.56517672 </i>
    <i name="e_0_energy">   -682.56517672 </i>
   </energy>
  </scstep>
  <scstep>
   <time name="dav">    4.90    4.92</time>
   <time name="total">    5.91    5.93</time>
   <energy>
    <i name="e_fr_energy">   -682.56785854 </i>
    <i name="e_wo_entrp">   -682.56785854 </i>
    <i name="e_0_energy">   -682.56785854 </i>
   </energy>
  </scstep>
  <scstep>
   <time name="dav">    5.34    5.36</time>
   <time name="total">    6.34    6.36</time>
   <energy>
    <i name="e_fr_energy">   -682.56787181 </i>
    <i name="e_wo_entrp">   -682.56787181 </i>
    <i name="e_0_energy">   -682.56787181 </i>
   </energy>
  </scstep>
  <scstep>
   <time name="dav">    5.29    5.30</time>
   <time name="total">    6.29    6.30</time>
   <energy>
    <i name="e_fr_energy">   -682.56787675 </i>
    <i name="e_wo_entrp">   -682.56787675 </i>
    <i name="e_0_energy">   -682.56787675 </i>
   </energy>
  </scstep>
  <scstep>
   <time name="dav">    5.30    5.31</time>
   <time name="total">    6.29    6.32</time>
   <energy>
    <i name="e_fr_energy">   -682.56787289 </i>
    <i name="e_wo_entrp">   -682.56787289 </i>
    <i name="e_0_energy">   -682.56787289 </i>
   </energy>
  </scstep>
  <scstep>
   <time name="dav">    5.18    5.20</time>
   <time name="total">    6.18    6.20</time>
   <energy>
    <i name="e_fr_energy">   -682.56787342 </i>
    <i name="e_wo_entrp">   -682.56787342 </i>
    <i name="e_0_energy">   -682.56787342 </i>
   </energy>
  </scstep>
  <scstep>
   <time name="dav">    4.03    4.04</time>
   <time name="total">    5.03    5.04</time>
   <energy>
    <i name="e_fr_energy">   -682.56787233 </i>
    <i name="e_wo_entrp">   -682.56787233 </i>
    <i name="e_0_energy">   -682.56787233 </i>
   </energy>
  </scstep>
  <scstep>
   <time name="dav">    3.28    3.28</time>
   <time name="total">    4.27    4.29</time>
   <energy>
    <i name="e_fr_energy">   -682.56787243 </i>
    <i name="e_wo_entrp">   -682.56787243 </i>
    <i name="e_0_energy">   -682.56787243 </i>
   </energy>
  </scstep>
  <scstep>
   <time name="dav">    3.19    3.20</time>
   <time name="total">    4.19    4.20</time>
   <energy>
    <i name="e_fr_energy">   -682.56787245 </i>
    <i name="e_wo_entrp">   -682.56787245 </i>
    <i name="e_0_energy">   -682.56787245 </i>
   </energy>
  </scstep>
  <scstep>
   <time name="dav">    3.20    3.21</time>
   <time name="total">    4.20    4.21</time>
   <energy>
    <i name="e_fr_energy">   -682.56787243 </i>
    <i name="e_wo_entrp">   -682.56787243 </i>
    <i name="e_0_energy">   -682.56787243 </i>
   </energy>
  </scstep>
  <scstep>
   <time name="dav">    3.20    3.21</time>
   <time name="total">    3.69    3.70</time>
   <energy>
    <i name="alphaZ">    210.78028765 </i>
    <i name="ewald"> -14524.86516627 </i>
    <i name="hartreedc">   -991.73277572 </i>
    <i name="XCdc">  -1153.28598632 </i>
    <i name="pawpsdc">   4723.40821698 </i>
    <i name="pawaedc">  -2485.14635734 </i>
    <i name="eentropy">     -0.00000000 </i>
    <i name="bandstr">    345.79304862 </i>
    <i name="atom">  13192.48085998 </i>
    <i name="e_fr_energy">   -682.56787242 </i>
    <i name="e_wo_entrp">   -682.56787242 </i>
    <i name="e_0_energy">   -682.56787242 </i>
   </energy>
  </scstep>
  <structure>
   <crystal>
    <varray name="basis" >
     <v>       0.00000000      10.93716070      10.93716070 </v>
     <v>      10.93716070       0.00000000      10.93716070 </v>
     <v>      10.93716070      10.93716070       0.00000000 </v>
    </varray>
    <i name="volume">   2616.63878844 </i>
    <varray name="rec_basis" >
     <v>      -0.04571570       0.04571570       0.04571570 </v>
     <v>       0.04571570      -0.04571570       0.04571570 </v>
     <v>       0.04571570       0.04571570      -0.04571570 </v>
    </varray>
   </crystal>
   <varray name="positions" >
    <v>       0.06295716       0.06204284       0.06295716 </v>
    <v>       0.31250000       0.06250000       0.06250000 </v>
    <v>       0.56250000       0.06250000       0.06250000 </v>
    <v>       0.81250000       0.06250000       0.06250000 </v>
    <v>       0.06250000       0.31250000       0.06250000 </v>
    <v>       0.31250000       0.31250000       0.06250000 </v>
    <v>       0.56250000       0.31250000       0.06250000 </v>
    <v>       0.81250000       0.31250000       0.06250000 </v>
    <v>       0.06250000       0.56250000       0.06250000 </v>
    <v>       0.31250000       0.56250000       0.06250000 </v>
    <v>       0.56250000       0.56250000       0.06250000 </v>
    <v>       0.81250000       0.56250000       0.06250000 </v>
    <v>       0.06250000       0.81250000       0.06250000 </v>
    <v>       0.31250000       0.81250000       0.06250000 </v>
    <v>       0.56250000       0.81250000       0.06250000 </v>
    <v>       0.81250000       0.81250000       0.06250000 </v>
    <v>       0.06250000       0.06250000       0.31250000 </v>
    <v>       0.31250000       0.06250000       0.31250000 </v>
    <v>       0.56250000       0.06250000       0.31250000 </v>
    <v>       0.81250000       0.06250000       0.31250000 </v>
    <v>       0.06250000       0.31250000       0.31250000 </v>
    <v>       0.31250000       0.31250000       0.31250000 </v>
    <v>       0.56250000       0.31250000       0.31250000 </v>
    <v>       0.81250000       0.31250000       0.31250000 </v>
    <v>       0.06250000       0.56250000       0.31250000 </v>
    <v>       0.31250000       0.56250000       0.31250000 </v>
    <v>       0.56250000       0.56250000       0.31250000 </v>
    <v>       0.81250000       0.56250000       0.31250000 </v>
    <v>       0.06250000       0.81250000       0.31250000 </v>
    <v>       0.31250000       0.81250000       0.31250000 </v>
    <v>       0.56250000       0.81250000       0.31250000 </v>
    <v>       0.81250000       0.81250000       0.31250000 </v>
    <v>       0.06250000       0.06250000       0.56250000 </v>
    <v>       0.31250000       0.06250000       0.56250000 </v>
    <v>       0.56250000       0.06250000       0.56250000 </v>
    <v>       0.81250000       0.06250000       0.56250000 </v>
    <v>       0.06250000       0.31250000       0.56250000 </v>
    <v>       0.31250000       0.31250000       0.56250000 </v>
    <v>       0.56250000       0.31250000       0.56250000 </v>
    <v>       0.81250000       0.31250000       0.56250000 </v>
    <v>       0.06250000       0.56250000       0.56250000 </v>
    <v>       0.31250000       0.56250000       0.56250000 </v>
    <v>       0.56250000       0.56250000       0.56250000 </v>
    <v>       0.81250000       0.56250000       0.56250000 </v>
    <v>       0.06250000       0.81250000       0.56250000 </v>
    <v>       0.31250000       0.81250000       0.56250000 </v>
    <v>       0.56250000       0.81250000       0.56250000 </v>
    <v>       0.81250000       0.81250000       0.56250000 </v>
    <v>       0.06250000       0.06250000       0.81250000 </v>
    <v>       0.31250000       0.06250000       0.81250000 </v>
    <v>       0.56250000       0.06250000       0.81250000 </v>
    <v>       0.81250000       0.06250000       0.81250000 </v>
    <v>       0.06250000       0.31250000       0.81250000 </v>
    <v>       0.31250000       0.31250000       0.81250000 </v>
    <v>       0.56250000       0.31250000       0.81250000 </v>
    <v>       0.81250000       0.31250000       0.81250000 </v>
    <v>       0.06250000       0.56250000       0.81250000 </v>
    <v>       0.31250000       0.56250000       0.81250000 </v>
    <v>       0.56250000       0.56250000       0.81250000 </v>
    <v>       0.81250000       0.56250000       0.81250000 </v>
    <v>       0.06250000       0.81250000       0.81250000 </v>
    <v>       0.31250000       0.81250000       0.81250000 </v>
    <v>       0.56250000       0.81250000       0.81250000 </v>
    <v>       0.81250000       0.81250000       0.81250000 </v>
    <v>       0.99954284       0.00045716       0.99954284 </v>
    <v>       0.25000000       0.00000000       0.00000000 </v>
    <v>       0.50000000       0.00000000       0.00000000 </v>
    <v>       0.75000000       0.00000000       0.00000000 </v>
    <v>       0.00000000       0.25000000       0.00000000 </v>
    <v>       0.25000000       0.25000000       0.00000000 </v>
    <v>       0.50000000       0.25000000       0.00000000 </v>
    <v>       0.75000000       0.25000000       0.00000000 </v>
    <v>       0.00000000       0.50000000       0.00000000 </v>
    <v>       0.25000000       0.50000000       0.00000000 </v>
    <v>       0.50000000       0.50000000       0.00000000 </v>
    <v>       0.75000000       0.50000000       0.00000000 </v>
    <v>       0.00000000       0.75000000       0.00000000 </v>
    <v>       0.25000000       0.75000000       0.00000000 </v>
    <v>       0.50000000       0.75000000       0.00000000 </v>
    <v>       0.75000000       0.75000000       0.00000000 </v>
    <v>       0.00000000       0.00000000       0.25000000 </v>
    <v>       0.25000000       0.00000000       0.25000000 </v>
    <v>       0.50000000       0.00000000       0.25000000 </v>
    <v>       0.75000000       0.00000000       0.25000000 </v>
    <v>       0.00000000       0.25000000       0.25000000 </v>
    <v>       0.25000000       0.25000000       0.25000000 </v>
    <v>       0.50000000       0.25000000       0.25000000 </v>
    <v>       0.75000000       0.25000000       0.25000000 </v>
    <v>       0.00000000       0.50000000       0.25000000 </v>
    <v>       0.25000000       0.50000000       0.25000000 </v>
    <v>       0.50000000       0.50000000       0.25000000 </v>
    <v>       0.75000000       0.50000000       0.25000000 </v>
    <v>       0.00000000       0.75000000       0.25000000 </v>
    <v>       0.25000000       0.75000000       0.25000000 </v>
    <v>       0.50000000       0.75000000       0.25000000 </v>
    <v>       0.75000000       0.75000000       0.25000000 </v>
    <v>       0.00000000       0.00000000       0.50000000 </v>
    <v>       0.25000000       0.00000000       0.50000000 </v>
    <v>       0.50000000       0.00000000       0.50000000 </v>
    <v>       0.75000000       0.00000000       0.50000000 </v>
    <v>       0.00000000       0.25000000       0.50000000 </v>
    <v>       0.25000000       0.25000000       0.50000000 </v>
    <v>       0.50000000       0.25000000       0.50000000 </v>
    <v>       0.75000000       0.25000000       0.50000000 </v>
    <v>       0.00000000       0.50000000       0.50000000 </v>
    <v>       0.25000000       0.50000000       0.50000000 </v>
    <v>       0.50000000       0.50000000       0.50000000 </v>
    <v>       0.75000000       0.50000000       0.50000000 </v>
    <v>       0.00000000       0.75000000       0.50000000 </v>
    <v>       0.25000000       0.75000000       0.50000000 </v>
    <v>       0.50000000       0.75000000       0.50000000 </v>
    <v>       0.75000000       0.75000000       0.50000000 </v>
    <v>       0.00000000       0.00000000       0.75000000 </v>
    <v>       0.25000000       0.00000000       0.75000000 </v>
    <v>       0.50000000       0.00000000       0.75000000 </v>
    <v>       0.75000000       0.00000000       0.75000000 </v>
    <v>       0.00000000       0.25000000       0.75000000 </v>
    <v>       0.25000000       0.25000000       0.75000000 </v>
    <v>       0.50000000       0.25000000       0.75000000 </v>
    <v>       0.75000000       0.25000000       0.75000000 </v>
    <v>       0.00000000       0.50000000       0.75000000 </v>
    <v>       0.25000000       0.50000000       0.75000000 </v>
    <v>       0.50000000       0.50000000       0.75000000 </v>
    <v>       0.75000000       0.50000000       0.75000000 </v>
    <v>       0.00000000       0.75000000       0.75000000 </v>
    <v>       0.25000000       0.75000000       0.75000000 </v>
    <v>       0.50000000       0.75000000       0.75000000 </v>
    <v>       0.75000000       0.75000000       0.75000000 </v>
   </varray>
  </structure>
  <varray name="forces" >
   <v>      -0.01938522      -0.16256225      -0.01938520 </v>
   <v>      -0.00049214       0.00138317       0.00183479 </v>
   <v>      -0.00047675      -0.00006739       0.00017387 </v>
   <v>       0.02146117      -0.03128673      -0.01850211 </v>
   <v>       0.00141751      -0.00694966       0.00141750 </v>
   <v>      -0.00065682       0.00035532       0.00053683 </v>
   <v>      -0.00000947      -0.00016506       0.00068254 </v>
   <v>      -0.00236114       0.00182287      -0.00061742 </v>
   <v>      -0.00047363      -0.00369960      -0.00047363 </v>
   <v>       0.00004944      -0.00010387      -0.00020584 </v>
   <v>      -0.00045128       0.00008748       0.00015809 </v>
   <v>      -0.00036589       0.00018222       0.00042829 </v>
   <v>       0.01900678      -0.03746758       0.01900676 </v>
   <v>      -0.00237854       0.00166373       0.00130723 </v>
   <v>      -0.00030577      -0.00001069       0.00023037 </v>
   <v>      -0.00060552       0.00035669       0.00055417 </v>
   <v>       0.00183478       0.00138318      -0.00049215 </v>
   <v>       0.00059371       0.00029901       0.00059370 </v>
   <v>      -0.00020365      -0.00194964       0.00062447 </v>
   <v>      -0.00062625      -0.00466941       0.00131027 </v>
   <v>       0.00053682       0.00035533      -0.00065684 </v>
   <v>      -0.00038536       0.00035491      -0.00038536 </v>
   <v>      -0.00012764       0.00025938      -0.00027980 </v>
   <v>      -0.00002136       0.00040757      -0.00000688 </v>
   <v>      -0.00020581      -0.00010387       0.00004945 </v>
   <v>      -0.00018610       0.00011069      -0.00018610 </v>
   <v>      -0.00002531       0.00019973       0.00001199 </v>
   <v>      -0.00000503       0.00028200       0.00003425 </v>
   <v>       0.00130724       0.00166372      -0.00237853 </v>
   <v>      -0.00002142       0.00023149      -0.00002142 </v>
   <v>       0.00002065       0.00024980      -0.00002103 </v>
   <v>      -0.00034293       0.00050161      -0.00034040 </v>
   <v>       0.00017384      -0.00006740      -0.00047675 </v>
   <v>       0.00062443      -0.00194965      -0.00020364 </v>
   <v>       0.00015952      -0.00159916       0.00015954 </v>
   <v>       0.00028705       0.00004928       0.00043023 </v>
   <v>       0.00068252      -0.00016508      -0.00000948 </v>
   <v>      -0.00027983       0.00025936      -0.00012763 </v>
   <v>       0.00003611       0.00023275       0.00003612 </v>
   <v>      -0.00002043       0.00015863       0.00001013 </v>
   <v>       0.00015813       0.00008750      -0.00045130 </v>
   <v>       0.00001200       0.00019970      -0.00002530 </v>
   <v>      -0.00002365       0.00021910      -0.00002367 </v>
   <v>      -0.00014640       0.00003881      -0.00008157 </v>
   <v>       0.00023038      -0.00001072      -0.00030577 </v>
   <v>      -0.00002100       0.00024978       0.00002066 </v>
   <v>      -0.00017123       0.00020472      -0.00017123 </v>
   <v>      -0.00029027       0.00020264      -0.00018893 </v>
   <v>      -0.01850212      -0.03128674       0.02146117 </v>
   <v>       0.00131024      -0.00466939      -0.00062628 </v>
   <v>       0.00043022       0.00004927       0.00028705 </v>
   <v>       0.00048973       0.00012614       0.00048972 </v>
   <v>      -0.00061740       0.00182289      -0.00236115 </v>
   <v>      -0.00000690       0.00040757      -0.00002136 </v>
   <v>       0.00001015       0.00015864      -0.00002042 </v>
   <v>      -0.00034049       0.00024261      -0.00034049 </v>
   <v>       0.00042830       0.00018221      -0.00036589 </v>
   <v>       0.00003427       0.00028198      -0.00000500 </v>
   <v>      -0.00008156       0.00003879      -0.00014640 </v>
   <v>      -0.00013113       0.00014621      -0.00013114 </v>
   <v>       0.00055416       0.00035670      -0.00060551 </v>
   <v>      -0.00034042       0.00050160      -0.00034292 </v>
   <v>      -0.00018893       0.00020264      -0.00029031 </v>
   <v>      -0.00001853       0.00020264      -0.00001853 </v>
   <v>       0.01938521       0.16256226       0.01938524 </v>
   <v>      -0.02146116       0.03128674       0.01850210 </v>
   <v>       0.00047674       0.00006741      -0.00017386 </v>
   <v>       0.00049212      -0.00138317      -0.00183478 </v>
   <v>      -0.01900679       0.03746759      -0.01900680 </v>
   <v>       0.00060551      -0.00035671      -0.00055417 </v>
   <v>       0.00030576       0.00001073      -0.00023036 </v>
   <v>       0.00237857      -0.00166373      -0.00130723 </v>
   <v>       0.00047362       0.00369955       0.00047361 </v>
   <v>       0.00036587      -0.00018222      -0.00042829 </v>
   <v>       0.00045129      -0.00008748      -0.00015813 </v>
   <v>      -0.00004943       0.00010388       0.00020582 </v>
   <v>      -0.00141751       0.00694965      -0.00141752 </v>
   <v>       0.00236114      -0.00182287       0.00061742 </v>
   <v>       0.00000946       0.00016506      -0.00068254 </v>
   <v>       0.00065683      -0.00035533      -0.00053683 </v>
   <v>       0.01850212       0.03128676      -0.02146115 </v>
   <v>      -0.00048971      -0.00012614      -0.00048975 </v>
   <v>      -0.00043023      -0.00004929      -0.00028706 </v>
   <v>      -0.00131023       0.00466938       0.00062631 </v>
   <v>      -0.00055417      -0.00035670       0.00060548 </v>
   <v>       0.00001853      -0.00020263       0.00001851 </v>
   <v>       0.00018894      -0.00020264       0.00029030 </v>
   <v>       0.00034041      -0.00050160       0.00034294 </v>
   <v>      -0.00042832      -0.00018223       0.00036586 </v>
   <v>       0.00013113      -0.00014623       0.00013114 </v>
   <v>       0.00008155      -0.00003879       0.00014641 </v>
   <v>      -0.00003428      -0.00028199       0.00000500 </v>
   <v>       0.00061740      -0.00182288       0.00236114 </v>
   <v>       0.00034049      -0.00024262       0.00034050 </v>
   <v>      -0.00001013      -0.00015861       0.00002041 </v>
   <v>       0.00000690      -0.00040758       0.00002137 </v>
   <v>      -0.00017387       0.00006738       0.00047675 </v>
   <v>      -0.00028709      -0.00004928      -0.00043024 </v>
   <v>      -0.00015953       0.00159916      -0.00015952 </v>
   <v>      -0.00062445       0.00194965       0.00020365 </v>
   <v>      -0.00023039       0.00001072       0.00030574 </v>
   <v>       0.00029028      -0.00020266       0.00018893 </v>
   <v>       0.00017123      -0.00020471       0.00017124 </v>
   <v>       0.00002103      -0.00024978      -0.00002064 </v>
   <v>      -0.00015812      -0.00008748       0.00045125 </v>
   <v>       0.00014639      -0.00003881       0.00008156 </v>
   <v>       0.00002363      -0.00021908       0.00002367 </v>
   <v>      -0.00001200      -0.00019970       0.00002532 </v>
   <v>      -0.00068251       0.00016508       0.00000944 </v>
   <v>       0.00002041      -0.00015863      -0.00001014 </v>
   <v>      -0.00003610      -0.00023275      -0.00003609 </v>
   <v>       0.00027984      -0.00025936       0.00012764 </v>
   <v>      -0.00183481      -0.00138318       0.00049214 </v>
   <v>       0.00062627       0.00466939      -0.00131024 </v>
   <v>       0.00020367       0.00194964      -0.00062443 </v>
   <v>      -0.00059372      -0.00029901      -0.00059370 </v>
   <v>      -0.00130724      -0.00166373       0.00237853 </v>
   <v>       0.00034296      -0.00050160       0.00034042 </v>
   <v>      -0.00002062      -0.00024981       0.00002102 </v>
   <v>       0.00002142      -0.00023148       0.00002142 </v>
   <v>       0.00020582       0.00010388      -0.00004943 </v>
   <v>       0.00000502      -0.00028202      -0.00003425 </v>
   <v>       0.00002531      -0.00019972      -0.00001200 </v>
   <v>       0.00018611      -0.00011068       0.00018612 </v>
   <v>      -0.00053681      -0.00035534       0.00065681 </v>
   <v>       0.00002138      -0.00040759       0.00000691 </v>
   <v>       0.00012765      -0.00025937       0.00027984 </v>
   <v>       0.00038538      -0.00035492       0.00038536 </v>
  </varray>
  <varray name="stress" >
   <v>       5.73319564       0.00028503      -0.10627956 </v>
   <v>       0.00028502       5.73066181       0.00028502 </v>
   <v>      -0.10627956       0.00028501       5.73319564 </v>
  </varray>
  <energy>
   <i name="e_fr_energy">   -682.56787242 </i>
   <i name="e_wo_entrp">   -682.56787242 </i>
   <i name="e_0_energy">     -0.00000000 </i>
  </energy>
  <time name="totalsc">  120.27  120.63</time>
  <eigenvalues>
   <array>
    <dimension dim="1">band</dimension>
    <dimension dim="2">kpoint</dimension>
    <dimension dim="3">spin</dimension>
    <field>eigene</field>
    <field>occ</field>
    <set>
     <set comment="spin 1">
      <set comment="kpoint 1">
       <r>   -6.1630    1.0000 </r>
       <r>   -5.3785    1.0000 </r>
       <r>   -5.3780    1.0000 </r>
       <r>   -5.3779    1.0000 </r>
       <r>   -5.3775    1.0000 </r>
       <r>   -5.3775    1.0000 </r>
       <r>   -5.3774    1.0000 </r>
       <r>   -5.3768    1.0000 </r>
       <r>   -5.3761    1.0000 </r>
       <r>   -5.1006    1.0000 </r>
       <r>   -5.1001    1.0000 </r>
       <r>   -5.0998    1.0000 </r>
       <r>   -5.0997    1.0000 </r>
       <r>   -5.0990    1.0000 </r>
       <r>   -5.0986    1.0000 </r>
       <r>   -4.1594    1.0000 </r>
       <r>   -4.1576    1.0000 </r>
       <r>   -4.1576    1.0000 </r>
       <r>   -4.1576    1.0000 </r>
       <r>   -4.1572    1.0000 </r>
       <r>   -4.1570    1.0000 </r>
       <r>   -4.1570    1.0000 </r>
       <r>   -4.1570    1.0000 </r>
       <r>   -4.1569    1.0000 </r>
       <r>   -4.1568    1.0000 </r>
       <r>   -4.1554    1.0000 </r>
       <r>   -4.1541    1.0000 </r>
       <r>   -3.8816    1.0000 </r>
       <r>   -3.8815    1.0000 </r>
       <r>   -3.8815    1.0000 </r>
       <r>   -3.8800    1.0000 </r>
       <r>   -3.5013    1.0000 </r>
       <r>   -3.4980    1.0000 </r>
       <r>   -3.4976    1.0000 </r>
       <r>   -3.4973    1.0000 </r>
       <r>   -3.4967    1.0000 </r>
       <r>   -3.4966    1.0000 </r>
       <r>   -3.4965    1.0000 </r>
       <r>   -3.4965    1.0000 </r>
       <r>   -3.4964    1.0000 </r>
       <r>   -3.4964    1.0000 </r>
       <r>   -3.4964    1.0000 </r>
       <r>   -3.4963    1.0000 </r>
       <r>   -3.4963    1.0000 </r>
       <r>   -3.4962    1.0000 </r>
       <r>   -3.4962    1.0000 </r>
       <r>   -3.4962    1.0000 </r>
       <r>   -3.4962    1.0000 </r>
       <r>   -3.4961    1.0000 </r>
       <r>   -3.4961    1.0000 </r>
       <r>   -3.4960    1.0000 </r>
       <r>   -3.4958    1.0000 </r>
       <r>   -3.4956    1.0000 </r>
       <r>   -3.4931    1.0000 </r>
       <r>   -3.4897    1.0000 </r>
       <r>   -2.0923    1.0000 </r>
       <r>   -2.0914    1.0000 </r>
       <r>   -2.0914    1.0000 </r>
       <r>   -2.0911    1.0000 </r>
       <r>   -2.0901    1.0000 </r>
       <r>   -2.0893    1.0000 </r>
       <r>   -1.9381    1.0000 </r>
       <r>   -1.9365    1.0000 </r>
       <r>   -1.9365    1.0000 </r>
       <r>   -1.9356    1.0000 </r>
       <r>   -1.9355    1.0000 </r>
       <r>   -1.9355    1.0000 </r>
       <r>   -1.9354    1.0000 </r>
       <r>   -1.9354    1.0000 </r>
       <r>   -1.9352    1.0000 </r>
       <r>   -1.9352    1.0000 </r>
       <r>   -1.9336    1.0000 </r>
       <r>   -1.9321    1.0000 </r>
       <r>   -1.2197    1.0000 </r>
       <r>   -1.2186    1.0000 </r>
       <r>   -1.2176    1.0000 </r>
       <r>   -1.2176    1.0000 </r>
       <r>   -0.6745    1.0000 </r>
       <r>   -0.6710    1.0000 </r>
       <r>   -0.6707    1.0000 </r>
       <r>   -0.6693    1.0000 </r>
       <r>   -0.6690    1.0000 </r>
       <r>   -0.6690    1.0000 </r>
       <r>   -0.6689    1.0000 </r>
       <r>   -0.6688    1.0000 </r>
       <r>   -0.6688    1.0000 </r>
       <r>   -0.6688    1.0000 </r>
       <r>   -0.6687    1.0000 </r>
       <r>   -0.6687    1.0000 </r>
       <r>   -0.6687    1.0000 </r>
       <r>   -0.6687    1.0000 </r>
       <r>   -0.6686    1.0000 </r>
       <r>   -0.6685    1.0000 </r>
       <r>   -0.6685    1.0000 </r>
       <r>   -0.6684    1.0000 </r>
       <r>   -0.6683    1.0000 </r>
       <r>   -0.6683    1.0000 </r>
       <r>   -0.6682    1.0000 </r>
       <r>   -0.6677    1.0000 </r>
       <r>   -0.6640    1.0000 </r>
       <r>   -0.6627    1.0000 </r>
       <r>    0.2142    1.0000 </r>
       <r>    0.2153    1.0000 </r>
       <r>    0.2156    1.0000 </r>
       <r>    0.2165    1.0000 </r>
       <r>    0.2167    1.0000 </r>
       <r>    0.2167    1.0000 </r>
       <r>    0.2167    1.0000 </r>
       <r>    0.2168    1.0000 </r>
       <r>    0.2168    1.0000 </r>
       <r>    0.2174    1.0000 </r>
       <r>    0.2187    1.0000 </r>
       <r>    0.2196    1.0000 </r>
       <r>    1.7662    1.0000 </r>
       <r>    1.7667    1.0000 </r>
       <r>    1.7674    1.0000 </r>
       <r>    1.7676    1.0000 </r>
       <r>    1.7680    1.0000 </r>
       <r>    1.7683    1.0000 </r>
       <r>    1.7688    1.0000 </r>
       <r>    1.7696    1.0000 </r>
       <r>    1.8843    1.0000 </r>
       <r>    1.8855    1.0000 </r>
       <r>    1.8856    1.0000 </r>
       <r>    1.8858    1.0000 </r>
       <r>    1.8858    1.0000 </r>
       <r>    1.8859    1.0000 </r>
       <r>    1.8860    1.0000 </r>
       <r>    1.8861    1.0000 </r>
       <r>    1.8861    1.0000 </r>
       <r>    1.8863    1.0000 </r>
       <r>    1.8867    1.0000 </r>
       <r>    1.8877    1.0000 </r>
       <r>    1.9773    1.0000 </r>
       <r>    1.9777    1.0000 </r>
       <r>    1.9780    1.0000 </r>
       <r>    1.9785    1.0000 </r>
       <r>    1.9787    1.0000 </r>
       <r>    1.9787    1.0000 </r>
       <r>    1.9789    1.0000 </r>
       <r>    1.9790    1.0000 </r>
       <r>    1.9792    1.0000 </r>
       <r>    1.9799    1.0000 </r>
       <r>    1.9802    1.0000 </r>
       <r>    1.9803    1.0000 </r>
       <r>    2.1394    1.0000 </r>
       <r>    2.1407    1.0000 </r>
       <r>    2.1408    1.0000 </r>
       <r>    2.1413    1.0000 </r>
       <r>    2.1415    1.0000 </r>
       <r>    2.1427    1.0000 </r>
       <r>    2.1837    1.0000 </r>
       <r>    2.1853    1.0000 </r>
       <r>    2.1855    1.0000 </r>
       <r>    2.1856    1.0000 </r>
       <r>    2.1864    1.0000 </r>
       <r>    2.1864    1.0000 </r>
       <r>    2.1866    1.0000 </r>
       <r>    2.1866    1.0000 </r>
       <r>    2.1867    1.0000 </r>
       <r>    2.1867    1.0000 </r>
       <r>    2.1867    1.0000 </r>
       <r>    2.1868    1.0000 </r>
       <r>    2.1869    1.0000 </r>
       <r>    2.1869    1.0000 </r>
       <r>    2.1870    1.0000 </r>
       <r>    2.1870    1.0000 </r>
       <r>    2.1870    1.0000 </r>
       <r>    2.1871    1.0000 </r>
       <r>    2.1872    1.0000 </r>
       <r>    2.1873    1.0000 </r>
       <r>    2.1874    1.0000 </r>
       <r>    2.1882    1.0000 </r>
       <r>    2.1903    1.0000 </r>
       <r>    2.1910    1.0000 </r>
       <r>    2.8559    1.0000 </r>
       <r>    2.8564    1.0000 </r>
       <r>    2.8565    1.0000 </r>
       <r>    2.8567    1.0000 </r>
       <r>    2.8569    1.0000 </r>
       <r>    2.8573    1.0000 </r>
       <r>    3.4898    1.0000 </r>
       <r>    3.4903    1.0000 </r>
       <r>    3.4908    1.0000 </r>
       <r>    3.4919    1.0000 </r>
       <r>    3.4921    1.0000 </r>
       <r>    3.4921    1.0000 </r>
       <r>    3.4921    1.0000 </r>
       <r>    3.4921    1.0000 </r>
       <r>    3.4922    1.0000 </r>
       <r>    3.4923    1.0000 </r>
       <r>    3.4924    1.0000 </r>
       <r>    3.4925    1.0000 </r>
       <r>    3.4925    1.0000 </r>
       <r>    3.4925    1.0000 </r>
       <r>    3.4926    1.0000 </r>
       <r>    3.4926    1.0000 </r>
       <r>    3.4926    1.0000 </r>
       <r>    3.4926    1.0000 </r>
       <r>    3.4928    1.0000 </r>
       <r>    3.4929    1.0000 </r>
       <r>    3.4931    1.0000 </r>
       <r>    3.4936    1.0000 </r>
       <r>    3.4948    1.0000 </r>
       <r>    3.4972    1.0000 </r>
       <r>    3.8015    1.0000 </r>
       <r>    3.8032    1.0000 </r>
       <r>    3.8032    1.0000 </r>
       <r>    3.8037    1.0000 </r>
       <r>    3.8037    1.0000 </r>
       <r>    3.8038    1.0000 </r>
       <r>    3.8038    1.0000 </r>
       <r>    3.8039    1.0000 </r>
       <r>    3.8039    1.0000 </r>
       <r>    3.8041    1.0000 </r>
       <r>    3.8042    1.0000 </r>
       <r>    3.8068    1.0000 </r>
       <r>    4.3509    1.0000 </r>
       <r>    4.3515    1.0000 </r>
       <r>    4.3518    1.0000 </r>
       <r>    4.3525    1.0000 </r>
       <r>    4.3526    1.0000 </r>
       <r>    4.3527    1.0000 </r>
       <r>    4.3527    1.0000 </r>
       <r>    4.3528    1.0000 </r>
       <r>    4.3529    1.0000 </r>
       <r>    4.3531    1.0000 </r>
       <r>    4.3542    1.0000 </r>
       <r>    4.3560    1.0000 </r>
       <r>    4.4763    1.0000 </r>
       <r>    4.4767    1.0000 </r>
       <r>    4.4770    1.0000 </r>
       <r>    4.4774    1.0000 </r>
       <r>    4.4776    1.0000 </r>
       <r>    4.4781    1.0000 </r>
       <r>    4.4783    1.0000 </r>
       <r>    4.4802    1.0000 </r>
       <r>    4.9068    1.0000 </r>
       <r>    4.9108    1.0000 </r>
       <r>    4.9113    1.0000 </r>
       <r>    4.9113    1.0000 </r>
       <r>    4.9114    1.0000 </r>
       <r>    4.9114    1.0000 </r>
       <r>    4.9116    1.0000 </r>
       <r>    4.9116    1.0000 </r>
       <r>    4.9117    1.0000 </r>
       <r>    4.9118    1.0000 </r>
       <r>    4.9119    1.0000 </r>
       <r>    4.9120    1.0000 </r>
       <r>    4.9121    1.0000 </r>
       <r>    4.9122    1.0000 </r>
       <r>    4.9125    1.0000 </r>
       <r>    4.9180    1.0000 </r>
       <r>    5.6589    1.0000 </r>
       <r>    5.6604    1.0000 </r>
       <r>    5.6619    1.0000 </r>
       <r>    6.3941    0.0000 </r>
       <r>    6.3944    0.0000 </r>
       <r>    6.3946    0.0000 </r>
       <r>    6.3958    0.0000 </r>
       <r>    6.3958    0.0000 </r>
       <r>    6.3959    0.0000 </r>
       <r>    6.7950    0.0000 </r>
       <r>    6.7956    0.0000 </r>
       <r>    6.7963    0.0000 </r>
       <r>    6.7965    0.0000 </r>
       <r>    6.7967    0.0000 </r>
       <r>    6.7975    0.0000 </r>
       <r>    7.1206    0.0000 </r>
       <r>    7.1206    0.0000 </r>
       <r>    7.1210    0.0000 </r>
       <r>    7.1212    0.0000 </r>
       <r>    7.1823    0.0000 </r>
       <r>    7.1827    0.0000 </r>
       <r>    7.1847    0.0000 </r>
       <r>    7.1849    0.0000 </r>
       <r>    7.1857    0.0000 </r>
       <r>    7.1857    0.0000 </r>
       <r>    7.1857    0.0000 </r>
       <r>    7.1858    0.0000 </r>
       <r>    7.1858    0.0000 </r>
       <r>    7.1859    0.0000 </r>
       <r>    7.1859    0.0000 </r>
       <r>    7.1860    0.0000 </r>
       <r>    7.1860    0.0000 </r>
       <r>    7.1860    0.0000 </r>
       <r>    7.1861    0.0000 </r>
       <r>    7.1861    0.0000 </r>
       <r>    7.1861    0.0000 </r>
       <r>    7.1861    0.0000 </r>
       <r>    7.1863    0.0000 </r>
       <r>    7.1863    0.0000 </r>
       <r>    7.1864    0.0000 </r>
       <r>    7.1886    0.0000 </r>
       <r>    7.1889    0.0000 </r>
       <r>    7.1900    0.0000 </r>
       <r>    7.6112    0.0000 </r>
       <r>    7.6118    0.0000 </r>
       <r>    7.6118    0.0000 </r>
       <r>    7.6119    0.0000 </r>
       <r>    7.6123    0.0000 </r>
       <r>    7.6126    0.0000 </r>
       <r>    7.6128    0.0000 </r>
       <r>    7.6135    0.0000 </r>
       <r>    8.0808    0.0000 </r>
       <r>    8.0818    0.0000 </r>
       <r>    8.0819    0.0000 </r>
       <r>    8.0827    0.0000 </r>
       <r>    8.0828    0.0000 </r>
       <r>    8.0829    0.0000 </r>
       <r>    8.0830    0.0000 </r>
       <r>    8.0830    0.0000 </r>
       <r>    8.0831    0.0000 </r>
       <r>    8.0839    0.0000 </r>
       <r>    8.0845    0.0000 </r>
       <r>    8.0850    0.0000 </r>
       <r>    8.1985    0.0000 </r>
       <r>    8.1993    0.0000 </r>
       <r>    8.2002    0.0000 </r>
       <r>    8.7785    0.0000 </r>
       <r>    8.7791    0.0000 </r>
       <r>    8.7878    0.0000 </r>
      </set>
     </set>
    </set>
   </array>
  </eigenvalues>
  <separator name="orbital magnetization" >
   <v name="MAGDIPOLOUT">      0.00000000      0.00000000      0.00000000</v>
  </separator>
  <dos>
   <i name="efermi">      5.92063378 </i>
   <total>
    <array>
     <dimension dim="1">gridpoints</dimension>
     <dimension dim="2">spin</dimension>
     <field>energy</field>
     <field>total</field>
     <field>integrated</field>
     <set>
      <set comment="spin 1">
       <r>    -6.9106     0.0000     0.0000 </r>
       <r>    -6.8557     0.0000     0.0000 </r>
       <r>    -6.8009     0.0000     0.0000 </r>
       <r>    -6.7461     0.0000     0.0000 </r>
       <r>    -6.6913     0.0000     0.0000 </r>
       <r>    -6.6365     0.0000     0.0000 </r>
       <r>    -6.5816     0.0000     0.0000 </r>
       <r>    -6.5268     0.0000     0.0000 </r>
       <r>    -6.4720     0.0000     0.0000 </r>
       <r>    -6.4172     0.0000     0.0000 </r>
       <r>    -6.3624     0.0000     0.0000 </r>
       <r>    -6.3075     0.0008     0.0000 </r>
       <r>    -6.2527     0.2030     0.0112 </r>
       <r>    -6.1979     5.7026     0.3238 </r>
       <r>    -6.1431    20.1268     1.4271 </r>
       <r>    -6.0883     9.8211     1.9655 </r>
       <r>    -6.0334     0.6245     1.9998 </r>
       <r>    -5.9786     0.0045     2.0000 </r>
       <r>    -5.9238     0.0000     2.0000 </r>
       <r>    -5.8690     0.0000     2.0000 </r>
       <r>    -5.8142     0.0000     2.0000 </r>
       <r>    -5.7593     0.0000     2.0000 </r>
       <r>    -5.7045     0.0000     2.0000 </r>
       <r>    -5.6497     0.0000     2.0000 </r>
       <r>    -5.5949     0.0000     2.0000 </r>
       <r>    -5.5401     0.0006     2.0000 </r>
       <r>    -5.4852     0.3359     2.0184 </r>
       <r>    -5.4304    19.2589     3.0742 </r>
       <r>    -5.3756   132.4826    10.3368 </r>
       <r>    -5.3208   123.8929    17.1286 </r>
       <r>    -5.2660    15.6607    17.9871 </r>
       <r>    -5.2112     0.4115    18.0097 </r>
       <r>    -5.1563    11.7414    18.6533 </r>
       <r>    -5.1015    92.9106    23.7466 </r>
       <r>    -5.0467    99.3717    29.1941 </r>
       <r>    -4.9919    14.4478    29.9862 </r>
       <r>    -4.9371     0.2520    30.0000 </r>
       <r>    -4.8822     0.0005    30.0000 </r>
       <r>    -4.8274     0.0000    30.0000 </r>
       <r>    -4.7726     0.0000    30.0000 </r>
       <r>    -4.7178     0.0000    30.0000 </r>
       <r>    -4.6630     0.0000    30.0000 </r>
       <r>    -4.6081     0.0000    30.0000 </r>
       <r>    -4.5533     0.0000    30.0000 </r>
       <r>    -4.4985     0.0000    30.0000 </r>
       <r>    -4.4437     0.0000    30.0000 </r>
       <r>    -4.3889     0.0000    30.0000 </r>
       <r>    -4.3340     0.0001    30.0000 </r>
       <r>    -4.2792     0.1199    30.0066 </r>
       <r>    -4.2244    12.2726    30.6794 </r>
       <r>    -4.1696   145.5086    38.6561 </r>
       <r>    -4.1148   228.9177    51.2052 </r>
       <r>    -4.0599    49.6468    53.9268 </r>
       <r>    -4.0051     1.3641    54.0016 </r>
       <r>    -3.9503     3.6621    54.2024 </r>
       <r>    -3.8955    46.3428    56.7429 </r>
       <r>    -3.8407    77.5132    60.9921 </r>
       <r>    -3.7858    17.8735    61.9719 </r>
       <r>    -3.7310     0.5108    61.9999 </r>
       <r>    -3.6762     0.0017    62.0000 </r>
       <r>    -3.6214     0.1782    62.0098 </r>
       <r>    -3.5666    20.3786    63.1269 </r>
       <r>    -3.5117   268.9177    77.8689 </r>
       <r>    -3.4569   469.2494   103.5929 </r>
       <r>    -3.4021   113.4380   109.8115 </r>
       <r>    -3.3473     3.4273   109.9994 </r>
       <r>    -3.2925     0.0114   110.0000 </r>
       <r>    -3.2377     0.0000   110.0000 </r>
       <r>    -3.1828     0.0000   110.0000 </r>
       <r>    -3.1280     0.0000   110.0000 </r>
       <r>    -3.0732     0.0000   110.0000 </r>
       <r>    -3.0184     0.0000   110.0000 </r>
       <r>    -2.9636     0.0000   110.0000 </r>
       <r>    -2.9087     0.0000   110.0000 </r>
       <r>    -2.8539     0.0000   110.0000 </r>
       <r>    -2.7991     0.0000   110.0000 </r>
       <r>    -2.7443     0.0000   110.0000 </r>
       <r>    -2.6895     0.0000   110.0000 </r>
       <r>    -2.6346     0.0000   110.0000 </r>
       <r>    -2.5798     0.0000   110.0000 </r>
       <r>    -2.5250     0.0000   110.0000 </r>
       <r>    -2.4702     0.0000   110.0000 </r>
       <r>    -2.4154     0.0000   110.0000 </r>
       <r>    -2.3605     0.0000   110.0000 </r>
       <r>    -2.3057     0.0000   110.0000 </r>
       <r>    -2.2509     0.0007   110.0000 </r>
       <r>    -2.1961     0.3226   110.0177 </r>
       <r>    -2.1413    16.6268   110.9292 </r>
       <r>    -2.0864   103.5981   116.6084 </r>
       <r>    -2.0316    89.5511   121.5175 </r>
       <r>    -1.9768    61.6135   124.8952 </r>
       <r>    -1.9220   230.7298   137.5437 </r>
       <r>    -1.8672   142.4754   145.3541 </r>
       <r>    -1.8123    11.6718   145.9939 </r>
       <r>    -1.7575     0.1107   146.0000 </r>
       <r>    -1.7027     0.0001   146.0000 </r>
       <r>    -1.6479     0.0000   146.0000 </r>
       <r>    -1.5931     0.0000   146.0000 </r>
       <r>    -1.5382     0.0000   146.0000 </r>
       <r>    -1.4834     0.0000   146.0000 </r>
       <r>    -1.4286     0.0000   146.0000 </r>
       <r>    -1.3738     0.0008   146.0000 </r>
       <r>    -1.3190     0.3250   146.0179 </r>
       <r>    -1.2641    13.9716   146.7838 </r>
       <r>    -1.2093    73.4617   150.8109 </r>
       <r>    -1.1545    53.0106   153.7169 </r>
       <r>    -1.0997     5.1063   153.9968 </r>
       <r>    -1.0449     0.0574   154.0000 </r>
       <r>    -0.9901     0.0001   154.0000 </r>
       <r>    -0.9352     0.0000   154.0000 </r>
       <r>    -0.8804     0.0000   154.0000 </r>
       <r>    -0.8256     0.0041   154.0002 </r>
       <r>    -0.7708     1.7136   154.0942 </r>
       <r>    -0.7160    77.7166   158.3545 </r>
       <r>    -0.6611   431.7198   182.0212 </r>
       <r>    -0.6063   330.0750   200.1158 </r>
       <r>    -0.5515    33.9591   201.9774 </r>
       <r>    -0.4967     0.4121   202.0000 </r>
       <r>    -0.4419     0.0005   202.0000 </r>
       <r>    -0.3870     0.0000   202.0000 </r>
       <r>    -0.3322     0.0000   202.0000 </r>
       <r>    -0.2774     0.0000   202.0000 </r>
       <r>    -0.2226     0.0000   202.0000 </r>
       <r>    -0.1678     0.0000   202.0000 </r>
       <r>    -0.1129     0.0000   202.0000 </r>
       <r>    -0.0581     0.0000   202.0000 </r>
       <r>    -0.0033     0.0000   202.0000 </r>
       <r>     0.0515     0.0007   202.0000 </r>
       <r>     0.1063     0.3950   202.0217 </r>
       <r>     0.1612    25.0490   203.3949 </r>
       <r>     0.2160   189.7245   213.7955 </r>
       <r>     0.2708   194.9385   224.4819 </r>
       <r>     0.3256    27.2355   225.9749 </r>
       <r>     0.3804     0.4563   226.0000 </r>
       <r>     0.4353     0.0008   226.0000 </r>
       <r>     0.4901     0.0000   226.0000 </r>
       <r>     0.5449     0.0000   226.0000 </r>
       <r>     0.5997     0.0000   226.0000 </r>
       <r>     0.6545     0.0000   226.0000 </r>
       <r>     0.7094     0.0000   226.0000 </r>
       <r>     0.7642     0.0000   226.0000 </r>
       <r>     0.8190     0.0000   226.0000 </r>
       <r>     0.8738     0.0000   226.0000 </r>
       <r>     0.9286     0.0000   226.0000 </r>
       <r>     0.9835     0.0000   226.0000 </r>
       <r>     1.0383     0.0000   226.0000 </r>
       <r>     1.0931     0.0000   226.0000 </r>
       <r>     1.1479     0.0000   226.0000 </r>
       <r>     1.2027     0.0000   226.0000 </r>
       <r>     1.2575     0.0000   226.0000 </r>
       <r>     1.3124     0.0000   226.0000 </r>
       <r>     1.3672     0.0000   226.0000 </r>
       <r>     1.4220     0.0000   226.0000 </r>
       <r>     1.4768     0.0000   226.0000 </r>
       <r>     1.5316     0.0000   226.0000 </r>
       <r>     1.5865     0.0000   226.0000 </r>
       <r>     1.6413     0.0506   226.0028 </r>
       <r>     1.6961     6.1661   226.3408 </r>
       <r>     1.7509    86.1641   231.0643 </r>
       <r>     1.8057   163.1814   240.0098 </r>
       <r>     1.8606   138.5569   247.6054 </r>
       <r>     1.9154   262.5891   262.0004 </r>
       <r>     1.9702   245.6859   275.4688 </r>
       <r>     2.0250   223.1541   287.7020 </r>
       <r>     2.0798    51.1908   290.5083 </r>
       <r>     2.1347   145.5564   298.4876 </r>
       <r>     2.1895   508.2820   326.3513 </r>
       <r>     2.2443   385.0542   347.4598 </r>
       <r>     2.2991    45.6698   349.9634 </r>
       <r>     2.3539     0.6662   349.9999 </r>
       <r>     2.4088     0.0010   350.0000 </r>
       <r>     2.4636     0.0000   350.0000 </r>
       <r>     2.5184     0.0000   350.0000 </r>
       <r>     2.5732     0.0000   350.0000 </r>
       <r>     2.6280     0.0000   350.0000 </r>
       <r>     2.6829     0.0001   350.0000 </r>
       <r>     2.7377     0.0841   350.0046 </r>
       <r>     2.7925     7.5548   350.4188 </r>
       <r>     2.8473    79.1203   354.7561 </r>
       <r>     2.9021   110.4818   360.8127 </r>
       <r>     2.9570    21.1621   361.9728 </r>
       <r>     3.0118     0.4956   361.9999 </r>
       <r>     3.0666     0.0012   362.0000 </r>
       <r>     3.1214     0.0000   362.0000 </r>
       <r>     3.1762     0.0000   362.0000 </r>
       <r>     3.2311     0.0000   362.0000 </r>
       <r>     3.2859     0.0000   362.0000 </r>
       <r>     3.3407     0.0078   362.0004 </r>
       <r>     3.3955     2.6676   362.1467 </r>
       <r>     3.4503    99.3904   367.5952 </r>
       <r>     3.5051   457.8618   392.6950 </r>
       <r>     3.5600   290.8941   408.6416 </r>
       <r>     3.6148    24.5388   409.9868 </r>
       <r>     3.6696     0.2724   410.0018 </r>
       <r>     3.7244     5.3920   410.2973 </r>
       <r>     3.7792   101.1793   415.8439 </r>
       <r>     3.8341   245.2217   429.2869 </r>
       <r>     3.8889    82.4285   433.8056 </r>
       <r>     3.9437     3.5299   433.9991 </r>
       <r>     3.9985     0.0168   434.0000 </r>
       <r>     4.0533     0.0000   434.0000 </r>
       <r>     4.1082     0.0000   434.0000 </r>
       <r>     4.1630     0.0000   434.0000 </r>
       <r>     4.2178     0.0296   434.0016 </r>
       <r>     4.2726     5.0941   434.2809 </r>
       <r>     4.3274    98.4835   439.6797 </r>
       <r>     4.3823   246.5190   453.1937 </r>
       <r>     4.4371   120.4959   459.7993 </r>
       <r>     4.4919   158.5846   468.4928 </r>
       <r>     4.5467    93.0083   473.5915 </r>
       <r>     4.6015     7.3845   473.9963 </r>
       <r>     4.6564     0.0677   474.0000 </r>
       <r>     4.7112     0.0001   474.0000 </r>
       <r>     4.7660     0.0112   474.0006 </r>
       <r>     4.8208     2.9658   474.1632 </r>
       <r>     4.8756    86.7180   478.9170 </r>
       <r>     4.9305   319.4737   496.4304 </r>
       <r>     4.9853   163.4782   505.3922 </r>
       <r>     5.0401    11.0018   505.9953 </r>
       <r>     5.0949     0.0850   506.0000 </r>
       <r>     5.1497     0.0001   506.0000 </r>
       <r>     5.2046     0.0000   506.0000 </r>
       <r>     5.2594     0.0000   506.0000 </r>
       <r>     5.3142     0.0000   506.0000 </r>
       <r>     5.3690     0.0000   506.0000 </r>
       <r>     5.4238     0.0000   506.0000 </r>
       <r>     5.4787     0.0000   506.0000 </r>
       <r>     5.5335     0.0181   506.0010 </r>
       <r>     5.5883     2.2473   506.1242 </r>
       <r>     5.6431    31.8928   507.8725 </r>
       <r>     5.6979    59.4600   511.1321 </r>
       <r>     5.7527    15.3353   511.9728 </r>
       <r>     5.8076     0.4948   511.9999 </r>
       <r>     5.8624     0.0017   512.0000 </r>
       <r>     5.9172     0.0000   512.0000 </r>
       <r>     5.9720     0.0000   512.0000 </r>
       <r>     6.0268     0.0000   512.0000 </r>
       <r>     6.0817     0.0000   512.0000 </r>
       <r>     6.1365     0.0000   512.0000 </r>
       <r>     6.1913     0.0000   512.0000 </r>
       <r>     6.2461     0.0028   512.0002 </r>
       <r>     6.3009     0.8447   512.0465 </r>
       <r>     6.3558    28.2377   513.5944 </r>
       <r>     6.4106   117.3659   520.0284 </r>
       <r>     6.4654    67.3184   523.7187 </r>
       <r>     6.5202     5.0865   523.9976 </r>
       <r>     6.5750     0.0442   524.0000 </r>
       <r>     6.6299     0.0003   524.0000 </r>
       <r>     6.6847     0.1755   524.0096 </r>
       <r>     6.7395    11.7049   524.6513 </r>
       <r>     6.7943    92.8021   529.7387 </r>
       <r>     6.8491    99.4658   535.1913 </r>
       <r>     6.9040    14.4975   535.9861 </r>
       <r>     6.9588     0.2540   536.0000 </r>
       <r>     7.0136     0.1771   536.0097 </r>
       <r>     7.0684    10.2923   536.5739 </r>
       <r>     7.1232    99.7860   542.0441 </r>
       <r>     7.1781   388.0734   563.3181 </r>
       <r>     7.2329   441.9814   587.5473 </r>
       <r>     7.2877    79.4478   591.9026 </r>
       <r>     7.3425     1.7722   591.9998 </r>
       <r>     7.3973     0.0043   592.0000 </r>
       <r>     7.4522     0.0009   592.0000 </r>
       <r>     7.5070     0.4245   592.0233 </r>
       <r>     7.5618    22.0152   593.2302 </r>
       <r>     7.6166   137.8860   600.7890 </r>
       <r>     7.6714   117.8089   607.2472 </r>
       <r>     7.7263    13.5473   607.9899 </r>
       <r>     7.7811     0.1839   608.0000 </r>
       <r>     7.8359     0.0003   608.0000 </r>
       <r>     7.8907     0.0000   608.0000 </r>
       <r>     7.9455     0.0224   608.0012 </r>
       <r>     8.0003     4.2595   608.2347 </r>
       <r>     8.0552    90.4006   613.1905 </r>
       <r>     8.1100   246.4844   626.7026 </r>
       <r>     8.1648   110.1112   632.7388 </r>
       <r>     8.2196    64.9632   636.3001 </r>
       <r>     8.2744    29.1659   637.8990 </r>
       <r>     8.3293     1.8301   637.9993 </r>
       <r>     8.3841     0.0131   638.0000 </r>
       <r>     8.4389     0.0000   638.0000 </r>
       <r>     8.4937     0.0000   638.0000 </r>
       <r>     8.5485     0.0000   638.0000 </r>
       <r>     8.6034     0.0000   638.0000 </r>
       <r>     8.6582     0.0280   638.0015 </r>
       <r>     8.7130     2.8887   638.1599 </r>
       <r>     8.7678    35.1133   640.0848 </r>
       <r>     8.8226    57.6663   643.2460 </r>
       <r>     8.8775    13.3577   643.9783 </r>
       <r>     8.9323     0.3947   643.9999 </r>
       <r>     8.9871     0.0013   644.0000 </r>
       <r>     9.0419     0.0000   644.0000 </r>
       <r>     9.0967     0.0000   644.0000 </r>
       <r>     9.1516     0.0000   644.0000 </r>
       <r>     9.2064     0.0000   644.0000 </r>
       <r>     9.2612     0.0000   644.0000 </r>
       <r>     9.3160     0.0000   644.0000 </r>
       <r>     9.3708     0.0000   644.0000 </r>
       <r>     9.4257     0.0000   644.0000 </r>
       <r>     9.4805     0.0000   644.0000 </r>
       <r>     9.5353     0.0000   644.0000 </r>
      </set>
     </set>
    </array>
   </total>
  </dos>
 </calculation>
 <structure name="finalpos" >
  <crystal>
   <varray name="basis" >
    <v>       0.00000000      10.93716070      10.93716070 </v>
    <v>      10.93716070       0.00000000      10.93716070 </v>
    <v>      10.93716070      10.93716070       0.00000000 </v>
   </varray>
   <i name="volume">   2616.63878844 </i>
   <varray name="rec_basis" >
    <v>      -0.04571570       0.04571570       0.04571570 </v>
    <v>       0.04571570      -0.04571570       0.04571570 </v>
    <v>       0.04571570       0.04571570      -0.04571570 </v>
   </varray>
  </crystal>
  <varray name="positions" >
   <v>       0.06295716       0.06204284       0.06295716 </v>
   <v>       0.31250000       0.06250000       0.06250000 </v>
   <v>       0.56250000       0.06250000       0.06250000 </v>
   <v>       0.81250000       0.06250000       0.06250000 </v>
   <v>       0.06250000       0.31250000       0.06250000 </v>
   <v>       0.31250000       0.31250000       0.06250000 </v>
   <v>       0.56250000       0.31250000       0.06250000 </v>
   <v>       0.81250000       0.31250000       0.06250000 </v>
   <v>       0.06250000       0.56250000       0.06250000 </v>
   <v>       0.31250000       0.56250000       0.06250000 </v>
   <v>       0.56250000       0.56250000       0.06250000 </v>
   <v>       0.81250000       0.56250000       0.06250000 </v>
   <v>       0.06250000       0.81250000       0.06250000 </v>
   <v>       0.31250000       0.81250000       0.06250000 </v>
   <v>       0.56250000       0.81250000       0.06250000 </v>
   <v>       0.81250000       0.81250000       0.06250000 </v>
   <v>       0.06250000       0.06250000       0.31250000 </v>
   <v>       0.31250000       0.06250000       0.31250000 </v>
   <v>       0.56250000       0.06250000       0.31250000 </v>
   <v>       0.81250000       0.06250000       0.31250000 </v>
   <v>       0.06250000       0.31250000       0.31250000 </v>
   <v>       0.31250000       0.31250000       0.31250000 </v>
   <v>       0.56250000       0.31250000       0.31250000 </v>
   <v>       0.81250000       0.31250000       0.31250000 </v>
   <v>       0.06250000       0.56250000       0.31250000 </v>
   <v>       0.31250000       0.56250000       0.31250000 </v>
   <v>       0.56250000       0.56250000       0.31250000 </v>
   <v>       0.81250000       0.56250000       0.31250000 </v>
   <v>       0.06250000       0.81250000       0.31250000 </v>
   <v>       0.31250000       0.81250000       0.31250000 </v>
   <v>       0.56250000       0.81250000       0.31250000 </v>
   <v>       0.81250000       0.81250000       0.31250000 </v>
   <v>       0.06250000       0.06250000       0.56250000 </v>
   <v>       0.31250000       0.06250000       0.56250000 </v>
   <v>       0.56250000       0.06250000       0.56250000 </v>
   <v>       0.81250000       0.06250000       0.56250000 </v>
   <v>       0.06250000       0.31250000       0.56250000 </v>
   <v>       0.31250000       0.31250000       0.56250000 </v>
   <v>       0.56250000       0.31250000       0.56250000 </v>
   <v>       0.81250000       0.31250000       0.56250000 </v>
   <v>       0.06250000       0.56250000       0.56250000 </v>
   <v>       0.31250000       0.56250000       0.56250000 </v>
   <v>       0.56250000       0.56250000       0.56250000 </v>
   <v>       0.81250000       0.56250000       0.56250000 </v>
   <v>       0.06250000       0.81250000       0.56250000 </v>
   <v>       0.31250000       0.81250000       0.56250000 </v>
   <v>       0.56250000       0.81250000       0.56250000 </v>
   <v>       0.81250000       0.81250000       0.56250000 </v>
   <v>       0.06250000       0.06250000       0.81250000 </v>
   <v>       0.31250000       0.06250000       0.81250000 </v>
   <v>       0.56250000       0.06250000       0.81250000 </v>
   <v>       0.81250000       0.06250000       0.81250000 </v>
   <v>       0.06250000       0.31250000       0.81250000 </v>
   <v>       0.31250000       0.31250000       0.81250000 </v>
   <v>       0.56250000       0.31250000       0.81250000 </v>
   <v>       0.81250000       0.31250000       0.81250000 </v>
   <v>       0.06250000       0.56250000       0.81250000 </v>
   <v>       0.31250000       0.56250000       0.81250000 </v>
   <v>       0.56250000       0.56250000       0.81250000 </v>
   <v>       0.81250000       0.56250000       0.81250000 </v>
   <v>       0.06250000       0.81250000       0.81250000 </v>
   <v>       0.31250000       0.81250000       0.81250000 </v>
   <v>       0.56250000       0.81250000       0.81250000 </v>
   <v>       0.81250000       0.81250000       0.81250000 </v>
   <v>       0.99954284       0.00045716       0.99954284 </v>
   <v>       0.25000000       0.00000000       0.00000000 </v>
   <v>       0.50000000       0.00000000       0.00000000 </v>
   <v>       0.75000000       0.00000000       0.00000000 </v>
   <v>       0.00000000       0.25000000       0.00000000 </v>
   <v>       0.25000000       0.25000000       0.00000000 </v>
   <v>       0.50000000       0.25000000       0.00000000 </v>
   <v>       0.75000000       0.25000000       0.00000000 </v>
   <v>       0.00000000       0.50000000       0.00000000 </v>
   <v>       0.25000000       0.50000000       0.00000000 </v>
   <v>       0.50000000       0.50000000       0.00000000 </v>
   <v>       0.75000000       0.50000000       0.00000000 </v>
   <v>       0.00000000       0.75000000       0.00000000 </v>
   <v>       0.25000000       0.75000000       0.00000000 </v>
   <v>       0.50000000       0.75000000       0.00000000 </v>
   <v>       0.75000000       0.75000000       0.00000000 </v>
   <v>       0.00000000       0.00000000       0.25000000 </v>
   <v>       0.25000000       0.00000000       0.25000000 </v>
   <v>       0.50000000       0.00000000       0.25000000 </v>
   <v>       0.75000000       0.00000000       0.25000000 </v>
   <v>       0.00000000       0.25000000       0.25000000 </v>
   <v>       0.25000000       0.25000000       0.25000000 </v>
   <v>       0.50000000       0.25000000       0.25000000 </v>
   <v>       0.75000000       0.25000000       0.25000000 </v>
   <v>       0.00000000       0.50000000       0.25000000 </v>
   <v>       0.25000000       0.50000000       0.25000000 </v>
   <v>       0.50000000       0.50000000       0.25000000 </v>
   <v>       0.75000000       0.50000000       0.25000000 </v>
   <v>       0.00000000       0.75000000       0.25000000 </v>
   <v>       0.25000000       0.75000000       0.25000000 </v>
   <v>       0.50000000       0.75000000       0.25000000 </v>
   <v>       0.75000000       0.75000000       0.25000000 </v>
   <v>       0.00000000       0.00000000       0.50000000 </v>
   <v>       0.25000000       0.00000000       0.50000000 </v>
   <v>       0.50000000       0.00000000       0.50000000 </v>
   <v>       0.75000000       0.00000000       0.50000000 </v>
   <v>       0.00000000       0.25000000       0.50000000 </v>
   <v>       0.25000000       0.25000000       0.50000000 </v>
   <v>       0.50000000       0.25000000       0.50000000 </v>
   <v>       0.75000000       0.25000000       0.50000000 </v>
   <v>       0.00000000       0.50000000       0.50000000 </v>
   <v>       0.25000000       0.50000000       0.50000000 </v>
   <v>       0.50000000       0.50000000       0.50000000 </v>
   <v>       0.75000000       0.50000000       0.50000000 </v>
   <v>       0.00000000       0.75000000       0.50000000 </v>
   <v>       0.25000000       0.75000000       0.50000000 </v>
   <v>       0.50000000       0.75000000       0.50000000 </v>
   <v>       0.75000000       0.75000000       0.50000000 </v>
   <v>       0.00000000       0.00000000       0.75000000 </v>
   <v>       0.25000000       0.00000000       0.75000000 </v>
   <v>       0.50000000       0.00000000       0.75000000 </v>
   <v>       0.75000000       0.00000000       0.75000000 </v>
   <v>       0.00000000       0.25000000       0.75000000 </v>
   <v>       0.25000000       0.25000000       0.75000000 </v>
   <v>       0.50000000       0.25000000       0.75000000 </v>
   <v>       0.75000000       0.25000000       0.75000000 </v>
   <v>       0.00000000       0.50000000       0.75000000 </v>
   <v>       0.25000000       0.50000000       0.75000000 </v>
   <v>       0.50000000       0.50000000       0.75000000 </v>
   <v>       0.75000000       0.50000000       0.75000000 </v>
   <v>       0.00000000       0.75000000       0.75000000 </v>
   <v>       0.25000000       0.75000000       0.75000000 </v>
   <v>       0.50000000       0.75000000       0.75000000 </v>
   <v>       0.75000000       0.75000000       0.75000000 </v>
  </varray>
 </structure>
</modeling>
