<?xml version="1.0" encoding="ISO-8859-1"?>
<modeling>
 <generator>
  <i name="program" type="string">vasp </i>
  <i name="version" type="string">5.4.4.18Apr17-6-g9f103f2a35  </i>
  <i name="subversion" type="string">(build Aug 16 2020 16:33:06) complex            parallel </i>
  <i name="platform" type="string">LinuxIFC </i>
  <i name="date" type="string">2026 08 15 </i>
  <i name="time" type="string">15:51:52 </i>
 </generator>
 <incar>
  <i type="string" name="PREC">accurate</i>
  <i type="logical" name="ADDGRID"> T  </i>
  <i type="int" name="IBRION">    -1</i>
  <i name="EDIFF">      0.00000001</i>
  <i type="int" name="ISYM">     0</i>
  <i name="ENCUT">    500.00000000</i>
  <i type="logical" name="LREAL"> F  </i>
  <i type="int" name="ISMEAR">     0</i>
  <i name="SIGMA">      0.05000000</i>
  <i type="logical" name="LWAVE"> F  </i>
  <i type="logical" name="LCHARG"> F  </i>
  <v type="int" name="KPOINT_BSE">    -1     0     0     0</v>
 </incar>
 <structure name="primitive_cell" >
  <crystal>
   <varray name="basis" >
    <v>       0.00000000      10.93716070      10.93716070 </v>
    <v>      10.93716070       0.00000000      10.93716070 </v>
    <v>      10.93716070      10.93716070       0.00000000 </v>
   </varray>
   <i name="volume">   2616.63878844 </i>
   <varray name="rec_basis" >
    <v>      -0.04571570       0.04571570       0.04571570 </v>
    <v>       0.04571570      -0.04571570       0.04571570 </v>
    <v>       0.04571570       0.04571570      -0.04571570 </v>
   </varray>
  </crystal>
  <varray name="positions" >
   <v>       0.06204284       0.06295716       0.06295716 </v>
   <v>       0.00000000       0.25000000       0.00000000 </v>
   <v>       0.00000000       0.00000000       0.25000000 </v>
   <v>       0.00000000       0.00000000       0.00000000 </v>
   <v>       0.25000000       0.00000000       0.00000000 </v>
   <v>       0.06250000       0.31250000       0.06250000 </v>
   <v>      -0.18750000       0.31250000       0.06250000 </v>
   <v>       0.06250000       0.06250000       0.31250000 </v>
   <v>      -0.18750000       0.06250000       0.31250000 </v>
   <v>      -0.18750000       0.06250000       0.06250000 </v>
   <v>       0.06250000      -0.18750000       0.31250000 </v>
   <v>       0.06250000       0.31250000      -0.18750000 </v>
   <v>       0.31295716       0.06204284       0.06204284 </v>
   <v>       0.06250000      -0.18750000       0.06250000 </v>
   <v>       0.31250000      -0.18750000       0.06250000 </v>
   <v>       0.06250000       0.06250000      -0.18750000 </v>
   <v>       0.31250000       0.06250000      -0.18750000 </v>
   <v>       0.00000000       0.25000000       0.25000000 </v>
   <v>      -0.25000000       0.25000000       0.25000000 </v>
   <v>       0.25000000       0.25000000       0.00000000 </v>
   <v>      -0.25000000       0.25000000       0.00000000 </v>
   <v>       0.25000000       0.00000000       0.25000000 </v>
   <v>      -0.25000000       0.00000000       0.25000000 </v>
   <v>       0.25000000      -0.25000000       0.25000000 </v>
   <v>       0.25000000       0.25000000      -0.25000000 </v>
   <v>       0.00000000      -0.25000000       0.25000000 </v>
   <v>       0.00000000       0.25000000      -0.25000000 </v>
   <v>       0.25000000      -0.25000000       0.00000000 </v>
   <v>       0.25000000       0.00000000      -0.25000000 </v>
   <v>      -0.18750000       0.31250000       0.31250000 </v>
   <v>       0.31250000      -0.18750000       0.31250000 </v>
   <v>      -0.18750000      -0.18750000       0.31250000 </v>
   <v>       0.31250000       0.31250000      -0.18750000 </v>
   <v>      -0.18750000       0.31250000      -0.18750000 </v>
   <v>       0.31250000      -0.18750000      -0.18750000 </v>
   <v>       0.00000000      -0.50000000       0.00000000 </v>
   <v>      -0.25000000      -0.50000000       0.00000000 </v>
   <v>       0.00000000       0.00000000      -0.50000000 </v>
   <v>      -0.25000000       0.00000000      -0.50000000 </v>
   <v>       0.00000000      -0.25000000      -0.50000000 </v>
   <v>       0.00000000      -0.50000000      -0.25000000 </v>
   <v>      -0.50000000       0.00000000       0.00000000 </v>
   <v>      -0.25000000       0.00000000       0.00000000 </v>
   <v>      -0.50000000      -0.25000000       0.00000000 </v>
   <v>      -0.50000000       0.00000000      -0.25000000 </v>
   <v>       0.00000000      -0.25000000       0.00000000 </v>
   <v>       0.00000000       0.00000000      -0.25000000 </v>
   <v>      -0.18750000      -0.43750000       0.06250000 </v>
   <v>       0.06250000       0.31250000       0.31250000 </v>
   <v>      -0.43750000       0.31250000       0.31250000 </v>
   <v>      -0.18750000       0.06250000      -0.43750000 </v>
   <v>      -0.43750000       0.31250000       0.06250000 </v>
   <v>       0.31250000       0.06250000       0.31250000 </v>
   <v>       0.06250000      -0.18750000      -0.43750000 </v>
   <v>      -0.18750000      -0.43750000      -0.18750000 </v>
   <v>       0.31250000       0.31250000       0.06250000 </v>
   <v>      -0.43750000       0.06250000       0.31250000 </v>
   <v>      -0.18750000      -0.18750000      -0.43750000 </v>
   <v>       0.06250000      -0.43750000      -0.18750000 </v>
   <v>      -0.43750000      -0.18750000       0.06250000 </v>
   <v>      -0.18750000      -0.18750000       0.06250000 </v>
   <v>       0.06250000      -0.43750000       0.31250000 </v>
   <v>       0.31250000      -0.43750000       0.31250000 </v>
   <v>       0.06250000       0.31250000      -0.43750000 </v>
   <v>       0.31250000       0.31250000      -0.43750000 </v>
   <v>      -0.43750000       0.06250000      -0.18750000 </v>
   <v>      -0.18750000       0.06250000      -0.18750000 </v>
   <v>       0.31250000      -0.43750000       0.06250000 </v>
   <v>       0.31250000       0.06250000      -0.43750000 </v>
   <v>       0.06250000      -0.18750000      -0.18750000 </v>
   <v>      -0.43750000      -0.18750000      -0.18750000 </v>
   <v>      -0.25000000      -0.50000000       0.25000000 </v>
   <v>      -0.25000000       0.25000000      -0.50000000 </v>
   <v>       0.25000000       0.25000000       0.25000000 </v>
   <v>      -0.50000000       0.25000000       0.25000000 </v>
   <v>       0.25000000      -0.25000000      -0.50000000 </v>
   <v>       0.25000000      -0.50000000      -0.25000000 </v>
   <v>      -0.25000000      -0.25000000      -0.50000000 </v>
   <v>      -0.25000000      -0.50000000      -0.25000000 </v>
   <v>      -0.50000000       0.25000000      -0.25000000 </v>
   <v>      -0.50000000      -0.25000000       0.25000000 </v>
   <v>      -0.25000000      -0.25000000       0.25000000 </v>
   <v>      -0.25000000       0.25000000      -0.25000000 </v>
   <v>       0.25000000       0.25000000      -0.50000000 </v>
   <v>       0.25000000      -0.50000000       0.25000000 </v>
   <v>       0.25000000      -0.25000000      -0.25000000 </v>
   <v>      -0.50000000      -0.25000000      -0.25000000 </v>
   <v>       0.06250000      -0.43750000       0.06250000 </v>
   <v>      -0.43750000      -0.43750000       0.06250000 </v>
   <v>       0.06250000       0.06250000      -0.43750000 </v>
   <v>      -0.43750000       0.06250000      -0.43750000 </v>
   <v>      -0.43750000       0.06250000       0.06250000 </v>
   <v>       0.06250000      -0.43750000      -0.43750000 </v>
   <v>       0.00000000      -0.50000000       0.25000000 </v>
   <v>       0.00000000       0.25000000      -0.50000000 </v>
   <v>      -0.50000000      -0.50000000       0.25000000 </v>
   <v>      -0.50000000       0.25000000      -0.50000000 </v>
   <v>       0.25000000      -0.50000000       0.00000000 </v>
   <v>      -0.50000000      -0.50000000       0.00000000 </v>
   <v>       0.25000000       0.00000000      -0.50000000 </v>
   <v>      -0.50000000       0.00000000      -0.50000000 </v>
   <v>      -0.50000000       0.25000000       0.00000000 </v>
   <v>      -0.50000000       0.00000000       0.25000000 </v>
   <v>       0.00000000      -0.50000000      -0.50000000 </v>
   <v>       0.25000000      -0.50000000      -0.50000000 </v>
   <v>      -0.43750000      -0.43750000       0.31250000 </v>
   <v>      -0.18750000      -0.43750000       0.31250000 </v>
   <v>      -0.43750000       0.31250000      -0.43750000 </v>
   <v>      -0.18750000       0.31250000      -0.43750000 </v>
   <v>       0.31250000      -0.18750000      -0.43750000 </v>
   <v>      -0.43750000      -0.18750000      -0.43750000 </v>
   <v>       0.31250000      -0.43750000      -0.18750000 </v>
   <v>      -0.43750000      -0.43750000      -0.18750000 </v>
   <v>      -0.43750000      -0.18750000       0.31250000 </v>
   <v>       0.31250000      -0.43750000      -0.43750000 </v>
   <v>      -0.18750000      -0.43750000      -0.43750000 </v>
   <v>      -0.43750000       0.31250000      -0.18750000 </v>
   <v>      -0.25000000      -0.25000000       0.00000000 </v>
   <v>      -0.25000000       0.00000000      -0.25000000 </v>
   <v>       0.00000000      -0.25000000      -0.25000000 </v>
   <v>      -0.25000000      -0.25000000      -0.25000000 </v>
   <v>       0.31250000       0.31250000       0.31250000 </v>
   <v>      -0.18750000      -0.18750000      -0.18750000 </v>
   <v>      -0.50000000      -0.50000000      -0.50000000 </v>
   <v>      -0.25000000      -0.50000000      -0.50000000 </v>
   <v>      -0.50000000      -0.25000000      -0.50000000 </v>
   <v>      -0.50000000      -0.50000000      -0.25000000 </v>
   <v>      -0.43750000      -0.43750000      -0.43750000 </v>
  </varray>
 </structure>
 <varray name="primitive_index" >
  <v type="int" >        1 </v>
  <v type="int" >       69 </v>
  <v type="int" >       81 </v>
  <v type="int" >       65 </v>
  <v type="int" >       66 </v>
  <v type="int" >        5 </v>
  <v type="int" >        8 </v>
  <v type="int" >       17 </v>
  <v type="int" >       20 </v>
  <v type="int" >        4 </v>
  <v type="int" >       29 </v>
  <v type="int" >       53 </v>
  <v type="int" >        2 </v>
  <v type="int" >       13 </v>
  <v type="int" >       14 </v>
  <v type="int" >       49 </v>
  <v type="int" >       50 </v>
  <v type="int" >       85 </v>
  <v type="int" >       88 </v>
  <v type="int" >       70 </v>
  <v type="int" >       72 </v>
  <v type="int" >       82 </v>
  <v type="int" >       84 </v>
  <v type="int" >       94 </v>
  <v type="int" >      118 </v>
  <v type="int" >       93 </v>
  <v type="int" >      117 </v>
  <v type="int" >       78 </v>
  <v type="int" >      114 </v>
  <v type="int" >       24 </v>
  <v type="int" >       30 </v>
  <v type="int" >       32 </v>
  <v type="int" >       54 </v>
  <v type="int" >       56 </v>
  <v type="int" >       62 </v>
  <v type="int" >       73 </v>
  <v type="int" >       76 </v>
  <v type="int" >       97 </v>
  <v type="int" >      100 </v>
  <v type="int" >      109 </v>
  <v type="int" >      121 </v>
  <v type="int" >       67 </v>
  <v type="int" >       68 </v>
  <v type="int" >       79 </v>
  <v type="int" >      115 </v>
  <v type="int" >       77 </v>
  <v type="int" >      113 </v>
  <v type="int" >       12 </v>
  <v type="int" >       21 </v>
  <v type="int" >       23 </v>
  <v type="int" >       36 </v>
  <v type="int" >        7 </v>
  <v type="int" >       18 </v>
  <v type="int" >       45 </v>
  <v type="int" >       60 </v>
  <v type="int" >        6 </v>
  <v type="int" >       19 </v>
  <v type="int" >       48 </v>
  <v type="int" >       57 </v>
  <v type="int" >       15 </v>
  <v type="int" >       16 </v>
  <v type="int" >       25 </v>
  <v type="int" >       26 </v>
  <v type="int" >       37 </v>
  <v type="int" >       38 </v>
  <v type="int" >       51 </v>
  <v type="int" >       52 </v>
  <v type="int" >       10 </v>
  <v type="int" >       34 </v>
  <v type="int" >       61 </v>
  <v type="int" >       63 </v>
  <v type="int" >       92 </v>
  <v type="int" >      104 </v>
  <v type="int" >       86 </v>
  <v type="int" >       87 </v>
  <v type="int" >      110 </v>
  <v type="int" >      122 </v>
  <v type="int" >      112 </v>
  <v type="int" >      124 </v>
  <v type="int" >      119 </v>
  <v type="int" >       95 </v>
  <v type="int" >       96 </v>
  <v type="int" >      120 </v>
  <v type="int" >      102 </v>
  <v type="int" >       90 </v>
  <v type="int" >      126 </v>
  <v type="int" >      127 </v>
  <v type="int" >        9 </v>
  <v type="int" >       11 </v>
  <v type="int" >       33 </v>
  <v type="int" >       35 </v>
  <v type="int" >        3 </v>
  <v type="int" >       41 </v>
  <v type="int" >       89 </v>
  <v type="int" >      101 </v>
  <v type="int" >       91 </v>
  <v type="int" >      103 </v>
  <v type="int" >       74 </v>
  <v type="int" >       75 </v>
  <v type="int" >       98 </v>
  <v type="int" >       99 </v>
  <v type="int" >       71 </v>
  <v type="int" >       83 </v>
  <v type="int" >      105 </v>
  <v type="int" >      106 </v>
  <v type="int" >       27 </v>
  <v type="int" >       28 </v>
  <v type="int" >       39 </v>
  <v type="int" >       40 </v>
  <v type="int" >       46 </v>
  <v type="int" >       47 </v>
  <v type="int" >       58 </v>
  <v type="int" >       59 </v>
  <v type="int" >       31 </v>
  <v type="int" >       42 </v>
  <v type="int" >       44 </v>
  <v type="int" >       55 </v>
  <v type="int" >       80 </v>
  <v type="int" >      116 </v>
  <v type="int" >      125 </v>
  <v type="int" >      128 </v>
  <v type="int" >       22 </v>
  <v type="int" >       64 </v>
  <v type="int" >      107 </v>
  <v type="int" >      108 </v>
  <v type="int" >      111 </v>
  <v type="int" >      123 </v>
  <v type="int" >       43 </v>
 </varray>
 <kpoints>
  <generation param="Gamma">
   <v type="int" name="divisions">       1        1        1 </v>
   <v name="usershift">      0.00000000       0.00000000       0.00000000 </v>
   <v name="genvec1">      1.00000000       0.00000000       0.00000000 </v>
   <v name="genvec2">      0.00000000       1.00000000       0.00000000 </v>
   <v name="genvec3">      0.00000000       0.00000000       1.00000000 </v>
   <v name="shift">      0.00000000       0.00000000       0.00000000 </v>
  </generation>
  <varray name="kpointlist" >
   <v>       0.00000000       0.00000000       0.00000000 </v>
  </varray>
  <varray name="weights" >
   <v>       1.00000000 </v>
  </varray>
 </kpoints>
 <parameters>
  <separator name="general" >
   <i type="string" name="SYSTEM">unknown system</i>
   <i type="logical" name="LCOMPAT"> F  </i>
  </separator>
  <separator name="electronic" >
   <i type="string" name="PREC">accura</i>
   <i name="ENMAX">    500.00000000</i>
   <i name="ENAUG">    322.06900000</i>
   <i name="EDIFF">      0.00000001</i>
   <i type="int" name="IALGO">    38</i>
   <i type="int" name="IWAVPR">    10</i>
   <i type="int" name="NBANDS">   322</i>
   <i name="NELECT">    512.00000000</i>
   <i type="int" name="TURBO">     0</i>
   <i type="int" name="IRESTART">     0</i>
   <i type="int" name="NREBOOT">     0</i>
   <i type="int" name="NMIN">     0</i>
   <i name="EREF">      0.00000000</i>
   <separator name="electronic smearing" >
    <i type="int" name="ISMEAR">     0</i>
    <i name="SIGMA">      0.05000000</i>
    <i name="KSPACING">      0.50000000</i>
    <i type="logical" name="KGAMMA"> T  </i>
   </separator>
   <separator name="electronic projectors" >
    <i type="logical" name="LREAL"> F  </i>
    <v name="ROPT">      0.00000000</v>
    <i type="int" name="LMAXPAW">  -100</i>
    <i type="int" name="LMAXMIX">     2</i>
    <i type="logical" name="NLSPLINE"> F  </i>
   </separator>
   <separator name="electronic startup" >
    <i type="int" name="ISTART">     0</i>
    <i type="int" name="ICHARG">     2</i>
    <i type="int" name="INIWAV">     1</i>
   </separator>
   <separator name="electronic spin" >
    <i type="int" name="ISPIN">     1</i>
    <i type="logical" name="LNONCOLLINEAR"> F  </i>
    <v name="MAGMOM">      1.00000000      1.00000000      1.00000000      1.00000000      1.00000000      1.00000000      1.00000000      1.00000000      1.00000000      1.00000000      1.00000000      1.00000000      1.00000000      1.00000000      1.00000000      1.00000000      1.00000000      1.00000000      1.00000000      1.00000000
      1.00000000      1.00000000      1.00000000      1.00000000      1.00000000      1.00000000      1.00000000      1.00000000      1.00000000      1.00000000      1.00000000      1.00000000      1.00000000      1.00000000      1.00000000      1.00000000      1.00000000      1.00000000      1.00000000      1.00000000
      1.00000000      1.00000000      1.00000000      1.00000000      1.00000000      1.00000000      1.00000000      1.00000000      1.00000000      1.00000000      1.00000000      1.00000000      1.00000000      1.00000000      1.00000000      1.00000000      1.00000000      1.00000000      1.00000000      1.00000000
      1.00000000      1.00000000      1.00000000      1.00000000      1.00000000      1.00000000      1.00000000      1.00000000      1.00000000      1.00000000      1.00000000      1.00000000      1.00000000      1.00000000      1.00000000      1.00000000      1.00000000      1.00000000      1.00000000      1.00000000
      1.00000000      1.00000000      1.00000000      1.00000000      1.00000000      1.00000000      1.00000000      1.00000000      1.00000000      1.00000000      1.00000000      1.00000000      1.00000000      1.00000000      1.00000000      1.00000000      1.00000000      1.00000000      1.00000000      1.00000000
      1.00000000      1.00000000      1.00000000      1.00000000      1.00000000      1.00000000      1.00000000      1.00000000      1.00000000      1.00000000      1.00000000      1.00000000      1.00000000      1.00000000      1.00000000      1.00000000      1.00000000      1.00000000      1.00000000      1.00000000
      1.00000000      1.00000000      1.00000000      1.00000000      1.00000000      1.00000000      1.00000000      1.00000000</v>
    <i name="NUPDOWN">     -1.00000000</i>
    <i type="logical" name="LSORBIT"> F  </i>
    <v name="SAXIS">      0.00000000      0.00000000      1.00000000</v>
    <i type="logical" name="LSPIRAL"> F  </i>
    <v name="QSPIRAL">      0.00000000      0.00000000      0.00000000</v>
    <i type="logical" name="LZEROZ"> F  </i>
   </separator>
   <separator name="electronic exchange-correlation" >
    <i type="logical" name="LASPH"> F  </i>
    <i type="logical" name="LMETAGGA"> F  </i>
   </separator>
   <separator name="electronic convergence" >
    <i type="int" name="NELM">    60</i>
    <i type="int" name="NELMDL">    -5</i>
    <i type="int" name="NELMIN">     2</i>
    <i name="ENINI">    500.00000000</i>
    <separator name="electronic convergence detail" >
     <i type="logical" name="LDIAG"> T  </i>
     <i type="logical" name="LSUBROT"> F  </i>
     <i name="WEIMIN">      0.00000000</i>
     <i name="EBREAK">      0.00000000</i>
     <i name="DEPER">      0.30000000</i>
     <i type="int" name="NRMM">     4</i>
     <i name="TIME">      0.40000000</i>
    </separator>
   </separator>
   <separator name="electronic mixer" >
    <i name="AMIX">      0.40000000</i>
    <i name="BMIX">      1.00000000</i>
    <i name="AMIN">      0.10000000</i>
    <i name="AMIX_MAG">      1.60000000</i>
    <i name="BMIX_MAG">      1.00000000</i>
    <separator name="electronic mixer details" >
     <i type="int" name="IMIX">     4</i>
     <i type="logical" name="MIXFIRST"> F  </i>
     <i type="int" name="MAXMIX">   -45</i>
     <i name="WC">    100.00000000</i>
     <i type="int" name="INIMIX">     1</i>
     <i type="int" name="MIXPRE">     1</i>
     <i type="int" name="MREMOVE">     5</i>
    </separator>
   </separator>
   <separator name="electronic dipolcorrection" >
    <i type="logical" name="LDIPOL"> F  </i>
    <i type="logical" name="LMONO"> F  </i>
    <i type="int" name="IDIPOL">     0</i>
    <i name="EPSILON">      1.00000000</i>
    <v name="DIPOL">   -100.00000000   -100.00000000   -100.00000000</v>
    <i name="EFIELD">      0.00000000</i>
   </separator>
  </separator>
  <separator name="grids" >
   <i type="int" name="NGX">   120</i>
   <i type="int" name="NGY">   120</i>
   <i type="int" name="NGZ">   120</i>
   <i type="int" name="NGXF">   240</i>
   <i type="int" name="NGYF">   240</i>
   <i type="int" name="NGZF">   240</i>
   <i type="logical" name="ADDGRID"> T  </i>
  </separator>
  <separator name="ionic" >
   <i type="int" name="NSW">     0</i>
   <i type="int" name="IBRION">    -1</i>
   <i type="int" name="MDALGO">     0</i>
   <i type="int" name="ISIF">     2</i>
   <i name="PSTRESS">      0.00000000</i>
   <i name="EDIFFG">      0.00000010</i>
   <i type="int" name="NFREE">     0</i>
   <i name="POTIM">      0.50000000</i>
   <i name="SMASS">     -3.00000000</i>
   <i name="SCALEE">      1.00000000</i>
  </separator>
  <separator name="ionic md" >
   <i name="TEBEG">      0.00010000</i>
   <i name="TEEND">      0.00010000</i>
   <i type="int" name="NBLOCK">     1</i>
   <i type="int" name="KBLOCK">     1</i>
   <i type="int" name="NPACO">   256</i>
   <i name="APACO">     16.00000000</i>
  </separator>
  <separator name="symmetry" >
   <i type="int" name="ISYM">     0</i>
   <i name="SYMPREC">      0.00001000</i>
  </separator>
  <separator name="dos" >
   <i type="int" name="LORBIT">     0</i>
   <v name="RWIGS">     -1.00000000</v>
   <i type="int" name="NEDOS">   301</i>
   <i name="EMIN">     10.00000000</i>
   <i name="EMAX">    -10.00000000</i>
   <i name="EFERMI">      0.00000000</i>
  </separator>
  <separator name="writing" >
   <i type="int" name="NWRITE">     2</i>
   <i type="logical" name="LWAVE"> F  </i>
   <i type="logical" name="LDOWNSAMPLE"> F  </i>
   <i type="logical" name="LCHARG"> F  </i>
   <i type="logical" name="LPARD"> F  </i>
   <i type="logical" name="LVTOT"> F  </i>
   <i type="logical" name="LVHAR"> F  </i>
   <i type="logical" name="LELF"> F  </i>
   <i type="logical" name="LOPTICS"> F  </i>
   <v name="STM">      0.00000000      0.00000000      0.00000000      0.00000000      0.00000000      0.00000000      0.00000000</v>
  </separator>
  <separator name="performance" >
   <i type="int" name="NPAR">     2</i>
   <i type="int" name="NSIM">     4</i>
   <i type="int" name="NBLK">    -1</i>
   <i type="logical" name="LPLANE"> T  </i>
   <i type="logical" name="LSCALAPACK"> T  </i>
   <i type="logical" name="LSCAAWARE"> F  </i>
   <i type="logical" name="LSCALU"> F  </i>
   <i type="logical" name="LASYNC"> F  </i>
   <i type="logical" name="LORBITALREAL"> F  </i>
  </separator>
  <separator name="miscellaneous" >
   <i type="int" name="IDIOT">     3</i>
   <i type="int" name="ISPECIAL">     0</i>
   <i type="logical" name="LMUSIC"> F  </i>
   <v name="POMASS">     28.08500000</v>
   <v name="DARWINR">      0.00000000</v>
   <v name="DARWINV">      1.00000000</v>
   <i type="logical" name="LCORR"> T  </i>
  </separator>
  <i type="logical" name="GGA_COMPAT"> T  </i>
  <i type="logical" name="LBERRY"> F  </i>
  <i type="int" name="ICORELEVEL">     0</i>
  <i type="logical" name="LDAU"> F  </i>
  <i type="int" name="I_CONSTRAINED_M">     0</i>
  <separator name="electronic exchange-correlation" >
   <i type="string" name="GGA">--</i>
   <i type="int" name="VOSKOWN">     0</i>
   <i type="logical" name="LHFCALC"> F  </i>
   <i type="string" name="PRECFOCK"></i>
   <i type="logical" name="LSYMGRAD"> F  </i>
   <i type="logical" name="LHFONE"> F  </i>
   <i type="logical" name="LRHFCALC"> F  </i>
   <i type="logical" name="LTHOMAS"> F  </i>
   <i type="logical" name="LMODELHF"> F  </i>
   <i name="ENCUT4O">     -1.00000000</i>
   <i type="int" name="EXXOEP">     0</i>
   <i type="int" name="FOURORBIT">     0</i>
   <i name="AEXX">      0.00000000</i>
   <i name="HFALPHA">      0.00000000</i>
   <i name="MCALPHA">      0.00000000</i>
   <i name="ALDAX">      1.00000000</i>
   <i name="AGGAX">      1.00000000</i>
   <i name="ALDAC">      1.00000000</i>
   <i name="AGGAC">      1.00000000</i>
   <i type="int" name="NKREDX">     1</i>
   <i type="int" name="NKREDY">     1</i>
   <i type="int" name="NKREDZ">     1</i>
   <i type="logical" name="SHIFTRED"> F  </i>
   <i type="logical" name="ODDONLY"> F  </i>
   <i type="logical" name="EVENONLY"> F  </i>
   <i type="int" name="LMAXFOCK">     0</i>
   <i type="int" name="NMAXFOCKAE">     0</i>
   <i type="logical" name="LFOCKAEDFT"> F  </i>
   <i name="HFSCREEN">      0.00000000</i>
   <i name="HFSCREENC">      0.00000000</i>
   <i type="int" name="NBANDSGWLOW">     0</i>
  </separator>
  <separator name="vdW DFT" >
   <i type="logical" name="LUSE_VDW"> F  </i>
   <i name="Zab_VDW">     -0.84910000</i>
   <i name="PARAM1">      0.12340000</i>
   <i name="PARAM2">      1.00000000</i>
   <i name="PARAM3">      0.00000000</i>
  </separator>
  <separator name="model GW" >
   <i type="int" name="MODEL_GW">     0</i>
   <i name="MODEL_EPS0">     12.26549432</i>
   <i name="MODEL_ALPHA">      1.00000000</i>
  </separator>
  <separator name="linear response parameters" >
   <i type="logical" name="LEPSILON"> F  </i>
   <i type="logical" name="LRPA"> F  </i>
   <i type="logical" name="LNABLA"> F  </i>
   <i type="logical" name="LVEL"> F  </i>
   <i type="int" name="KINTER">     0</i>
   <i name="CSHIFT">      0.10000000</i>
   <i name="OMEGAMAX">     -1.00000000</i>
   <i name="DEG_THRESHOLD">      0.00200000</i>
   <i name="RTIME">     -0.10000000</i>
   <i name="WPLASMAI">      0.00000000</i>
   <v name="DFIELD">      0.00000000      0.00000000      0.00000000</v>
   <v name="WPLASMA">      0.00000000      0.00000000      0.00000000      0.00000000      0.00000000      0.00000000      0.00000000      0.00000000      0.00000000</v>
  </separator>
  <separator name="orbital magnetization" >
   <i type="logical" name="NUCIND"> F  </i>
   <v name="MAGPOS">      0.00000000      0.00000000      0.00000000</v>
   <i type="logical" name="LNICSALL"> T  </i>
   <i type="logical" name="ORBITALMAG"> F  </i>
   <i type="logical" name="LMAGBLOCH"> F  </i>
   <i type="logical" name="LCHIMAG"> F  </i>
   <i type="logical" name="LGAUGE"> T  </i>
   <i type="int" name="MAGATOM">     0</i>
   <v name="MAGDIPOL">      0.00000000      0.00000000      0.00000000</v>
   <v name="AVECCONST">      0.00000000      0.00000000      0.00000000</v>
  </separator>
  <separator name="response functions" >
   <i type="logical" name="LADDER"> F  </i>
   <i type="logical" name="LRPAFORCE"> F  </i>
   <i type="logical" name="LFXC"> F  </i>
   <i type="logical" name="LHARTREE"> T  </i>
   <i type="int" name="IBSE">     0</i>
   <v type="int" name="KPOINT">    -1     0     0     0</v>
   <i type="logical" name="LTCTE"> F  </i>
   <i type="logical" name="LTETE"> F  </i>
   <i type="logical" name="LTRIPLET"> F  </i>
   <i type="logical" name="LFXCEPS"> F  </i>
   <i type="logical" name="LFXHEG"> F  </i>
   <i type="int" name="NATURALO">     2</i>
   <i type="logical" name="L2ORDER"> F  </i>
   <i type="logical" name="LMP2LT"> F  </i>
   <i type="logical" name="LUSEW"> F  </i>
   <i name="ENCUTGW">     -2.00000000</i>
   <i name="ENCUTGWSOFT">     -2.00000000</i>
   <i name="ENCUTLF">     -1.00000000</i>
   <i type="int" name="LMAXMP2">    -1</i>
   <i name="SCISSOR">      0.00000000</i>
   <i type="int" name="NOMEGA">     0</i>
   <i type="int" name="NOMEGAR">     0</i>
   <i type="int" name="NBANDSGW">    -1</i>
   <i type="int" name="NBANDSO">    -1</i>
   <i type="int" name="NBANDSV">    -1</i>
   <i type="int" name="NELM">     1</i>
   <i type="int" name="NELMHF">     1</i>
   <i type="int" name="DIM">     3</i>
   <i type="int" name="ANTIRES">     0</i>
   <i name="OMEGAMAX">    -30.00000000</i>
   <i name="OMEGAMIN">    -30.00000000</i>
   <i name="OMEGATL">   -200.00000000</i>
   <i type="int" name="OMEGAGRID">   140</i>
   <i name="CSHIFT">     -0.10000000</i>
   <i type="logical" name="SELFENERGY"> F  </i>
   <i type="logical" name="LSPECTRAL"> F  </i>
   <i type="logical" name="LSPECTRALGW"> F  </i>
   <i type="logical" name="LSINGLES"> F  </i>
   <i type="logical" name="LFERMIGW"> F  </i>
   <i type="logical" name="ODDONLYGW"> F  </i>
   <i type="logical" name="EVENONLYGW"> F  </i>
   <i type="int" name="NKREDLFX">     1</i>
   <i type="int" name="NKREDLFY">     1</i>
   <i type="int" name="NKREDLFZ">     1</i>
   <i type="int" name="MAXMEM">  2800</i>
   <i type="int" name="TELESCOPE">     0</i>
   <i type="int" name="TAUPAR">     1</i>
   <i type="int" name="OMEGAPAR">    -1</i>
   <i name="LAMBDA">      1.00000000</i>
  </separator>
  <separator name="External order field" >
   <i name="OFIELD_KAPPA">      0.00000000</i>
   <v name="OFIELD_K">      0.00000000      0.00000000      0.00000000</v>
   <i name="OFIELD_Q6_NEAR">      0.00000000</i>
   <i name="OFIELD_Q6_FAR">      0.00000000</i>
   <i name="OFIELD_A">      0.00000000</i>
  </separator>
 </parameters>
 <atominfo>
  <atoms>     128 </atoms>
  <types>       1 </types>
  <array name="atoms" >
   <dimension dim="1">ion</dimension>
   <field type="string">element</field>
   <field type="int">atomtype</field>
   <set>
    <rc><c>Si</c><c>   1</c></rc>
    <rc><c>Si</c><c>   1</c></rc>
    <rc><c>Si</c><c>   1</c></rc>
    <rc><c>Si</c><c>   1</c></rc>
    <rc><c>Si</c><c>   1</c></rc>
    <rc><c>Si</c><c>   1</c></rc>
    <rc><c>Si</c><c>   1</c></rc>
    <rc><c>Si</c><c>   1</c></rc>
    <rc><c>Si</c><c>   1</c></rc>
    <rc><c>Si</c><c>   1</c></rc>
    <rc><c>Si</c><c>   1</c></rc>
    <rc><c>Si</c><c>   1</c></rc>
    <rc><c>Si</c><c>   1</c></rc>
    <rc><c>Si</c><c>   1</c></rc>
    <rc><c>Si</c><c>   1</c></rc>
    <rc><c>Si</c><c>   1</c></rc>
    <rc><c>Si</c><c>   1</c></rc>
    <rc><c>Si</c><c>   1</c></rc>
    <rc><c>Si</c><c>   1</c></rc>
    <rc><c>Si</c><c>   1</c></rc>
    <rc><c>Si</c><c>   1</c></rc>
    <rc><c>Si</c><c>   1</c></rc>
    <rc><c>Si</c><c>   1</c></rc>
    <rc><c>Si</c><c>   1</c></rc>
    <rc><c>Si</c><c>   1</c></rc>
    <rc><c>Si</c><c>   1</c></rc>
    <rc><c>Si</c><c>   1</c></rc>
    <rc><c>Si</c><c>   1</c></rc>
    <rc><c>Si</c><c>   1</c></rc>
    <rc><c>Si</c><c>   1</c></rc>
    <rc><c>Si</c><c>   1</c></rc>
    <rc><c>Si</c><c>   1</c></rc>
    <rc><c>Si</c><c>   1</c></rc>
    <rc><c>Si</c><c>   1</c></rc>
    <rc><c>Si</c><c>   1</c></rc>
    <rc><c>Si</c><c>   1</c></rc>
    <rc><c>Si</c><c>   1</c></rc>
    <rc><c>Si</c><c>   1</c></rc>
    <rc><c>Si</c><c>   1</c></rc>
    <rc><c>Si</c><c>   1</c></rc>
    <rc><c>Si</c><c>   1</c></rc>
    <rc><c>Si</c><c>   1</c></rc>
    <rc><c>Si</c><c>   1</c></rc>
    <rc><c>Si</c><c>   1</c></rc>
    <rc><c>Si</c><c>   1</c></rc>
    <rc><c>Si</c><c>   1</c></rc>
    <rc><c>Si</c><c>   1</c></rc>
    <rc><c>Si</c><c>   1</c></rc>
    <rc><c>Si</c><c>   1</c></rc>
    <rc><c>Si</c><c>   1</c></rc>
    <rc><c>Si</c><c>   1</c></rc>
    <rc><c>Si</c><c>   1</c></rc>
    <rc><c>Si</c><c>   1</c></rc>
    <rc><c>Si</c><c>   1</c></rc>
    <rc><c>Si</c><c>   1</c></rc>
    <rc><c>Si</c><c>   1</c></rc>
    <rc><c>Si</c><c>   1</c></rc>
    <rc><c>Si</c><c>   1</c></rc>
    <rc><c>Si</c><c>   1</c></rc>
    <rc><c>Si</c><c>   1</c></rc>
    <rc><c>Si</c><c>   1</c></rc>
    <rc><c>Si</c><c>   1</c></rc>
    <rc><c>Si</c><c>   1</c></rc>
    <rc><c>Si</c><c>   1</c></rc>
    <rc><c>Si</c><c>   1</c></rc>
    <rc><c>Si</c><c>   1</c></rc>
    <rc><c>Si</c><c>   1</c></rc>
    <rc><c>Si</c><c>   1</c></rc>
    <rc><c>Si</c><c>   1</c></rc>
    <rc><c>Si</c><c>   1</c></rc>
    <rc><c>Si</c><c>   1</c></rc>
    <rc><c>Si</c><c>   1</c></rc>
    <rc><c>Si</c><c>   1</c></rc>
    <rc><c>Si</c><c>   1</c></rc>
    <rc><c>Si</c><c>   1</c></rc>
    <rc><c>Si</c><c>   1</c></rc>
    <rc><c>Si</c><c>   1</c></rc>
    <rc><c>Si</c><c>   1</c></rc>
    <rc><c>Si</c><c>   1</c></rc>
    <rc><c>Si</c><c>   1</c></rc>
    <rc><c>Si</c><c>   1</c></rc>
    <rc><c>Si</c><c>   1</c></rc>
    <rc><c>Si</c><c>   1</c></rc>
    <rc><c>Si</c><c>   1</c></rc>
    <rc><c>Si</c><c>   1</c></rc>
    <rc><c>Si</c><c>   1</c></rc>
    <rc><c>Si</c><c>   1</c></rc>
    <rc><c>Si</c><c>   1</c></rc>
    <rc><c>Si</c><c>   1</c></rc>
    <rc><c>Si</c><c>   1</c></rc>
    <rc><c>Si</c><c>   1</c></rc>
    <rc><c>Si</c><c>   1</c></rc>
    <rc><c>Si</c><c>   1</c></rc>
    <rc><c>Si</c><c>   1</c></rc>
    <rc><c>Si</c><c>   1</c></rc>
    <rc><c>Si</c><c>   1</c></rc>
    <rc><c>Si</c><c>   1</c></rc>
    <rc><c>Si</c><c>   1</c></rc>
    <rc><c>Si</c><c>   1</c></rc>
    <rc><c>Si</c><c>   1</c></rc>
    <rc><c>Si</c><c>   1</c></rc>
    <rc><c>Si</c><c>   1</c></rc>
    <rc><c>Si</c><c>   1</c></rc>
    <rc><c>Si</c><c>   1</c></rc>
    <rc><c>Si</c><c>   1</c></rc>
    <rc><c>Si</c><c>   1</c></rc>
    <rc><c>Si</c><c>   1</c></rc>
    <rc><c>Si</c><c>   1</c></rc>
    <rc><c>Si</c><c>   1</c></rc>
    <rc><c>Si</c><c>   1</c></rc>
    <rc><c>Si</c><c>   1</c></rc>
    <rc><c>Si</c><c>   1</c></rc>
    <rc><c>Si</c><c>   1</c></rc>
    <rc><c>Si</c><c>   1</c></rc>
    <rc><c>Si</c><c>   1</c></rc>
    <rc><c>Si</c><c>   1</c></rc>
    <rc><c>Si</c><c>   1</c></rc>
    <rc><c>Si</c><c>   1</c></rc>
    <rc><c>Si</c><c>   1</c></rc>
    <rc><c>Si</c><c>   1</c></rc>
    <rc><c>Si</c><c>   1</c></rc>
    <rc><c>Si</c><c>   1</c></rc>
    <rc><c>Si</c><c>   1</c></rc>
    <rc><c>Si</c><c>   1</c></rc>
    <rc><c>Si</c><c>   1</c></rc>
    <rc><c>Si</c><c>   1</c></rc>
    <rc><c>Si</c><c>   1</c></rc>
    <rc><c>Si</c><c>   1</c></rc>
   </set>
  </array>
  <array name="atomtypes" >
   <dimension dim="1">type</dimension>
   <field type="int">atomspertype</field>
   <field type="string">element</field>
   <field>mass</field>
   <field>valence</field>
   <field type="string">pseudopotential</field>
   <set>
    <rc><c> 128</c><c>Si</c><c>     28.08500000</c><c>      4.00000000</c><c> PAW_PBE Si 05Jan2001                   </c></rc>
   </set>
  </array>
 </atominfo>
 <structure name="initialpos" >
  <crystal>
   <varray name="basis" >
    <v>       0.00000000      10.93716070      10.93716070 </v>
    <v>      10.93716070       0.00000000      10.93716070 </v>
    <v>      10.93716070      10.93716070       0.00000000 </v>
   </varray>
   <i name="volume">   2616.63878844 </i>
   <varray name="rec_basis" >
    <v>      -0.04571570       0.04571570       0.04571570 </v>
    <v>       0.04571570      -0.04571570       0.04571570 </v>
    <v>       0.04571570       0.04571570      -0.04571570 </v>
   </varray>
  </crystal>
  <varray name="positions" >
   <v>       0.06204284       0.06295716       0.06295716 </v>
   <v>       0.31295716       0.06204284       0.06204284 </v>
   <v>       0.56250000       0.06250000       0.06250000 </v>
   <v>       0.81250000       0.06250000       0.06250000 </v>
   <v>       0.06250000       0.31250000       0.06250000 </v>
   <v>       0.31250000       0.31250000       0.06250000 </v>
   <v>       0.56250000       0.31250000       0.06250000 </v>
   <v>       0.81250000       0.31250000       0.06250000 </v>
   <v>       0.06250000       0.56250000       0.06250000 </v>
   <v>       0.31250000       0.56250000       0.06250000 </v>
   <v>       0.56250000       0.56250000       0.06250000 </v>
   <v>       0.81250000       0.56250000       0.06250000 </v>
   <v>       0.06250000       0.81250000       0.06250000 </v>
   <v>       0.31250000       0.81250000       0.06250000 </v>
   <v>       0.56250000       0.81250000       0.06250000 </v>
   <v>       0.81250000       0.81250000       0.06250000 </v>
   <v>       0.06250000       0.06250000       0.31250000 </v>
   <v>       0.31250000       0.06250000       0.31250000 </v>
   <v>       0.56250000       0.06250000       0.31250000 </v>
   <v>       0.81250000       0.06250000       0.31250000 </v>
   <v>       0.06250000       0.31250000       0.31250000 </v>
   <v>       0.31250000       0.31250000       0.31250000 </v>
   <v>       0.56250000       0.31250000       0.31250000 </v>
   <v>       0.81250000       0.31250000       0.31250000 </v>
   <v>       0.06250000       0.56250000       0.31250000 </v>
   <v>       0.31250000       0.56250000       0.31250000 </v>
   <v>       0.56250000       0.56250000       0.31250000 </v>
   <v>       0.81250000       0.56250000       0.31250000 </v>
   <v>       0.06250000       0.81250000       0.31250000 </v>
   <v>       0.31250000       0.81250000       0.31250000 </v>
   <v>       0.56250000       0.81250000       0.31250000 </v>
   <v>       0.81250000       0.81250000       0.31250000 </v>
   <v>       0.06250000       0.06250000       0.56250000 </v>
   <v>       0.31250000       0.06250000       0.56250000 </v>
   <v>       0.56250000       0.06250000       0.56250000 </v>
   <v>       0.81250000       0.06250000       0.56250000 </v>
   <v>       0.06250000       0.31250000       0.56250000 </v>
   <v>       0.31250000       0.31250000       0.56250000 </v>
   <v>       0.56250000       0.31250000       0.56250000 </v>
   <v>       0.81250000       0.31250000       0.56250000 </v>
   <v>       0.06250000       0.56250000       0.56250000 </v>
   <v>       0.31250000       0.56250000       0.56250000 </v>
   <v>       0.56250000       0.56250000       0.56250000 </v>
   <v>       0.81250000       0.56250000       0.56250000 </v>
   <v>       0.06250000       0.81250000       0.56250000 </v>
   <v>       0.31250000       0.81250000       0.56250000 </v>
   <v>       0.56250000       0.81250000       0.56250000 </v>
   <v>       0.81250000       0.81250000       0.56250000 </v>
   <v>       0.06250000       0.06250000       0.81250000 </v>
   <v>       0.31250000       0.06250000       0.81250000 </v>
   <v>       0.56250000       0.06250000       0.81250000 </v>
   <v>       0.81250000       0.06250000       0.81250000 </v>
   <v>       0.06250000       0.31250000       0.81250000 </v>
   <v>       0.31250000       0.31250000       0.81250000 </v>
   <v>       0.56250000       0.31250000       0.81250000 </v>
   <v>       0.81250000       0.31250000       0.81250000 </v>
   <v>       0.06250000       0.56250000       0.81250000 </v>
   <v>       0.31250000       0.56250000       0.81250000 </v>
   <v>       0.56250000       0.56250000       0.81250000 </v>
   <v>       0.81250000       0.56250000       0.81250000 </v>
   <v>       0.06250000       0.81250000       0.81250000 </v>
   <v>       0.31250000       0.81250000       0.81250000 </v>
   <v>       0.56250000       0.81250000       0.81250000 </v>
   <v>       0.81250000       0.81250000       0.81250000 </v>
   <v>       0.00000000       0.00000000       0.00000000 </v>
   <v>       0.25000000       0.00000000       0.00000000 </v>
   <v>       0.50000000       0.00000000       0.00000000 </v>
   <v>       0.75000000       0.00000000       0.00000000 </v>
   <v>       0.00000000       0.25000000       0.00000000 </v>
   <v>       0.25000000       0.25000000       0.00000000 </v>
   <v>       0.50000000       0.25000000       0.00000000 </v>
   <v>       0.75000000       0.25000000       0.00000000 </v>
   <v>       0.00000000       0.50000000       0.00000000 </v>
   <v>       0.25000000       0.50000000       0.00000000 </v>
   <v>       0.50000000       0.50000000       0.00000000 </v>
   <v>       0.75000000       0.50000000       0.00000000 </v>
   <v>       0.00000000       0.75000000       0.00000000 </v>
   <v>       0.25000000       0.75000000       0.00000000 </v>
   <v>       0.50000000       0.75000000       0.00000000 </v>
   <v>       0.75000000       0.75000000       0.00000000 </v>
   <v>       0.00000000       0.00000000       0.25000000 </v>
   <v>       0.25000000       0.00000000       0.25000000 </v>
   <v>       0.50000000       0.00000000       0.25000000 </v>
   <v>       0.75000000       0.00000000       0.25000000 </v>
   <v>       0.00000000       0.25000000       0.25000000 </v>
   <v>       0.25000000       0.25000000       0.25000000 </v>
   <v>       0.50000000       0.25000000       0.25000000 </v>
   <v>       0.75000000       0.25000000       0.25000000 </v>
   <v>       0.00000000       0.50000000       0.25000000 </v>
   <v>       0.25000000       0.50000000       0.25000000 </v>
   <v>       0.50000000       0.50000000       0.25000000 </v>
   <v>       0.75000000       0.50000000       0.25000000 </v>
   <v>       0.00000000       0.75000000       0.25000000 </v>
   <v>       0.25000000       0.75000000       0.25000000 </v>
   <v>       0.50000000       0.75000000       0.25000000 </v>
   <v>       0.75000000       0.75000000       0.25000000 </v>
   <v>       0.00000000       0.00000000       0.50000000 </v>
   <v>       0.25000000       0.00000000       0.50000000 </v>
   <v>       0.50000000       0.00000000       0.50000000 </v>
   <v>       0.75000000       0.00000000       0.50000000 </v>
   <v>       0.00000000       0.25000000       0.50000000 </v>
   <v>       0.25000000       0.25000000       0.50000000 </v>
   <v>       0.50000000       0.25000000       0.50000000 </v>
   <v>       0.75000000       0.25000000       0.50000000 </v>
   <v>       0.00000000       0.50000000       0.50000000 </v>
   <v>       0.25000000       0.50000000       0.50000000 </v>
   <v>       0.50000000       0.50000000       0.50000000 </v>
   <v>       0.75000000       0.50000000       0.50000000 </v>
   <v>       0.00000000       0.75000000       0.50000000 </v>
   <v>       0.25000000       0.75000000       0.50000000 </v>
   <v>       0.50000000       0.75000000       0.50000000 </v>
   <v>       0.75000000       0.75000000       0.50000000 </v>
   <v>       0.00000000       0.00000000       0.75000000 </v>
   <v>       0.25000000       0.00000000       0.75000000 </v>
   <v>       0.50000000       0.00000000       0.75000000 </v>
   <v>       0.75000000       0.00000000       0.75000000 </v>
   <v>       0.00000000       0.25000000       0.75000000 </v>
   <v>       0.25000000       0.25000000       0.75000000 </v>
   <v>       0.50000000       0.25000000       0.75000000 </v>
   <v>       0.75000000       0.25000000       0.75000000 </v>
   <v>       0.00000000       0.50000000       0.75000000 </v>
   <v>       0.25000000       0.50000000       0.75000000 </v>
   <v>       0.50000000       0.50000000       0.75000000 </v>
   <v>       0.75000000       0.50000000       0.75000000 </v>
   <v>       0.00000000       0.75000000       0.75000000 </v>
   <v>       0.25000000       0.75000000       0.75000000 </v>
   <v>       0.50000000       0.75000000       0.75000000 </v>
   <v>       0.75000000       0.75000000       0.75000000 </v>
  </varray>
 </structure>
 <calculation>
  <scstep>
   <time name="dav">    4.80    4.82</time>
   <time name="total">    5.31    5.33</time>
   <energy>
    <i name="alphaZ">    210.78028765 </i>
    <i name="ewald"> -14524.86558056 </i>
    <i name="hartreedc">   -724.62017748 </i>
    <i name="XCdc">  -1195.83148189 </i>
    <i name="pawpsdc">   4221.13331941 </i>
    <i name="pawaedc">  -1969.18571412 </i>
    <i name="eentropy">     -0.01593256 </i>
    <i name="bandstr">   2165.01023482 </i>
    <i name="atom">  13192.48085998 </i>
    <i name="e_fr_energy">   1374.88581526 </i>
    <i name="e_wo_entrp">   1374.90174782 </i>
    <i name="e_0_energy">   1374.89378154 </i>
   </energy>
  </scstep>
  <scstep>
   <time name="dav">    5.42    5.43</time>
   <time name="total">    5.42    5.43</time>
   <energy>
    <i name="e_fr_energy">   -537.01734307 </i>
    <i name="e_wo_entrp">   -537.01734122 </i>
    <i name="e_0_energy">   -537.01734215 </i>
   </energy>
  </scstep>
  <scstep>
   <time name="dav">    5.46    5.48</time>
   <time name="total">    5.46    5.48</time>
   <energy>
    <i name="e_fr_energy">   -690.02365822 </i>
    <i name="e_wo_entrp">   -690.02365822 </i>
    <i name="e_0_energy">   -690.02365822 </i>
   </energy>
  </scstep>
  <scstep>
   <time name="dav">    5.37    5.38</time>
   <time name="total">    5.37    5.38</time>
   <energy>
    <i name="e_fr_energy">   -694.53321130 </i>
    <i name="e_wo_entrp">   -694.53321130 </i>
    <i name="e_0_energy">   -694.53321130 </i>
   </energy>
  </scstep>
  <scstep>
   <time name="dav">    5.39    5.41</time>
   <time name="total">    5.90    5.92</time>
   <energy>
    <i name="e_fr_energy">   -694.69994765 </i>
    <i name="e_wo_entrp">   -694.69994765 </i>
    <i name="e_0_energy">   -694.69994765 </i>
   </energy>
  </scstep>
  <scstep>
   <time name="dav">    5.09    5.10</time>
   <time name="total">    6.08    6.15</time>
   <energy>
    <i name="e_fr_energy">   -686.29985407 </i>
    <i name="e_wo_entrp">   -686.29985407 </i>
    <i name="e_0_energy">   -686.29985407 </i>
   </energy>
  </scstep>
  <scstep>
   <time name="dav">    4.91    4.93</time>
   <time name="total">    5.91    5.92</time>
   <energy>
    <i name="e_fr_energy">   -682.42703841 </i>
    <i name="e_wo_entrp">   -682.42703841 </i>
    <i name="e_0_energy">   -682.42703841 </i>
   </energy>
  </scstep>
  <scstep>
   <time name="dav">    5.03    5.04</time>
   <time name="total">    6.02    6.03</time>
   <energy>
    <i name="e_fr_energy">   -682.55915664 </i>
    <i name="e_wo_entrp">   -682.55915664 </i>
    <i name="e_0_energy">   -682.55915664 </i>
   </energy>
  </scstep>
  <scstep>
   <time name="dav">    5.47    5.49</time>
   <time name="total">    6.47    6.49</time>
   <energy>
    <i name="e_fr_energy">   -682.56554598 </i>
    <i name="e_wo_entrp">   -682.56554598 </i>
    <i name="e_0_energy">   -682.56554598 </i>
   </energy>
  </scstep>
  <scstep>
   <time name="dav">    4.98    4.99</time>
   <time name="total">    5.97    5.99</time>
   <energy>
    <i name="e_fr_energy">   -682.56823196 </i>
    <i name="e_wo_entrp">   -682.56823196 </i>
    <i name="e_0_energy">   -682.56823196 </i>
   </energy>
  </scstep>
  <scstep>
   <time name="dav">    5.38    5.39</time>
   <time name="total">    6.36    6.38</time>
   <energy>
    <i name="e_fr_energy">   -682.56824523 </i>
    <i name="e_wo_entrp">   -682.56824523 </i>
    <i name="e_0_energy">   -682.56824523 </i>
   </energy>
  </scstep>
  <scstep>
   <time name="dav">    5.33    5.34</time>
   <time name="total">    6.31    6.33</time>
   <energy>
    <i name="e_fr_energy">   -682.56824991 </i>
    <i name="e_wo_entrp">   -682.56824991 </i>
    <i name="e_0_energy">   -682.56824991 </i>
   </energy>
  </scstep>
  <scstep>
   <time name="dav">    5.37    5.38</time>
   <time name="total">    6.36    6.37</time>
   <energy>
    <i name="e_fr_energy">   -682.56824587 </i>
    <i name="e_wo_entrp">   -682.56824587 </i>
    <i name="e_0_energy">   -682.56824587 </i>
   </energy>
  </scstep>
  <scstep>
   <time name="dav">    5.21    5.22</time>
   <time name="total">    6.22    6.24</time>
   <energy>
    <i name="e_fr_energy">   -682.56824660 </i>
    <i name="e_wo_entrp">   -682.56824660 </i>
    <i name="e_0_energy">   -682.56824660 </i>
   </energy>
  </scstep>
  <scstep>
   <time name="dav">    3.91    3.92</time>
   <time name="total">    4.90    4.91</time>
   <energy>
    <i name="e_fr_energy">   -682.56824560 </i>
    <i name="e_wo_entrp">   -682.56824560 </i>
    <i name="e_0_energy">   -682.56824560 </i>
   </energy>
  </scstep>
  <scstep>
   <time name="dav">    3.34    3.35</time>
   <time name="total">    4.34    4.36</time>
   <energy>
    <i name="e_fr_energy">   -682.56824565 </i>
    <i name="e_wo_entrp">   -682.56824565 </i>
    <i name="e_0_energy">   -682.56824565 </i>
   </energy>
  </scstep>
  <scstep>
   <time name="dav">    3.34    3.35</time>
   <time name="total">    4.33    4.34</time>
   <energy>
    <i name="e_fr_energy">   -682.56824568 </i>
    <i name="e_wo_entrp">   -682.56824568 </i>
    <i name="e_0_energy">   -682.56824568 </i>
   </energy>
  </scstep>
  <scstep>
   <time name="dav">    3.21    3.22</time>
   <time name="total">    4.20    4.21</time>
   <energy>
    <i name="e_fr_energy">   -682.56824566 </i>
    <i name="e_wo_entrp">   -682.56824566 </i>
    <i name="e_0_energy">   -682.56824566 </i>
   </energy>
  </scstep>
  <scstep>
   <time name="dav">    3.22    3.23</time>
   <time name="total">    3.71    3.72</time>
   <energy>
    <i name="alphaZ">    210.78028765 </i>
    <i name="ewald"> -14524.86558056 </i>
    <i name="hartreedc">   -991.73294066 </i>
    <i name="XCdc">  -1153.28598507 </i>
    <i name="pawpsdc">   4723.40773713 </i>
    <i name="pawaedc">  -2485.14586441 </i>
    <i name="eentropy">     -0.00000000 </i>
    <i name="bandstr">    345.79324027 </i>
    <i name="atom">  13192.48085998 </i>
    <i name="e_fr_energy">   -682.56824566 </i>
    <i name="e_wo_entrp">   -682.56824566 </i>
    <i name="e_0_energy">   -682.56824566 </i>
   </energy>
  </scstep>
  <structure>
   <crystal>
    <varray name="basis" >
     <v>       0.00000000      10.93716070      10.93716070 </v>
     <v>      10.93716070       0.00000000      10.93716070 </v>
     <v>      10.93716070      10.93716070       0.00000000 </v>
    </varray>
    <i name="volume">   2616.63878844 </i>
    <varray name="rec_basis" >
     <v>      -0.04571570       0.04571570       0.04571570 </v>
     <v>       0.04571570      -0.04571570       0.04571570 </v>
     <v>       0.04571570       0.04571570      -0.04571570 </v>
    </varray>
   </crystal>
   <varray name="positions" >
    <v>       0.06204284       0.06295716       0.06295716 </v>
    <v>       0.31295716       0.06204284       0.06204284 </v>
    <v>       0.56250000       0.06250000       0.06250000 </v>
    <v>       0.81250000       0.06250000       0.06250000 </v>
    <v>       0.06250000       0.31250000       0.06250000 </v>
    <v>       0.31250000       0.31250000       0.06250000 </v>
    <v>       0.56250000       0.31250000       0.06250000 </v>
    <v>       0.81250000       0.31250000       0.06250000 </v>
    <v>       0.06250000       0.56250000       0.06250000 </v>
    <v>       0.31250000       0.56250000       0.06250000 </v>
    <v>       0.56250000       0.56250000       0.06250000 </v>
    <v>       0.81250000       0.56250000       0.06250000 </v>
    <v>       0.06250000       0.81250000       0.06250000 </v>
    <v>       0.31250000       0.81250000       0.06250000 </v>
    <v>       0.56250000       0.81250000       0.06250000 </v>
    <v>       0.81250000       0.81250000       0.06250000 </v>
    <v>       0.06250000       0.06250000       0.31250000 </v>
    <v>       0.31250000       0.06250000       0.31250000 </v>
    <v>       0.56250000       0.06250000       0.31250000 </v>
    <v>       0.81250000       0.06250000       0.31250000 </v>
    <v>       0.06250000       0.31250000       0.31250000 </v>
    <v>       0.31250000       0.31250000       0.31250000 </v>
    <v>       0.56250000       0.31250000       0.31250000 </v>
    <v>       0.81250000       0.31250000       0.31250000 </v>
    <v>       0.06250000       0.56250000       0.31250000 </v>
    <v>       0.31250000       0.56250000       0.31250000 </v>
    <v>       0.56250000       0.56250000       0.31250000 </v>
    <v>       0.81250000       0.56250000       0.31250000 </v>
    <v>       0.06250000       0.81250000       0.31250000 </v>
    <v>       0.31250000       0.81250000       0.31250000 </v>
    <v>       0.56250000       0.81250000       0.31250000 </v>
    <v>       0.81250000       0.81250000       0.31250000 </v>
    <v>       0.06250000       0.06250000       0.56250000 </v>
    <v>       0.31250000       0.06250000       0.56250000 </v>
    <v>       0.56250000       0.06250000       0.56250000 </v>
    <v>       0.81250000       0.06250000       0.56250000 </v>
    <v>       0.06250000       0.31250000       0.56250000 </v>
    <v>       0.31250000       0.31250000       0.56250000 </v>
    <v>       0.56250000       0.31250000       0.56250000 </v>
    <v>       0.81250000       0.31250000       0.56250000 </v>
    <v>       0.06250000       0.56250000       0.56250000 </v>
    <v>       0.31250000       0.56250000       0.56250000 </v>
    <v>       0.56250000       0.56250000       0.56250000 </v>
    <v>       0.81250000       0.56250000       0.56250000 </v>
    <v>       0.06250000       0.81250000       0.56250000 </v>
    <v>       0.31250000       0.81250000       0.56250000 </v>
    <v>       0.56250000       0.81250000       0.56250000 </v>
    <v>       0.81250000       0.81250000       0.56250000 </v>
    <v>       0.06250000       0.06250000       0.81250000 </v>
    <v>       0.31250000       0.06250000       0.81250000 </v>
    <v>       0.56250000       0.06250000       0.81250000 </v>
    <v>       0.81250000       0.06250000       0.81250000 </v>
    <v>       0.06250000       0.31250000       0.81250000 </v>
    <v>       0.31250000       0.31250000       0.81250000 </v>
    <v>       0.56250000       0.31250000       0.81250000 </v>
    <v>       0.81250000       0.31250000       0.81250000 </v>
    <v>       0.06250000       0.56250000       0.81250000 </v>
    <v>       0.31250000       0.56250000       0.81250000 </v>
    <v>       0.56250000       0.56250000       0.81250000 </v>
    <v>       0.81250000       0.56250000       0.81250000 </v>
    <v>       0.06250000       0.81250000       0.81250000 </v>
    <v>       0.31250000       0.81250000       0.81250000 </v>
    <v>       0.56250000       0.81250000       0.81250000 </v>
    <v>       0.81250000       0.81250000       0.81250000 </v>
    <v>       0.00000000       0.00000000       0.00000000 </v>
    <v>       0.25000000       0.00000000       0.00000000 </v>
    <v>       0.50000000       0.00000000       0.00000000 </v>
    <v>       0.75000000       0.00000000       0.00000000 </v>
    <v>       0.00000000       0.25000000       0.00000000 </v>
    <v>       0.25000000       0.25000000       0.00000000 </v>
    <v>       0.50000000       0.25000000       0.00000000 </v>
    <v>       0.75000000       0.25000000       0.00000000 </v>
    <v>       0.00000000       0.50000000       0.00000000 </v>
    <v>       0.25000000       0.50000000       0.00000000 </v>
    <v>       0.50000000       0.50000000       0.00000000 </v>
    <v>       0.75000000       0.50000000       0.00000000 </v>
    <v>       0.00000000       0.75000000       0.00000000 </v>
    <v>       0.25000000       0.75000000       0.00000000 </v>
    <v>       0.50000000       0.75000000       0.00000000 </v>
    <v>       0.75000000       0.75000000       0.00000000 </v>
    <v>       0.00000000       0.00000000       0.25000000 </v>
    <v>       0.25000000       0.00000000       0.25000000 </v>
    <v>       0.50000000       0.00000000       0.25000000 </v>
    <v>       0.75000000       0.00000000       0.25000000 </v>
    <v>       0.00000000       0.25000000       0.25000000 </v>
    <v>       0.25000000       0.25000000       0.25000000 </v>
    <v>       0.50000000       0.25000000       0.25000000 </v>
    <v>       0.75000000       0.25000000       0.25000000 </v>
    <v>       0.00000000       0.50000000       0.25000000 </v>
    <v>       0.25000000       0.50000000       0.25000000 </v>
    <v>       0.50000000       0.50000000       0.25000000 </v>
    <v>       0.75000000       0.50000000       0.25000000 </v>
    <v>       0.00000000       0.75000000       0.25000000 </v>
    <v>       0.25000000       0.75000000       0.25000000 </v>
    <v>       0.50000000       0.75000000       0.25000000 </v>
    <v>       0.75000000       0.75000000       0.25000000 </v>
    <v>       0.00000000       0.00000000       0.50000000 </v>
    <v>       0.25000000       0.00000000       0.50000000 </v>
    <v>       0.50000000       0.00000000       0.50000000 </v>
    <v>       0.75000000       0.00000000       0.50000000 </v>
    <v>       0.00000000       0.25000000       0.50000000 </v>
    <v>       0.25000000       0.25000000       0.50000000 </v>
    <v>       0.50000000       0.25000000       0.50000000 </v>
    <v>       0.75000000       0.25000000       0.50000000 </v>
    <v>       0.00000000       0.50000000       0.50000000 </v>
    <v>       0.25000000       0.50000000       0.50000000 </v>
    <v>       0.50000000       0.50000000       0.50000000 </v>
    <v>       0.75000000       0.50000000       0.50000000 </v>
    <v>       0.00000000       0.75000000       0.50000000 </v>
    <v>       0.25000000       0.75000000       0.50000000 </v>
    <v>       0.50000000       0.75000000       0.50000000 </v>
    <v>       0.75000000       0.75000000       0.50000000 </v>
    <v>       0.00000000       0.00000000       0.75000000 </v>
    <v>       0.25000000       0.00000000       0.75000000 </v>
    <v>       0.50000000       0.00000000       0.75000000 </v>
    <v>       0.75000000       0.00000000       0.75000000 </v>
    <v>       0.00000000       0.25000000       0.75000000 </v>
    <v>       0.25000000       0.25000000       0.75000000 </v>
    <v>       0.50000000       0.25000000       0.75000000 </v>
    <v>       0.75000000       0.25000000       0.75000000 </v>
    <v>       0.00000000       0.50000000       0.75000000 </v>
    <v>       0.25000000       0.50000000       0.75000000 </v>
    <v>       0.50000000       0.50000000       0.75000000 </v>
    <v>       0.75000000       0.50000000       0.75000000 </v>
    <v>       0.00000000       0.75000000       0.75000000 </v>
    <v>       0.25000000       0.75000000       0.75000000 </v>
    <v>       0.50000000       0.75000000       0.75000000 </v>
    <v>       0.75000000       0.75000000       0.75000000 </v>
   </varray>
  </structure>
  <varray name="forces" >
   <v>      -0.12539451       0.00096979       0.00096979 </v>
   <v>       0.12538891       0.00094276       0.00094277 </v>
   <v>       0.00325397      -0.00096557      -0.00096557 </v>
   <v>      -0.00323200      -0.00094709      -0.00094711 </v>
   <v>       0.00001233       0.00105447       0.00108485 </v>
   <v>      -0.00146759       0.00068350      -0.00186923 </v>
   <v>       0.00000069       0.00012238       0.00012065 </v>
   <v>       0.00148035      -0.00188365       0.00068689 </v>
   <v>       0.00009455       0.00014742       0.00022063 </v>
   <v>      -0.00009558      -0.00020898      -0.00016188 </v>
   <v>       0.00009535      -0.00016300      -0.00020771 </v>
   <v>      -0.00009647       0.00022152       0.00015168 </v>
   <v>       0.00146636       0.00122248       0.00181000 </v>
   <v>      -0.00001197      -0.00298216      -0.00298264 </v>
   <v>      -0.00148168       0.00182549       0.00123227 </v>
   <v>      -0.00000070      -0.00006204      -0.00006354 </v>
   <v>       0.00001234       0.00108487       0.00105449 </v>
   <v>      -0.00146759      -0.00186926       0.00068350 </v>
   <v>       0.00000070       0.00012065       0.00012238 </v>
   <v>       0.00148037       0.00068690      -0.00188363 </v>
   <v>      -0.00011892       0.00020830       0.00020830 </v>
   <v>       0.00005832      -0.00020835      -0.00020835 </v>
   <v>      -0.00005632      -0.00020830      -0.00020828 </v>
   <v>       0.00012047       0.00020823       0.00020825 </v>
   <v>       0.00001026       0.00025998       0.00014816 </v>
   <v>       0.00000083      -0.00041989      -0.00042145 </v>
   <v>      -0.00000969       0.00014813       0.00025746 </v>
   <v>       0.00000004       0.00001406       0.00001332 </v>
   <v>      -0.00517233      -0.00096429       0.00096373 </v>
   <v>       0.00516670       0.00094875      -0.00094831 </v>
   <v>      -0.00012551      -0.00001199       0.00001217 </v>
   <v>       0.00012541       0.00001243      -0.00001269 </v>
   <v>       0.00009452       0.00022063       0.00014744 </v>
   <v>      -0.00009558      -0.00016185      -0.00020899 </v>
   <v>       0.00009535      -0.00020769      -0.00016299 </v>
   <v>      -0.00009646       0.00015170       0.00022152 </v>
   <v>       0.00001025       0.00014817       0.00025995 </v>
   <v>       0.00000083      -0.00042146      -0.00041989 </v>
   <v>      -0.00000968       0.00025748       0.00014812 </v>
   <v>       0.00000004       0.00001334       0.00001405 </v>
   <v>      -0.00180571       0.00001216       0.00001211 </v>
   <v>       0.00179632       0.00001243       0.00001245 </v>
   <v>      -0.00001336      -0.00001247      -0.00001248 </v>
   <v>       0.00001349      -0.00001221      -0.00001224 </v>
   <v>      -0.00000024       0.00047808       0.00048051 </v>
   <v>      -0.00001050      -0.00020711      -0.00028304 </v>
   <v>      -0.00000027       0.00001105       0.00001070 </v>
   <v>       0.00000936      -0.00028371      -0.00020672 </v>
   <v>       0.00146637       0.00181002       0.00122247 </v>
   <v>      -0.00001197      -0.00298263      -0.00298215 </v>
   <v>      -0.00148169       0.00123227       0.00182545 </v>
   <v>      -0.00000071      -0.00006352      -0.00006205 </v>
   <v>      -0.00517231       0.00096371      -0.00096430 </v>
   <v>       0.00516670      -0.00094831       0.00094875 </v>
   <v>      -0.00012551       0.00001220      -0.00001201 </v>
   <v>       0.00012542      -0.00001270       0.00001243 </v>
   <v>      -0.00000023       0.00048050       0.00047806 </v>
   <v>      -0.00001050      -0.00028309      -0.00020709 </v>
   <v>      -0.00000026       0.00001069       0.00001103 </v>
   <v>       0.00000938      -0.00020672      -0.00028370 </v>
   <v>      -0.00005573       0.00014968       0.00014969 </v>
   <v>       0.00012077      -0.00014969      -0.00014967 </v>
   <v>      -0.00011868      -0.00014959      -0.00014960 </v>
   <v>       0.00005903       0.00014945       0.00014943 </v>
   <v>       0.03050911       0.02042058       0.02042061 </v>
   <v>      -0.00028984      -0.04047019      -0.04047021 </v>
   <v>      -0.03082043       0.02099722       0.02099722 </v>
   <v>      -0.00001742      -0.00094781      -0.00094781 </v>
   <v>       0.03310705      -0.02085846       0.02086780 </v>
   <v>      -0.03281394       0.02028332      -0.02029542 </v>
   <v>       0.00017255      -0.00018585       0.00018300 </v>
   <v>      -0.00017308       0.00018467      -0.00017857 </v>
   <v>       0.00000443       0.00067093       0.00067085 </v>
   <v>      -0.00015134      -0.00031613      -0.00027729 </v>
   <v>       0.00000042      -0.00007839      -0.00007772 </v>
   <v>       0.00015476      -0.00027691      -0.00031505 </v>
   <v>       0.00045648      -0.00085868       0.00058162 </v>
   <v>      -0.00028752       0.00081972      -0.00054049 </v>
   <v>       0.00028287      -0.00053746       0.00081213 </v>
   <v>      -0.00046162       0.00058479      -0.00086145 </v>
   <v>       0.03310705       0.02086782      -0.02085846 </v>
   <v>      -0.03281394      -0.02029543       0.02028331 </v>
   <v>       0.00017254       0.00018298      -0.00018585 </v>
   <v>      -0.00017311      -0.00017859       0.00018470 </v>
   <v>       0.00000094      -0.00068405      -0.00068407 </v>
   <v>      -0.00002156       0.00036179       0.00036178 </v>
   <v>      -0.00000031      -0.00003723      -0.00003724 </v>
   <v>       0.00002218       0.00035963       0.00035963 </v>
   <v>       0.00011938      -0.00013742      -0.00010128 </v>
   <v>      -0.00015417       0.00013869       0.00009948 </v>
   <v>       0.00015391       0.00009818       0.00014063 </v>
   <v>      -0.00012001      -0.00010286      -0.00013523 </v>
   <v>      -0.00009394      -0.00035134      -0.00036230 </v>
   <v>       0.00000097       0.00067746       0.00068772 </v>
   <v>       0.00009609      -0.00036569      -0.00034461 </v>
   <v>      -0.00000005       0.00002916       0.00002978 </v>
   <v>       0.00000444       0.00067086       0.00067094 </v>
   <v>      -0.00015135      -0.00027731      -0.00031614 </v>
   <v>       0.00000040      -0.00007771      -0.00007839 </v>
   <v>       0.00015474      -0.00031507      -0.00027691 </v>
   <v>       0.00011937      -0.00010125      -0.00013742 </v>
   <v>      -0.00015416       0.00009949       0.00013868 </v>
   <v>       0.00015391       0.00014063       0.00009819 </v>
   <v>      -0.00011999      -0.00013521      -0.00010287 </v>
   <v>       0.00002744      -0.00013463      -0.00013466 </v>
   <v>      -0.00000112       0.00031655       0.00031654 </v>
   <v>      -0.00002846      -0.00013393      -0.00013392 </v>
   <v>      -0.00000046      -0.00004784      -0.00004785 </v>
   <v>       0.00220923      -0.00048134       0.00049630 </v>
   <v>      -0.00219242       0.00049543      -0.00048138 </v>
   <v>       0.00005035      -0.00004591       0.00003138 </v>
   <v>      -0.00004939       0.00003156      -0.00004581 </v>
   <v>       0.00045647       0.00058161      -0.00085868 </v>
   <v>      -0.00028753      -0.00054050       0.00081972 </v>
   <v>       0.00028290       0.00081212      -0.00053742 </v>
   <v>      -0.00046163      -0.00086144       0.00058477 </v>
   <v>      -0.00009395      -0.00036229      -0.00035134 </v>
   <v>       0.00000097       0.00068773       0.00067749 </v>
   <v>       0.00009610      -0.00034462      -0.00036569 </v>
   <v>      -0.00000006       0.00002979       0.00002915 </v>
   <v>       0.00220921       0.00049632      -0.00048133 </v>
   <v>      -0.00219240      -0.00048139       0.00049547 </v>
   <v>       0.00005034       0.00003136      -0.00004589 </v>
   <v>      -0.00004942      -0.00004580       0.00003158 </v>
   <v>       0.00000074      -0.00077242      -0.00077243 </v>
   <v>       0.00018693       0.00040884       0.00040889 </v>
   <v>       0.00000050      -0.00004384      -0.00004381 </v>
   <v>      -0.00018569       0.00040744       0.00040743 </v>
  </varray>
  <varray name="stress" >
   <v>       5.73074718       0.00000809       0.00000809 </v>
   <v>       0.00000808       5.73275766      -0.00002817 </v>
   <v>       0.00000808      -0.00002817       5.73275765 </v>
  </varray>
  <energy>
   <i name="e_fr_energy">   -682.56824566 </i>
   <i name="e_wo_entrp">   -682.56824566 </i>
   <i name="e_0_energy">     -0.00000000 </i>
  </energy>
  <time name="totalsc">  120.87  121.26</time>
  <eigenvalues>
   <array>
    <dimension dim="1">band</dimension>
    <dimension dim="2">kpoint</dimension>
    <dimension dim="3">spin</dimension>
    <field>eigene</field>
    <field>occ</field>
    <set>
     <set comment="spin 1">
      <set comment="kpoint 1">
       <r>   -6.1630    1.0000 </r>
       <r>   -5.3786    1.0000 </r>
       <r>   -5.3782    1.0000 </r>
       <r>   -5.3775    1.0000 </r>
       <r>   -5.3775    1.0000 </r>
       <r>   -5.3775    1.0000 </r>
       <r>   -5.3775    1.0000 </r>
       <r>   -5.3767    1.0000 </r>
       <r>   -5.3763    1.0000 </r>
       <r>   -5.1007    1.0000 </r>
       <r>   -5.0999    1.0000 </r>
       <r>   -5.0996    1.0000 </r>
       <r>   -5.0996    1.0000 </r>
       <r>   -5.0994    1.0000 </r>
       <r>   -5.0986    1.0000 </r>
       <r>   -4.1589    1.0000 </r>
       <r>   -4.1586    1.0000 </r>
       <r>   -4.1576    1.0000 </r>
       <r>   -4.1571    1.0000 </r>
       <r>   -4.1571    1.0000 </r>
       <r>   -4.1570    1.0000 </r>
       <r>   -4.1570    1.0000 </r>
       <r>   -4.1569    1.0000 </r>
       <r>   -4.1568    1.0000 </r>
       <r>   -4.1563    1.0000 </r>
       <r>   -4.1554    1.0000 </r>
       <r>   -4.1550    1.0000 </r>
       <r>   -3.8812    1.0000 </r>
       <r>   -3.8812    1.0000 </r>
       <r>   -3.8812    1.0000 </r>
       <r>   -3.8812    1.0000 </r>
       <r>   -3.5010    1.0000 </r>
       <r>   -3.4988    1.0000 </r>
       <r>   -3.4978    1.0000 </r>
       <r>   -3.4967    1.0000 </r>
       <r>   -3.4966    1.0000 </r>
       <r>   -3.4965    1.0000 </r>
       <r>   -3.4964    1.0000 </r>
       <r>   -3.4963    1.0000 </r>
       <r>   -3.4963    1.0000 </r>
       <r>   -3.4963    1.0000 </r>
       <r>   -3.4962    1.0000 </r>
       <r>   -3.4962    1.0000 </r>
       <r>   -3.4962    1.0000 </r>
       <r>   -3.4962    1.0000 </r>
       <r>   -3.4962    1.0000 </r>
       <r>   -3.4961    1.0000 </r>
       <r>   -3.4961    1.0000 </r>
       <r>   -3.4961    1.0000 </r>
       <r>   -3.4960    1.0000 </r>
       <r>   -3.4959    1.0000 </r>
       <r>   -3.4958    1.0000 </r>
       <r>   -3.4947    1.0000 </r>
       <r>   -3.4936    1.0000 </r>
       <r>   -3.4915    1.0000 </r>
       <r>   -2.0927    1.0000 </r>
       <r>   -2.0909    1.0000 </r>
       <r>   -2.0909    1.0000 </r>
       <r>   -2.0909    1.0000 </r>
       <r>   -2.0909    1.0000 </r>
       <r>   -2.0892    1.0000 </r>
       <r>   -1.9378    1.0000 </r>
       <r>   -1.9369    1.0000 </r>
       <r>   -1.9363    1.0000 </r>
       <r>   -1.9356    1.0000 </r>
       <r>   -1.9354    1.0000 </r>
       <r>   -1.9354    1.0000 </r>
       <r>   -1.9354    1.0000 </r>
       <r>   -1.9354    1.0000 </r>
       <r>   -1.9352    1.0000 </r>
       <r>   -1.9345    1.0000 </r>
       <r>   -1.9339    1.0000 </r>
       <r>   -1.9329    1.0000 </r>
       <r>   -1.2184    1.0000 </r>
       <r>   -1.2184    1.0000 </r>
       <r>   -1.2184    1.0000 </r>
       <r>   -1.2184    1.0000 </r>
       <r>   -0.6732    1.0000 </r>
       <r>   -0.6714    1.0000 </r>
       <r>   -0.6710    1.0000 </r>
       <r>   -0.6691    1.0000 </r>
       <r>   -0.6690    1.0000 </r>
       <r>   -0.6689    1.0000 </r>
       <r>   -0.6688    1.0000 </r>
       <r>   -0.6688    1.0000 </r>
       <r>   -0.6687    1.0000 </r>
       <r>   -0.6687    1.0000 </r>
       <r>   -0.6686    1.0000 </r>
       <r>   -0.6686    1.0000 </r>
       <r>   -0.6686    1.0000 </r>
       <r>   -0.6686    1.0000 </r>
       <r>   -0.6685    1.0000 </r>
       <r>   -0.6685    1.0000 </r>
       <r>   -0.6685    1.0000 </r>
       <r>   -0.6684    1.0000 </r>
       <r>   -0.6684    1.0000 </r>
       <r>   -0.6682    1.0000 </r>
       <r>   -0.6681    1.0000 </r>
       <r>   -0.6662    1.0000 </r>
       <r>   -0.6658    1.0000 </r>
       <r>   -0.6640    1.0000 </r>
       <r>    0.2145    1.0000 </r>
       <r>    0.2154    1.0000 </r>
       <r>    0.2154    1.0000 </r>
       <r>    0.2166    1.0000 </r>
       <r>    0.2166    1.0000 </r>
       <r>    0.2167    1.0000 </r>
       <r>    0.2167    1.0000 </r>
       <r>    0.2168    1.0000 </r>
       <r>    0.2169    1.0000 </r>
       <r>    0.2180    1.0000 </r>
       <r>    0.2181    1.0000 </r>
       <r>    0.2190    1.0000 </r>
       <r>    1.7671    1.0000 </r>
       <r>    1.7674    1.0000 </r>
       <r>    1.7678    1.0000 </r>
       <r>    1.7678    1.0000 </r>
       <r>    1.7678    1.0000 </r>
       <r>    1.7678    1.0000 </r>
       <r>    1.7683    1.0000 </r>
       <r>    1.7686    1.0000 </r>
       <r>    1.8846    1.0000 </r>
       <r>    1.8852    1.0000 </r>
       <r>    1.8855    1.0000 </r>
       <r>    1.8857    1.0000 </r>
       <r>    1.8859    1.0000 </r>
       <r>    1.8859    1.0000 </r>
       <r>    1.8861    1.0000 </r>
       <r>    1.8862    1.0000 </r>
       <r>    1.8863    1.0000 </r>
       <r>    1.8865    1.0000 </r>
       <r>    1.8867    1.0000 </r>
       <r>    1.8873    1.0000 </r>
       <r>    1.9777    1.0000 </r>
       <r>    1.9780    1.0000 </r>
       <r>    1.9780    1.0000 </r>
       <r>    1.9783    1.0000 </r>
       <r>    1.9785    1.0000 </r>
       <r>    1.9789    1.0000 </r>
       <r>    1.9789    1.0000 </r>
       <r>    1.9792    1.0000 </r>
       <r>    1.9794    1.0000 </r>
       <r>    1.9797    1.0000 </r>
       <r>    1.9797    1.0000 </r>
       <r>    1.9801    1.0000 </r>
       <r>    2.1399    1.0000 </r>
       <r>    2.1401    1.0000 </r>
       <r>    2.1411    1.0000 </r>
       <r>    2.1411    1.0000 </r>
       <r>    2.1420    1.0000 </r>
       <r>    2.1422    1.0000 </r>
       <r>    2.1846    1.0000 </r>
       <r>    2.1851    1.0000 </r>
       <r>    2.1853    1.0000 </r>
       <r>    2.1860    1.0000 </r>
       <r>    2.1862    1.0000 </r>
       <r>    2.1866    1.0000 </r>
       <r>    2.1866    1.0000 </r>
       <r>    2.1867    1.0000 </r>
       <r>    2.1868    1.0000 </r>
       <r>    2.1868    1.0000 </r>
       <r>    2.1869    1.0000 </r>
       <r>    2.1869    1.0000 </r>
       <r>    2.1869    1.0000 </r>
       <r>    2.1869    1.0000 </r>
       <r>    2.1870    1.0000 </r>
       <r>    2.1870    1.0000 </r>
       <r>    2.1871    1.0000 </r>
       <r>    2.1872    1.0000 </r>
       <r>    2.1873    1.0000 </r>
       <r>    2.1876    1.0000 </r>
       <r>    2.1878    1.0000 </r>
       <r>    2.1886    1.0000 </r>
       <r>    2.1887    1.0000 </r>
       <r>    2.1894    1.0000 </r>
       <r>    2.8562    1.0000 </r>
       <r>    2.8562    1.0000 </r>
       <r>    2.8566    1.0000 </r>
       <r>    2.8566    1.0000 </r>
       <r>    2.8570    1.0000 </r>
       <r>    2.8570    1.0000 </r>
       <r>    3.4898    1.0000 </r>
       <r>    3.4904    1.0000 </r>
       <r>    3.4913    1.0000 </r>
       <r>    3.4918    1.0000 </r>
       <r>    3.4920    1.0000 </r>
       <r>    3.4921    1.0000 </r>
       <r>    3.4923    1.0000 </r>
       <r>    3.4923    1.0000 </r>
       <r>    3.4924    1.0000 </r>
       <r>    3.4925    1.0000 </r>
       <r>    3.4925    1.0000 </r>
       <r>    3.4925    1.0000 </r>
       <r>    3.4925    1.0000 </r>
       <r>    3.4925    1.0000 </r>
       <r>    3.4926    1.0000 </r>
       <r>    3.4927    1.0000 </r>
       <r>    3.4927    1.0000 </r>
       <r>    3.4928    1.0000 </r>
       <r>    3.4929    1.0000 </r>
       <r>    3.4931    1.0000 </r>
       <r>    3.4933    1.0000 </r>
       <r>    3.4938    1.0000 </r>
       <r>    3.4947    1.0000 </r>
       <r>    3.4952    1.0000 </r>
       <r>    3.8025    1.0000 </r>
       <r>    3.8025    1.0000 </r>
       <r>    3.8036    1.0000 </r>
       <r>    3.8036    1.0000 </r>
       <r>    3.8038    1.0000 </r>
       <r>    3.8038    1.0000 </r>
       <r>    3.8038    1.0000 </r>
       <r>    3.8038    1.0000 </r>
       <r>    3.8041    1.0000 </r>
       <r>    3.8041    1.0000 </r>
       <r>    3.8052    1.0000 </r>
       <r>    3.8052    1.0000 </r>
       <r>    4.3512    1.0000 </r>
       <r>    4.3514    1.0000 </r>
       <r>    4.3522    1.0000 </r>
       <r>    4.3525    1.0000 </r>
       <r>    4.3527    1.0000 </r>
       <r>    4.3528    1.0000 </r>
       <r>    4.3528    1.0000 </r>
       <r>    4.3529    1.0000 </r>
       <r>    4.3531    1.0000 </r>
       <r>    4.3535    1.0000 </r>
       <r>    4.3542    1.0000 </r>
       <r>    4.3544    1.0000 </r>
       <r>    4.4768    1.0000 </r>
       <r>    4.4768    1.0000 </r>
       <r>    4.4777    1.0000 </r>
       <r>    4.4777    1.0000 </r>
       <r>    4.4777    1.0000 </r>
       <r>    4.4777    1.0000 </r>
       <r>    4.4786    1.0000 </r>
       <r>    4.4786    1.0000 </r>
       <r>    4.9086    1.0000 </r>
       <r>    4.9101    1.0000 </r>
       <r>    4.9115    1.0000 </r>
       <r>    4.9116    1.0000 </r>
       <r>    4.9117    1.0000 </r>
       <r>    4.9118    1.0000 </r>
       <r>    4.9118    1.0000 </r>
       <r>    4.9118    1.0000 </r>
       <r>    4.9118    1.0000 </r>
       <r>    4.9118    1.0000 </r>
       <r>    4.9118    1.0000 </r>
       <r>    4.9118    1.0000 </r>
       <r>    4.9120    1.0000 </r>
       <r>    4.9120    1.0000 </r>
       <r>    4.9135    1.0000 </r>
       <r>    4.9151    1.0000 </r>
       <r>    5.6604    1.0000 </r>
       <r>    5.6604    1.0000 </r>
       <r>    5.6604    1.0000 </r>
       <r>    6.3946    0.0000 </r>
       <r>    6.3951    0.0000 </r>
       <r>    6.3951    0.0000 </r>
       <r>    6.3951    0.0000 </r>
       <r>    6.3951    0.0000 </r>
       <r>    6.3956    0.0000 </r>
       <r>    6.7952    0.0000 </r>
       <r>    6.7955    0.0000 </r>
       <r>    6.7962    0.0000 </r>
       <r>    6.7963    0.0000 </r>
       <r>    6.7970    0.0000 </r>
       <r>    6.7972    0.0000 </r>
       <r>    7.1208    0.0000 </r>
       <r>    7.1208    0.0000 </r>
       <r>    7.1208    0.0000 </r>
       <r>    7.1209    0.0000 </r>
       <r>    7.1832    0.0000 </r>
       <r>    7.1836    0.0000 </r>
       <r>    7.1838    0.0000 </r>
       <r>    7.1848    0.0000 </r>
       <r>    7.1857    0.0000 </r>
       <r>    7.1858    0.0000 </r>
       <r>    7.1858    0.0000 </r>
       <r>    7.1859    0.0000 </r>
       <r>    7.1859    0.0000 </r>
       <r>    7.1860    0.0000 </r>
       <r>    7.1860    0.0000 </r>
       <r>    7.1860    0.0000 </r>
       <r>    7.1860    0.0000 </r>
       <r>    7.1860    0.0000 </r>
       <r>    7.1860    0.0000 </r>
       <r>    7.1861    0.0000 </r>
       <r>    7.1861    0.0000 </r>
       <r>    7.1862    0.0000 </r>
       <r>    7.1862    0.0000 </r>
       <r>    7.1863    0.0000 </r>
       <r>    7.1872    0.0000 </r>
       <r>    7.1881    0.0000 </r>
       <r>    7.1884    0.0000 </r>
       <r>    7.1887    0.0000 </r>
       <r>    7.6114    0.0000 </r>
       <r>    7.6116    0.0000 </r>
       <r>    7.6122    0.0000 </r>
       <r>    7.6122    0.0000 </r>
       <r>    7.6122    0.0000 </r>
       <r>    7.6122    0.0000 </r>
       <r>    7.6128    0.0000 </r>
       <r>    7.6131    0.0000 </r>
       <r>    8.0816    0.0000 </r>
       <r>    8.0817    0.0000 </r>
       <r>    8.0822    0.0000 </r>
       <r>    8.0823    0.0000 </r>
       <r>    8.0829    0.0000 </r>
       <r>    8.0829    0.0000 </r>
       <r>    8.0829    0.0000 </r>
       <r>    8.0830    0.0000 </r>
       <r>    8.0835    0.0000 </r>
       <r>    8.0837    0.0000 </r>
       <r>    8.0842    0.0000 </r>
       <r>    8.0843    0.0000 </r>
       <r>    8.1993    0.0000 </r>
       <r>    8.1993    0.0000 </r>
       <r>    8.1993    0.0000 </r>
       <r>    8.7788    0.0000 </r>
       <r>    8.7794    0.0000 </r>
       <r>    8.7869    0.0000 </r>
      </set>
     </set>
    </set>
   </array>
  </eigenvalues>
  <separator name="orbital magnetization" >
   <v name="MAGDIPOLOUT">      0.00000000      0.00000000      0.00000000</v>
  </separator>
  <dos>
   <i name="efermi">      5.91991462 </i>
   <total>
    <array>
     <dimension dim="1">gridpoints</dimension>
     <dimension dim="2">spin</dimension>
     <field>energy</field>
     <field>total</field>
     <field>integrated</field>
     <set>
      <set comment="spin 1">
       <r>    -6.9105     0.0000     0.0000 </r>
       <r>    -6.8557     0.0000     0.0000 </r>
       <r>    -6.8009     0.0000     0.0000 </r>
       <r>    -6.7461     0.0000     0.0000 </r>
       <r>    -6.6912     0.0000     0.0000 </r>
       <r>    -6.6364     0.0000     0.0000 </r>
       <r>    -6.5816     0.0000     0.0000 </r>
       <r>    -6.5268     0.0000     0.0000 </r>
       <r>    -6.4720     0.0000     0.0000 </r>
       <r>    -6.4172     0.0000     0.0000 </r>
       <r>    -6.3623     0.0000     0.0000 </r>
       <r>    -6.3075     0.0008     0.0000 </r>
       <r>    -6.2527     0.2031     0.0112 </r>
       <r>    -6.1979     5.7034     0.3238 </r>
       <r>    -6.1431    20.1270     1.4271 </r>
       <r>    -6.0883     9.8219     1.9655 </r>
       <r>    -6.0335     0.6248     1.9998 </r>
       <r>    -5.9786     0.0045     2.0000 </r>
       <r>    -5.9238     0.0000     2.0000 </r>
       <r>    -5.8690     0.0000     2.0000 </r>
       <r>    -5.8142     0.0000     2.0000 </r>
       <r>    -5.7594     0.0000     2.0000 </r>
       <r>    -5.7046     0.0000     2.0000 </r>
       <r>    -5.6497     0.0000     2.0000 </r>
       <r>    -5.5949     0.0000     2.0000 </r>
       <r>    -5.5401     0.0006     2.0000 </r>
       <r>    -5.4853     0.3346     2.0184 </r>
       <r>    -5.4305    19.2142     3.0716 </r>
       <r>    -5.3757   132.3815    10.3283 </r>
       <r>    -5.3208   124.0100    17.1260 </r>
       <r>    -5.2660    15.7068    17.9870 </r>
       <r>    -5.2112     0.4118    18.0096 </r>
       <r>    -5.1564    11.7020    18.6511 </r>
       <r>    -5.1016    92.8021    23.7381 </r>
       <r>    -5.0468    99.4799    29.1912 </r>
       <r>    -4.9919    14.4999    29.9861 </r>
       <r>    -4.9371     0.2537    30.0000 </r>
       <r>    -4.8823     0.0005    30.0000 </r>
       <r>    -4.8275     0.0000    30.0000 </r>
       <r>    -4.7727     0.0000    30.0000 </r>
       <r>    -4.7179     0.0000    30.0000 </r>
       <r>    -4.6630     0.0000    30.0000 </r>
       <r>    -4.6082     0.0000    30.0000 </r>
       <r>    -4.5534     0.0000    30.0000 </r>
       <r>    -4.4986     0.0000    30.0000 </r>
       <r>    -4.4438     0.0000    30.0000 </r>
       <r>    -4.3890     0.0000    30.0000 </r>
       <r>    -4.3341     0.0001    30.0000 </r>
       <r>    -4.2793     0.1183    30.0065 </r>
       <r>    -4.2245    12.1739    30.6738 </r>
       <r>    -4.1697   145.0510    38.6250 </r>
       <r>    -4.1149   229.2120    51.1895 </r>
       <r>    -4.0601    49.9233    53.9261 </r>
       <r>    -4.0052     1.3766    54.0016 </r>
       <r>    -3.9504     3.6278    54.2004 </r>
       <r>    -3.8956    46.1714    56.7314 </r>
       <r>    -3.8408    77.6149    60.9859 </r>
       <r>    -3.7860    17.9814    61.9716 </r>
       <r>    -3.7312     0.5162    61.9999 </r>
       <r>    -3.6764     0.0018    62.0000 </r>
       <r>    -3.6215     0.1748    62.0096 </r>
       <r>    -3.5667    20.1467    63.1140 </r>
       <r>    -3.5119   267.7155    77.7891 </r>
       <r>    -3.4571   469.9451   103.5497 </r>
       <r>    -3.4023   114.1950   109.8095 </r>
       <r>    -3.3475     3.4642   109.9994 </r>
       <r>    -3.2926     0.0115   110.0000 </r>
       <r>    -3.2378     0.0000   110.0000 </r>
       <r>    -3.1830     0.0000   110.0000 </r>
       <r>    -3.1282     0.0000   110.0000 </r>
       <r>    -3.0734     0.0000   110.0000 </r>
       <r>    -3.0186     0.0000   110.0000 </r>
       <r>    -2.9637     0.0000   110.0000 </r>
       <r>    -2.9089     0.0000   110.0000 </r>
       <r>    -2.8541     0.0000   110.0000 </r>
       <r>    -2.7993     0.0000   110.0000 </r>
       <r>    -2.7445     0.0000   110.0000 </r>
       <r>    -2.6897     0.0000   110.0000 </r>
       <r>    -2.6348     0.0000   110.0000 </r>
       <r>    -2.5800     0.0000   110.0000 </r>
       <r>    -2.5252     0.0000   110.0000 </r>
       <r>    -2.4704     0.0000   110.0000 </r>
       <r>    -2.4156     0.0000   110.0000 </r>
       <r>    -2.3608     0.0000   110.0000 </r>
       <r>    -2.3059     0.0000   110.0000 </r>
       <r>    -2.2511     0.0006   110.0000 </r>
       <r>    -2.1963     0.3157   110.0173 </r>
       <r>    -2.1415    16.4190   110.9174 </r>
       <r>    -2.0867   103.2197   116.5755 </r>
       <r>    -2.0319    89.9739   121.5075 </r>
       <r>    -1.9770    61.1600   124.8601 </r>
       <r>    -1.9222   230.2384   137.4809 </r>
       <r>    -1.8674   143.4433   145.3439 </r>
       <r>    -1.8126    11.8555   145.9938 </r>
       <r>    -1.7578     0.1134   146.0000 </r>
       <r>    -1.7030     0.0001   146.0000 </r>
       <r>    -1.6482     0.0000   146.0000 </r>
       <r>    -1.5933     0.0000   146.0000 </r>
       <r>    -1.5385     0.0000   146.0000 </r>
       <r>    -1.4837     0.0000   146.0000 </r>
       <r>    -1.4289     0.0000   146.0000 </r>
       <r>    -1.3741     0.0008   146.0000 </r>
       <r>    -1.3193     0.3159   146.0174 </r>
       <r>    -1.2644    13.7620   146.7717 </r>
       <r>    -1.2096    73.2126   150.7850 </r>
       <r>    -1.1548    53.3948   153.7119 </r>
       <r>    -1.1000     5.1970   153.9968 </r>
       <r>    -1.0452     0.0590   154.0000 </r>
       <r>    -0.9904     0.0001   154.0000 </r>
       <r>    -0.9355     0.0000   154.0000 </r>
       <r>    -0.8807     0.0000   154.0000 </r>
       <r>    -0.8259     0.0039   154.0002 </r>
       <r>    -0.7711     1.6574   154.0911 </r>
       <r>    -0.7163    76.3803   158.2779 </r>
       <r>    -0.6615   430.0265   181.8504 </r>
       <r>    -0.6066   332.5870   200.0816 </r>
       <r>    -0.5518    34.5740   201.9768 </r>
       <r>    -0.4970     0.4233   202.0000 </r>
       <r>    -0.4422     0.0005   202.0000 </r>
       <r>    -0.3874     0.0000   202.0000 </r>
       <r>    -0.3326     0.0000   202.0000 </r>
       <r>    -0.2777     0.0000   202.0000 </r>
       <r>    -0.2229     0.0000   202.0000 </r>
       <r>    -0.1681     0.0000   202.0000 </r>
       <r>    -0.1133     0.0000   202.0000 </r>
       <r>    -0.0585     0.0000   202.0000 </r>
       <r>    -0.0037     0.0000   202.0000 </r>
       <r>     0.0512     0.0006   202.0000 </r>
       <r>     0.1060     0.3806   202.0209 </r>
       <r>     0.1608    24.5179   203.3649 </r>
       <r>     0.2156   188.4147   213.6931 </r>
       <r>     0.2704   196.2410   224.4503 </r>
       <r>     0.3252    27.7984   225.9741 </r>
       <r>     0.3800     0.4724   226.0000 </r>
       <r>     0.4349     0.0009   226.0000 </r>
       <r>     0.4897     0.0000   226.0000 </r>
       <r>     0.5445     0.0000   226.0000 </r>
       <r>     0.5993     0.0000   226.0000 </r>
       <r>     0.6541     0.0000   226.0000 </r>
       <r>     0.7089     0.0000   226.0000 </r>
       <r>     0.7638     0.0000   226.0000 </r>
       <r>     0.8186     0.0000   226.0000 </r>
       <r>     0.8734     0.0000   226.0000 </r>
       <r>     0.9282     0.0000   226.0000 </r>
       <r>     0.9830     0.0000   226.0000 </r>
       <r>     1.0378     0.0000   226.0000 </r>
       <r>     1.0927     0.0000   226.0000 </r>
       <r>     1.1475     0.0000   226.0000 </r>
       <r>     1.2023     0.0000   226.0000 </r>
       <r>     1.2571     0.0000   226.0000 </r>
       <r>     1.3119     0.0000   226.0000 </r>
       <r>     1.3667     0.0000   226.0000 </r>
       <r>     1.4216     0.0000   226.0000 </r>
       <r>     1.4764     0.0000   226.0000 </r>
       <r>     1.5312     0.0000   226.0000 </r>
       <r>     1.5860     0.0000   226.0000 </r>
       <r>     1.6408     0.0478   226.0026 </r>
       <r>     1.6956     5.9604   226.3294 </r>
       <r>     1.7505    84.9515   230.9861 </r>
       <r>     1.8053   163.5597   239.9518 </r>
       <r>     1.8601   137.7282   247.5015 </r>
       <r>     1.9149   262.3198   261.8809 </r>
       <r>     1.9697   245.4036   275.3330 </r>
       <r>     2.0245   224.6040   287.6450 </r>
       <r>     2.0794    51.8593   290.4877 </r>
       <r>     2.1342   143.0446   298.3289 </r>
       <r>     2.1890   505.9342   326.0623 </r>
       <r>     2.2438   389.0812   347.3902 </r>
       <r>     2.2986    46.9123   349.9618 </r>
       <r>     2.3534     0.6958   349.9999 </r>
       <r>     2.4082     0.0011   350.0000 </r>
       <r>     2.4631     0.0000   350.0000 </r>
       <r>     2.5179     0.0000   350.0000 </r>
       <r>     2.5727     0.0000   350.0000 </r>
       <r>     2.6275     0.0000   350.0000 </r>
       <r>     2.6823     0.0001   350.0000 </r>
       <r>     2.7371     0.0796   350.0044 </r>
       <r>     2.7920     7.3078   350.4050 </r>
       <r>     2.8468    78.0988   354.6860 </r>
       <r>     2.9016   111.1807   360.7805 </r>
       <r>     2.9564    21.7251   361.9714 </r>
       <r>     3.0112     0.5198   361.9999 </r>
       <r>     3.0660     0.0013   362.0000 </r>
       <r>     3.1209     0.0000   362.0000 </r>
       <r>     3.1757     0.0000   362.0000 </r>
       <r>     3.2305     0.0000   362.0000 </r>
       <r>     3.2853     0.0000   362.0000 </r>
       <r>     3.3401     0.0072   362.0004 </r>
       <r>     3.3949     2.5349   362.1394 </r>
       <r>     3.4498    96.7237   367.4414 </r>
       <r>     3.5046   455.3642   392.4027 </r>
       <r>     3.5594   295.3283   408.5915 </r>
       <r>     3.6142    25.4402   409.9861 </r>
       <r>     3.6690     0.2844   410.0016 </r>
       <r>     3.7238     5.1570   410.2843 </r>
       <r>     3.7787    99.1173   415.7176 </r>
       <r>     3.8335   245.5193   429.1760 </r>
       <r>     3.8883    84.2957   433.7968 </r>
       <r>     3.9431     3.6894   433.9990 </r>
       <r>     3.9979     0.0180   434.0000 </r>
       <r>     4.0527     0.0000   434.0000 </r>
       <r>     4.1076     0.0000   434.0000 </r>
       <r>     4.1624     0.0000   434.0000 </r>
       <r>     4.2172     0.0275   434.0015 </r>
       <r>     4.2720     4.8567   434.2677 </r>
       <r>     4.3268    96.3162   439.5474 </r>
       <r>     4.3816   246.6989   453.0705 </r>
       <r>     4.4365   121.4942   459.7304 </r>
       <r>     4.4913   157.9494   468.3886 </r>
       <r>     4.5461    94.6123   473.5749 </r>
       <r>     4.6009     7.6834   473.9960 </r>
       <r>     4.6557     0.0720   474.0000 </r>
       <r>     4.7105     0.0001   474.0000 </r>
       <r>     4.7653     0.0102   474.0006 </r>
       <r>     4.8202     2.7939   474.1537 </r>
       <r>     4.8750    84.2403   478.7714 </r>
       <r>     4.9298   318.4818   496.2294 </r>
       <r>     4.9846   166.7013   505.3674 </r>
       <r>     5.0394    11.4510   505.9951 </r>
       <r>     5.0942     0.0900   506.0000 </r>
       <r>     5.1491     0.0001   506.0000 </r>
       <r>     5.2039     0.0000   506.0000 </r>
       <r>     5.2587     0.0000   506.0000 </r>
       <r>     5.3135     0.0000   506.0000 </r>
       <r>     5.3683     0.0000   506.0000 </r>
       <r>     5.4231     0.0000   506.0000 </r>
       <r>     5.4780     0.0000   506.0000 </r>
       <r>     5.5328     0.0167   506.0009 </r>
       <r>     5.5876     2.1382   506.1181 </r>
       <r>     5.6424    31.2397   507.8306 </r>
       <r>     5.6972    59.7505   511.1059 </r>
       <r>     5.7520    15.7879   511.9713 </r>
       <r>     5.8069     0.5217   511.9999 </r>
       <r>     5.8617     0.0019   512.0000 </r>
       <r>     5.9165     0.0000   512.0000 </r>
       <r>     5.9713     0.0000   512.0000 </r>
       <r>     6.0261     0.0000   512.0000 </r>
       <r>     6.0809     0.0000   512.0000 </r>
       <r>     6.1358     0.0000   512.0000 </r>
       <r>     6.1906     0.0000   512.0000 </r>
       <r>     6.2454     0.0025   512.0001 </r>
       <r>     6.3002     0.7920   512.0436 </r>
       <r>     6.3550    27.2977   513.5399 </r>
       <r>     6.4098   116.6774   519.9357 </r>
       <r>     6.4647    68.7530   523.7045 </r>
       <r>     6.5195     5.3429   523.9974 </r>
       <r>     6.5743     0.0478   524.0000 </r>
       <r>     6.6291     0.0003   524.0000 </r>
       <r>     6.6839     0.1628   524.0089 </r>
       <r>     6.7387    11.1998   524.6229 </r>
       <r>     6.7935    91.4170   529.6340 </r>
       <r>     6.8484   100.7450   535.1565 </r>
       <r>     6.9032    15.1151   535.9850 </r>
       <r>     6.9580     0.2731   536.0000 </r>
       <r>     7.0128     0.1646   536.0090 </r>
       <r>     7.0676     9.8486   536.5489 </r>
       <r>     7.1224    97.3135   541.8832 </r>
       <r>     7.1773   382.9961   562.8776 </r>
       <r>     7.2321   446.7688   587.3678 </r>
       <r>     7.2869    82.6013   591.8957 </r>
       <r>     7.3417     1.8978   591.9997 </r>
       <r>     7.3965     0.0047   592.0000 </r>
       <r>     7.4513     0.0008   592.0000 </r>
       <r>     7.5062     0.3934   592.0216 </r>
       <r>     7.5610    21.0846   593.1774 </r>
       <r>     7.6158   136.1676   600.6416 </r>
       <r>     7.6706   119.8264   607.2100 </r>
       <r>     7.7254    14.2118   607.9891 </r>
       <r>     7.7802     0.1994   608.0000 </r>
       <r>     7.8351     0.0003   608.0000 </r>
       <r>     7.8899     0.0000   608.0000 </r>
       <r>     7.9447     0.0203   608.0011 </r>
       <r>     7.9995     3.9907   608.2199 </r>
       <r>     8.0543    87.6035   613.0220 </r>
       <r>     8.1091   246.3775   626.5274 </r>
       <r>     8.1640   112.3706   632.6872 </r>
       <r>     8.2188    65.0112   636.2509 </r>
       <r>     8.2736    29.9544   637.8928 </r>
       <r>     8.3284     1.9407   637.9992 </r>
       <r>     8.3832     0.0143   638.0000 </r>
       <r>     8.4380     0.0000   638.0000 </r>
       <r>     8.4929     0.0000   638.0000 </r>
       <r>     8.5477     0.0000   638.0000 </r>
       <r>     8.6025     0.0000   638.0000 </r>
       <r>     8.6573     0.0253   638.0014 </r>
       <r>     8.7121     2.7244   638.1507 </r>
       <r>     8.7669    34.3551   640.0339 </r>
       <r>     8.8217    58.1319   643.2205 </r>
       <r>     8.8766    13.8027   643.9771 </r>
       <r>     8.9314     0.4158   643.9999 </r>
       <r>     8.9862     0.0014   644.0000 </r>
       <r>     9.0410     0.0000   644.0000 </r>
       <r>     9.0958     0.0000   644.0000 </r>
       <r>     9.1506     0.0000   644.0000 </r>
       <r>     9.2055     0.0000   644.0000 </r>
       <r>     9.2603     0.0000   644.0000 </r>
       <r>     9.3151     0.0000   644.0000 </r>
       <r>     9.3699     0.0000   644.0000 </r>
       <r>     9.4247     0.0000   644.0000 </r>
       <r>     9.4795     0.0000   644.0000 </r>
       <r>     9.5344     0.0000   644.0000 </r>
      </set>
     </set>
    </array>
   </total>
  </dos>
 </calculation>
 <structure name="finalpos" >
  <crystal>
   <varray name="basis" >
    <v>       0.00000000      10.93716070      10.93716070 </v>
    <v>      10.93716070       0.00000000      10.93716070 </v>
    <v>      10.93716070      10.93716070       0.00000000 </v>
   </varray>
   <i name="volume">   2616.63878844 </i>
   <varray name="rec_basis" >
    <v>      -0.04571570       0.04571570       0.04571570 </v>
    <v>       0.04571570      -0.04571570       0.04571570 </v>
    <v>       0.04571570       0.04571570      -0.04571570 </v>
   </varray>
  </crystal>
  <varray name="positions" >
   <v>       0.06204284       0.06295716       0.06295716 </v>
   <v>       0.31295716       0.06204284       0.06204284 </v>
   <v>       0.56250000       0.06250000       0.06250000 </v>
   <v>       0.81250000       0.06250000       0.06250000 </v>
   <v>       0.06250000       0.31250000       0.06250000 </v>
   <v>       0.31250000       0.31250000       0.06250000 </v>
   <v>       0.56250000       0.31250000       0.06250000 </v>
   <v>       0.81250000       0.31250000       0.06250000 </v>
   <v>       0.06250000       0.56250000       0.06250000 </v>
   <v>       0.31250000       0.56250000       0.06250000 </v>
   <v>       0.56250000       0.56250000       0.06250000 </v>
   <v>       0.81250000       0.56250000       0.06250000 </v>
   <v>       0.06250000       0.81250000       0.06250000 </v>
   <v>       0.31250000       0.81250000       0.06250000 </v>
   <v>       0.56250000       0.81250000       0.06250000 </v>
   <v>       0.81250000       0.81250000       0.06250000 </v>
   <v>       0.06250000       0.06250000       0.31250000 </v>
   <v>       0.31250000       0.06250000       0.31250000 </v>
   <v>       0.56250000       0.06250000       0.31250000 </v>
   <v>       0.81250000       0.06250000       0.31250000 </v>
   <v>       0.06250000       0.31250000       0.31250000 </v>
   <v>       0.31250000       0.31250000       0.31250000 </v>
   <v>       0.56250000       0.31250000       0.31250000 </v>
   <v>       0.81250000       0.31250000       0.31250000 </v>
   <v>       0.06250000       0.56250000       0.31250000 </v>
   <v>       0.31250000       0.56250000       0.31250000 </v>
   <v>       0.56250000       0.56250000       0.31250000 </v>
   <v>       0.81250000       0.56250000       0.31250000 </v>
   <v>       0.06250000       0.81250000       0.31250000 </v>
   <v>       0.31250000       0.81250000       0.31250000 </v>
   <v>       0.56250000       0.81250000       0.31250000 </v>
   <v>       0.81250000       0.81250000       0.31250000 </v>
   <v>       0.06250000       0.06250000       0.56250000 </v>
   <v>       0.31250000       0.06250000       0.56250000 </v>
   <v>       0.56250000       0.06250000       0.56250000 </v>
   <v>       0.81250000       0.06250000       0.56250000 </v>
   <v>       0.06250000       0.31250000       0.56250000 </v>
   <v>       0.31250000       0.31250000       0.56250000 </v>
   <v>       0.56250000       0.31250000       0.56250000 </v>
   <v>       0.81250000       0.31250000       0.56250000 </v>
   <v>       0.06250000       0.56250000       0.56250000 </v>
   <v>       0.31250000       0.56250000       0.56250000 </v>
   <v>       0.56250000       0.56250000       0.56250000 </v>
   <v>       0.81250000       0.56250000       0.56250000 </v>
   <v>       0.06250000       0.81250000       0.56250000 </v>
   <v>       0.31250000       0.81250000       0.56250000 </v>
   <v>       0.56250000       0.81250000       0.56250000 </v>
   <v>       0.81250000       0.81250000       0.56250000 </v>
   <v>       0.06250000       0.06250000       0.81250000 </v>
   <v>       0.31250000       0.06250000       0.81250000 </v>
   <v>       0.56250000       0.06250000       0.81250000 </v>
   <v>       0.81250000       0.06250000       0.81250000 </v>
   <v>       0.06250000       0.31250000       0.81250000 </v>
   <v>       0.31250000       0.31250000       0.81250000 </v>
   <v>       0.56250000       0.31250000       0.81250000 </v>
   <v>       0.81250000       0.31250000       0.81250000 </v>
   <v>       0.06250000       0.56250000       0.81250000 </v>
   <v>       0.31250000       0.56250000       0.81250000 </v>
   <v>       0.56250000       0.56250000       0.81250000 </v>
   <v>       0.81250000       0.56250000       0.81250000 </v>
   <v>       0.06250000       0.81250000       0.81250000 </v>
   <v>       0.31250000       0.81250000       0.81250000 </v>
   <v>       0.56250000       0.81250000       0.81250000 </v>
   <v>       0.81250000       0.81250000       0.81250000 </v>
   <v>       0.00000000       0.00000000       0.00000000 </v>
   <v>       0.25000000       0.00000000       0.00000000 </v>
   <v>       0.50000000       0.00000000       0.00000000 </v>
   <v>       0.75000000       0.00000000       0.00000000 </v>
   <v>       0.00000000       0.25000000       0.00000000 </v>
   <v>       0.25000000       0.25000000       0.00000000 </v>
   <v>       0.50000000       0.25000000       0.00000000 </v>
   <v>       0.75000000       0.25000000       0.00000000 </v>
   <v>       0.00000000       0.50000000       0.00000000 </v>
   <v>       0.25000000       0.50000000       0.00000000 </v>
   <v>       0.50000000       0.50000000       0.00000000 </v>
   <v>       0.75000000       0.50000000       0.00000000 </v>
   <v>       0.00000000       0.75000000       0.00000000 </v>
   <v>       0.25000000       0.75000000       0.00000000 </v>
   <v>       0.50000000       0.75000000       0.00000000 </v>
   <v>       0.75000000       0.75000000       0.00000000 </v>
   <v>       0.00000000       0.00000000       0.25000000 </v>
   <v>       0.25000000       0.00000000       0.25000000 </v>
   <v>       0.50000000       0.00000000       0.25000000 </v>
   <v>       0.75000000       0.00000000       0.25000000 </v>
   <v>       0.00000000       0.25000000       0.25000000 </v>
   <v>       0.25000000       0.25000000       0.25000000 </v>
   <v>       0.50000000       0.25000000       0.25000000 </v>
   <v>       0.75000000       0.25000000       0.25000000 </v>
   <v>       0.00000000       0.50000000       0.25000000 </v>
   <v>       0.25000000       0.50000000       0.25000000 </v>
   <v>       0.50000000       0.50000000       0.25000000 </v>
   <v>       0.75000000       0.50000000       0.25000000 </v>
   <v>       0.00000000       0.75000000       0.25000000 </v>
   <v>       0.25000000       0.75000000       0.25000000 </v>
   <v>       0.50000000       0.75000000       0.25000000 </v>
   <v>       0.75000000       0.75000000       0.25000000 </v>
   <v>       0.00000000       0.00000000       0.50000000 </v>
   <v>       0.25000000       0.00000000       0.50000000 </v>
   <v>       0.50000000       0.00000000       0.50000000 </v>
   <v>       0.75000000       0.00000000       0.50000000 </v>
   <v>       0.00000000       0.25000000       0.50000000 </v>
   <v>       0.25000000       0.25000000       0.50000000 </v>
   <v>       0.50000000       0.25000000       0.50000000 </v>
   <v>       0.75000000       0.25000000       0.50000000 </v>
   <v>       0.00000000       0.50000000       0.50000000 </v>
   <v>       0.25000000       0.50000000       0.50000000 </v>
   <v>       0.50000000       0.50000000       0.50000000 </v>
   <v>       0.75000000       0.50000000       0.50000000 </v>
   <v>       0.00000000       0.75000000       0.50000000 </v>
   <v>       0.25000000       0.75000000       0.50000000 </v>
   <v>       0.50000000       0.75000000       0.50000000 </v>
   <v>       0.75000000       0.75000000       0.50000000 </v>
   <v>       0.00000000       0.00000000       0.75000000 </v>
   <v>       0.25000000       0.00000000       0.75000000 </v>
   <v>       0.50000000       0.00000000       0.75000000 </v>
   <v>       0.75000000       0.00000000       0.75000000 </v>
   <v>       0.00000000       0.25000000       0.75000000 </v>
   <v>       0.25000000       0.25000000       0.75000000 </v>
   <v>       0.50000000       0.25000000       0.75000000 </v>
   <v>       0.75000000       0.25000000       0.75000000 </v>
   <v>       0.00000000       0.50000000       0.75000000 </v>
   <v>       0.25000000       0.50000000       0.75000000 </v>
   <v>       0.50000000       0.50000000       0.75000000 </v>
   <v>       0.75000000       0.50000000       0.75000000 </v>
   <v>       0.00000000       0.75000000       0.75000000 </v>
   <v>       0.25000000       0.75000000       0.75000000 </v>
   <v>       0.50000000       0.75000000       0.75000000 </v>
   <v>       0.75000000       0.75000000       0.75000000 </v>
  </varray>
 </structure>
</modeling>
