Na4 S4                                  
   1.00000000000000     
     4.5109664307579846   -0.0000000136991840    0.0000000000000000
    -2.2554829020918694    3.9066132368260913    0.0000000000000000
     0.0000000000000000    0.0000000000000000   10.2922374567607697
   Na   S 
     4     4
Direct
  0.0000000000000000  0.0000000000000000  0.0000000000000000
  0.0000000000000000  0.0000000000000000  0.5000000000000000
  0.3333329860000021  0.6666669849999991  0.2500000000000000
  0.6666669849999991  0.3333329860000021  0.7500000000000000
  0.3333329860000021  0.6666669849999991  0.6446243046385476
  0.6666669849999991  0.3333329860000021  0.1446243346385430
  0.6666669849999991  0.3333329860000021  0.3553756653614570
  0.3333329860000021  0.6666669849999991  0.8553756953614524
 
  0.00000000E+00  0.00000000E+00  0.00000000E+00
  0.00000000E+00  0.00000000E+00  0.00000000E+00
  0.00000000E+00  0.00000000E+00  0.00000000E+00
  0.00000000E+00  0.00000000E+00  0.00000000E+00
  0.00000000E+00  0.00000000E+00  0.00000000E+00
  0.00000000E+00  0.00000000E+00  0.00000000E+00
  0.00000000E+00  0.00000000E+00  0.00000000E+00
  0.00000000E+00  0.00000000E+00  0.00000000E+00
