 vasp.5.4.4.18Apr17-6-g9f103f2a35 (build Aug 16 2020 16:33:06) complex          
  
 executed on             LinuxIFC date 2026.08.15  14:29:09
 running on   40 total cores
 distrk:  each k-point on   40 cores,    1 groups
 distr:  one band on NCORES_PER_BAND=  20 cores,    2 groups


--------------------------------------------------------------------------------------------------------


 INCAR:
 POTCAR:   PAW_PBE Si 05Jan2001                   

 ----------------------------------------------------------------------------- 
|                                                                             |
|           W    W    AA    RRRRR   N    N  II  N    N   GGGG   !!!           |
|           W    W   A  A   R    R  NN   N  II  NN   N  G    G  !!!           |
|           W    W  A    A  R    R  N N  N  II  N N  N  G       !!!           |
|           W WW W  AAAAAA  RRRRR   N  N N  II  N  N N  G  GGG   !            |
|           WW  WW  A    A  R   R   N   NN  II  N   NN  G    G                |
|           W    W  A    A  R    R  N    N  II  N    N   GGGG   !!!           |
|                                                                             |
|      For optimal performance we recommend to set                            |
|        NCORE= 4 - approx SQRT( number of cores)                             |
|      NCORE specifies how many cores store one orbital (NPAR=cpu/NCORE).     |
|      This setting can  greatly improve the performance of VASP for DFT.     |
|      The default,   NCORE=1            might be grossly inefficient         |
|      on modern multi-core architectures or massively parallel machines.     |
|      Do your own testing !!!!                                               |
|      Unfortunately you need to use the default for GW and RPA calculations. |
|      (for HF NCORE is supported but not extensively tested yet)             |
|                                                                             |
 ----------------------------------------------------------------------------- 

 POTCAR:   PAW_PBE Si 05Jan2001                   
   VRHFIN =Si: s2p2                                                             
   LEXCH  = PE                                                                  
   EATOM  =   103.0669 eV,    7.5752 Ry                                         
                                                                                
   TITEL  = PAW_PBE Si 05Jan2001                                                
   LULTRA =        F    use ultrasoft PP ?                                      
   IUNSCR =        1    unscreen: 0-lin 1-nonlin 2-no                           
   RPACOR =    1.500    partial core radius                                     
   POMASS =   28.085; ZVAL   =    4.000    mass and valenz                      
   RCORE  =    1.900    outmost cutoff radius                                   
   RWIGS  =    2.480; RWIGS  =    1.312    wigner-seitz radius (au A)           
   ENMAX  =  245.345; ENMIN  =  184.009 eV                                      
   ICORE  =        2    local potential                                         
   LCOR   =        T    correct aug charges                                     
   LPAW   =        T    paw PP                                                  
   EAUG   =  322.069                                                            
   DEXC   =    -.007                                                            
   RMAX   =    2.944    core radius for proj-oper                               
   RAUG   =    1.300    factor for augmentation sphere                          
   RDEP   =    1.993    radius for radial grids                                 
   QCUT   =   -4.246; QGAM   =    8.493    optimization parameters              
                                                                                
   Description                                                                  
     l     E      TYP  RCUT    TYP  RCUT                                        
     0   .000     23  1.900                                                     
     0   .000     23  1.900                                                     
     1   .000     23  1.900                                                     
     1   .000     23  1.900                                                     
     2   .000      7  1.900                                                     
  local pseudopotential read in
  partial core-charges read in
  atomic valenz-charges read in
  non local Contribution for L=           0  read in
    real space projection operators read in
  non local Contribution for L=           0  read in
    real space projection operators read in
  non local Contribution for L=           1  read in
    real space projection operators read in
  non local Contribution for L=           1  read in
    real space projection operators read in
    PAW grid and wavefunctions read in
 
   number of l-projection  operators is LMAX  =           4
   number of lm-projection operators is LMMAX =           8
 

 ----------------------------------------------------------------------------- 
|                                                                             |
|  ADVICE TO THIS USER RUNNING 'VASP/VAMP'   (HEAR YOUR MASTER'S VOICE ...):  |
|                                                                             |
|      You have a (more or less) 'large supercell' and for larger cells       |
|      it might be more efficient to use real space projection operators      |
|      So try LREAL= Auto  in the INCAR   file.                               |
|      Mind: If you want to do a very accurate calculations keep the          |
|      reciprocal projection scheme          (i.e. LREAL=.FALSE.)             |
|                                                                             |
 ----------------------------------------------------------------------------- 

 PAW_PBE Si 05Jan2001                   :
 energy of atom  1       EATOM= -103.0669
 kinetic energy error for atom=    0.0006 (will be added to EATOM!!)
 
 
 POSCAR: Si                                      
  positions in direct lattice
  No initial velocities read in
 exchange correlation table for  LEXCH =        8
   RHO(1)=    0.500       N(1)  =     2000
   RHO(2)=  100.500       N(2)  =     4000
 


--------------------------------------------------------------------------------------------------------


 ion  position               nearest neighbor table
   1  0.062  0.063  0.063-  10 2.36  34 2.36   4 2.37   2 2.38
   2  1.000  0.000  1.000-   7 2.36  97 2.36  25 2.37   1 2.38
   3  0.312  0.062  0.062-   4 2.37   6 2.37  12 2.37  36 2.37
   4  0.250  0.000  0.000-   3 2.37  27 2.37  99 2.37   1 2.37
   5  0.562  0.062  0.062-   6 2.37   8 2.37  14 2.37  38 2.37
   6  0.500  0.000  0.000-   3 2.37   5 2.37  29 2.37 101 2.37
   7  0.812  0.062  0.062-   2 2.36   8 2.37  16 2.37  40 2.37
   8  0.750  0.000  0.000-   5 2.37   7 2.37  31 2.37 103 2.37
   9  0.062  0.312  0.062-  10 2.37  12 2.37  18 2.37  42 2.37
  10  0.000  0.250  0.000-   1 2.36   9 2.37  15 2.37 105 2.37
  11  0.312  0.312  0.062-  12 2.37  14 2.37  20 2.37  44 2.37
  12  0.250  0.250  0.000-   3 2.37   9 2.37  11 2.37 107 2.37
  13  0.562  0.312  0.062-  14 2.37  16 2.37  22 2.37  46 2.37
  14  0.500  0.250  0.000-   5 2.37  11 2.37  13 2.37 109 2.37
  15  0.812  0.312  0.062-  10 2.37  16 2.37  24 2.37  48 2.37
  16  0.750  0.250  0.000-   7 2.37  13 2.37  15 2.37 111 2.37
  17  0.062  0.562  0.062-  18 2.37  20 2.37  26 2.37  50 2.37
  18  0.000  0.500  0.000-   9 2.37  17 2.37  23 2.37 113 2.37
  19  0.312  0.562  0.062-  20 2.37  22 2.37  28 2.37  52 2.37
  20  0.250  0.500  0.000-  11 2.37  17 2.37  19 2.37 115 2.37
  21  0.562  0.562  0.062-  22 2.37  24 2.37  30 2.37  54 2.37
  22  0.500  0.500  0.000-  13 2.37  19 2.37  21 2.37 117 2.37
  23  0.812  0.562  0.062-  18 2.37  24 2.37  32 2.37  56 2.37
  24  0.750  0.500  0.000-  15 2.37  21 2.37  23 2.37 119 2.37
  25  0.062  0.812  0.062-  26 2.37  28 2.37  58 2.37   2 2.37
  26  0.000  0.750  0.000-  17 2.37  25 2.37  31 2.37 121 2.37
  27  0.312  0.812  0.062-   4 2.37  28 2.37  30 2.37  60 2.37
  28  0.250  0.750  0.000-  19 2.37  25 2.37  27 2.37 123 2.37
  29  0.562  0.812  0.062-   6 2.37  30 2.37  32 2.37  62 2.37
  30  0.500  0.750  0.000-  21 2.37  27 2.37  29 2.37 125 2.37
  31  0.812  0.812  0.062-   8 2.37  26 2.37  32 2.37  64 2.37
  32  0.750  0.750  0.000-  23 2.37  29 2.37  31 2.37 127 2.37
  33  0.062  0.062  0.312-  34 2.37  36 2.37  42 2.37  66 2.37
  34  0.000  0.000  0.250-   1 2.36  33 2.37  39 2.37  57 2.37
  35  0.312  0.062  0.312-  36 2.37  38 2.37  44 2.37  68 2.37
  36  0.250  0.000  0.250-   3 2.37  33 2.37  35 2.37  59 2.37
  37  0.562  0.062  0.312-  38 2.37  40 2.37  46 2.37  70 2.37
  38  0.500  0.000  0.250-   5 2.37  35 2.37  37 2.37  61 2.37
  39  0.812  0.062  0.312-  34 2.37  40 2.37  48 2.37  72 2.37
  40  0.750  0.000  0.250-   7 2.37  37 2.37  39 2.37  63 2.37
  41  0.062  0.312  0.312-  42 2.37  44 2.37  50 2.37  74 2.37
  42  0.000  0.250  0.250-   9 2.37  33 2.37  41 2.37  47 2.37
  43  0.312  0.312  0.312-  44 2.37  46 2.37  52 2.37  76 2.37
  44  0.250  0.250  0.250-  11 2.37  35 2.37  41 2.37  43 2.37
  45  0.562  0.312  0.312-  46 2.37  48 2.37  54 2.37  78 2.37
  46  0.500  0.250  0.250-  13 2.37  37 2.37  43 2.37  45 2.37
  47  0.812  0.312  0.312-  42 2.37  48 2.37  56 2.37  80 2.37
  48  0.750  0.250  0.250-  15 2.37  39 2.37  45 2.37  47 2.37
  49  0.062  0.562  0.312-  50 2.37  52 2.37  58 2.37  82 2.37
  50  0.000  0.500  0.250-  17 2.37  41 2.37  49 2.37  55 2.37
  51  0.312  0.562  0.312-  52 2.37  54 2.37  60 2.37  84 2.37
  52  0.250  0.500  0.250-  19 2.37  43 2.37  49 2.37  51 2.37
  53  0.562  0.562  0.312-  54 2.37  56 2.37  62 2.37  86 2.37
  54  0.500  0.500  0.250-  21 2.37  45 2.37  51 2.37  53 2.37
  55  0.812  0.562  0.312-  50 2.37  56 2.37  64 2.37  88 2.37
  56  0.750  0.500  0.250-  23 2.37  47 2.37  53 2.37  55 2.37
  57  0.062  0.812  0.312-  34 2.37  58 2.37  60 2.37  90 2.37
  58  0.000  0.750  0.250-  25 2.37  49 2.37  57 2.37  63 2.37
  59  0.312  0.812  0.312-  36 2.37  60 2.37  62 2.37  92 2.37
  60  0.250  0.750  0.250-  27 2.37  51 2.37  57 2.37  59 2.37
  61  0.562  0.812  0.312-  38 2.37  62 2.37  64 2.37  94 2.37
  62  0.500  0.750  0.250-  29 2.37  53 2.37  59 2.37  61 2.37
  63  0.812  0.812  0.312-  40 2.37  58 2.37  64 2.37  96 2.37
  64  0.750  0.750  0.250-  31 2.37  55 2.37  61 2.37  63 2.37
  65  0.062  0.062  0.562-  66 2.37  68 2.37  74 2.37  98 2.37
  66  0.000  0.000  0.500-  33 2.37  65 2.37  71 2.37  89 2.37
  67  0.312  0.062  0.562-  68 2.37  70 2.37  76 2.37 100 2.37
  68  0.250  0.000  0.500-  35 2.37  65 2.37  67 2.37  91 2.37
  69  0.562  0.062  0.562-  70 2.37  72 2.37  78 2.37 102 2.37
  70  0.500  0.000  0.500-  37 2.37  67 2.37  69 2.37  93 2.37
  71  0.812  0.062  0.562-  66 2.37  72 2.37  80 2.37 104 2.37
  72  0.750  0.000  0.500-  39 2.37  69 2.37  71 2.37  95 2.37
  73  0.062  0.312  0.562-  74 2.37  76 2.37  82 2.37 106 2.37
  74  0.000  0.250  0.500-  41 2.37  65 2.37  73 2.37  79 2.37
  75  0.312  0.312  0.562-  76 2.37  78 2.37  84 2.37 108 2.37
  76  0.250  0.250  0.500-  43 2.37  67 2.37  73 2.37  75 2.37
  77  0.562  0.312  0.562-  78 2.37  80 2.37  86 2.37 110 2.37
  78  0.500  0.250  0.500-  45 2.37  69 2.37  75 2.37  77 2.37
  79  0.812  0.312  0.562-  74 2.37  80 2.37  88 2.37 112 2.37
  80  0.750  0.250  0.500-  47 2.37  71 2.37  77 2.37  79 2.37
  81  0.062  0.562  0.562-  82 2.37  84 2.37  90 2.37 114 2.37
  82  0.000  0.500  0.500-  49 2.37  73 2.37  81 2.37  87 2.37
  83  0.312  0.562  0.562-  84 2.37  86 2.37  92 2.37 116 2.37
  84  0.250  0.500  0.500-  51 2.37  75 2.37  81 2.37  83 2.37
  85  0.562  0.562  0.562-  86 2.37  88 2.37  94 2.37 118 2.37
  86  0.500  0.500  0.500-  53 2.37  77 2.37  83 2.37  85 2.37
  87  0.812  0.562  0.562-  82 2.37  88 2.37  96 2.37 120 2.37
  88  0.750  0.500  0.500-  55 2.37  79 2.37  85 2.37  87 2.37
  89  0.062  0.812  0.562-  66 2.37  90 2.37  92 2.37 122 2.37
  90  0.000  0.750  0.500-  57 2.37  81 2.37  89 2.37  95 2.37
  91  0.312  0.812  0.562-  68 2.37  92 2.37  94 2.37 124 2.37
  92  0.250  0.750  0.500-  59 2.37  83 2.37  89 2.37  91 2.37
  93  0.562  0.812  0.562-  70 2.37  94 2.37  96 2.37 126 2.37
  94  0.500  0.750  0.500-  61 2.37  85 2.37  91 2.37  93 2.37
  95  0.812  0.812  0.562-  72 2.37  90 2.37  96 2.37 128 2.37
  96  0.750  0.750  0.500-  63 2.37  87 2.37  93 2.37  95 2.37
  97  0.062  0.062  0.812-   2 2.36  98 2.37 100 2.37 106 2.37
  98  0.000  0.000  0.750-  65 2.37  97 2.37 103 2.37 121 2.37
  99  0.312  0.062  0.812-   4 2.37 100 2.37 102 2.37 108 2.37
 100  0.250  0.000  0.750-  67 2.37  97 2.37  99 2.37 123 2.37
 101  0.562  0.062  0.812-   6 2.37 102 2.37 104 2.37 110 2.37
 102  0.500  0.000  0.750-  69 2.37  99 2.37 101 2.37 125 2.37
 103  0.812  0.062  0.812-   8 2.37  98 2.37 104 2.37 112 2.37
 104  0.750  0.000  0.750-  71 2.37 101 2.37 103 2.37 127 2.37
 105  0.062  0.312  0.812-  10 2.37 106 2.37 108 2.37 114 2.37
 106  0.000  0.250  0.750-  73 2.37  97 2.37 105 2.37 111 2.37
 107  0.312  0.312  0.812-  12 2.37 108 2.37 110 2.37 116 2.37
 108  0.250  0.250  0.750-  75 2.37  99 2.37 105 2.37 107 2.37
 109  0.562  0.312  0.812-  14 2.37 110 2.37 112 2.37 118 2.37
 110  0.500  0.250  0.750-  77 2.37 101 2.37 107 2.37 109 2.37
 111  0.812  0.312  0.812-  16 2.37 106 2.37 112 2.37 120 2.37
 112  0.750  0.250  0.750-  79 2.37 103 2.37 109 2.37 111 2.37
 113  0.062  0.562  0.812-  18 2.37 114 2.37 116 2.37 122 2.37
 114  0.000  0.500  0.750-  81 2.37 105 2.37 113 2.37 119 2.37
 115  0.312  0.562  0.812-  20 2.37 116 2.37 118 2.37 124 2.37
 116  0.250  0.500  0.750-  83 2.37 107 2.37 113 2.37 115 2.37
 117  0.562  0.562  0.812-  22 2.37 118 2.37 120 2.37 126 2.37
 118  0.500  0.500  0.750-  85 2.37 109 2.37 115 2.37 117 2.37
 119  0.812  0.562  0.812-  24 2.37 114 2.37 120 2.37 128 2.37
 120  0.750  0.500  0.750-  87 2.37 111 2.37 117 2.37 119 2.37
 121  0.062  0.812  0.812-  26 2.37  98 2.37 122 2.37 124 2.37
 122  0.000  0.750  0.750-  89 2.37 113 2.37 121 2.37 127 2.37
 123  0.312  0.812  0.812-  28 2.37 100 2.37 124 2.37 126 2.37
 124  0.250  0.750  0.750-  91 2.37 115 2.37 121 2.37 123 2.37
 125  0.562  0.812  0.812-  30 2.37 102 2.37 126 2.37 128 2.37
 126  0.500  0.750  0.750-  93 2.37 117 2.37 123 2.37 125 2.37
 127  0.812  0.812  0.812-  32 2.37 104 2.37 122 2.37 128 2.37
 128  0.750  0.750  0.750-  95 2.37 119 2.37 125 2.37 127 2.37
 

IMPORTANT INFORMATION: All symmetrisations will be switched off!
NOSYMM: (Re-)initialisation of all symmetry stuff for point group C_1.

 
 
 KPOINTS: K-Spacing Value to Generate K-Mesh: 0.03

Automatic generation of k-mesh.
Space group operators:
 irot       det(A)        alpha          n_x          n_y          n_z        tau_x        tau_y        tau_z
    1     1.000000     0.000000     1.000000     0.000000     0.000000     0.000000     0.000000     0.000000
 
 Subroutine IBZKPT returns following result:
 ===========================================
 
 Found      1 irreducible k-points:
 
 Following reciprocal coordinates:
            Coordinates               Weight
  0.000000  0.000000  0.000000      1.000000
 
 Following cartesian coordinates:
            Coordinates               Weight
  0.000000  0.000000  0.000000      1.000000
 


--------------------------------------------------------------------------------------------------------




 Dimension of arrays:
   k-points           NKPTS =      1   k-points in BZ     NKDIM =      1   number of bands    NBANDS=    322
   number of dos      NEDOS =    301   number of ions     NIONS =    128
   non local maximal  LDIM  =      4   non local SUM 2l+1 LMDIM =      8
   total plane-waves  NPLWV = ******
   max r-space proj   IRMAX =      1   max aug-charges    IRDMAX= 176819
   dimension x,y,z NGX =   120 NGY =  120 NGZ =  120
   dimension x,y,z NGXF=   240 NGYF=  240 NGZF=  240
   support grid    NGXF=   480 NGYF=  480 NGZF=  480
   ions per type =             128
   NGX,Y,Z   is equivalent  to a cutoff of  12.90, 12.90, 12.90 a.u.
   NGXF,Y,Z  is equivalent  to a cutoff of  25.80, 25.80, 25.80 a.u.

 SYSTEM =  unknown system                          
 POSCAR =  Si                                      

 Startparameter for this run:
   NWRITE =      2    write-flag & timer
   PREC   = accura    normal or accurate (medium, high low for compatibility)
   ISTART =      0    job   : 0-new  1-cont  2-samecut
   ICHARG =      2    charge: 1-file 2-atom 10-const
   ISPIN  =      1    spin polarized calculation?
   LNONCOLLINEAR =      F non collinear calculations
   LSORBIT =      F    spin-orbit coupling
   INIWAV =      1    electr: 0-lowe 1-rand  2-diag
   LASPH  =      F    aspherical Exc in radial PAW
   METAGGA=      F    non-selfconsistent MetaGGA calc.

 Electronic Relaxation 1
   ENCUT  =  500.0 eV  36.75 Ry    6.06 a.u.  28.20 28.20 28.20*2*pi/ulx,y,z
   ENINI  =  500.0     initial cutoff
   ENAUG  =  322.1 eV  augmentation charge cutoff
   NELM   =     60;   NELMIN=  2; NELMDL= -5     # of ELM steps 
   EDIFF  = 0.1E-07   stopping-criterion for ELM
   LREAL  =      F    real-space projection
   NLSPLINE    = F    spline interpolate recip. space projectors
   LCOMPAT=      F    compatible to vasp.4.4
   GGA_COMPAT  = T    GGA compatible to vasp.4.4-vasp.4.6
   LMAXPAW     = -100 max onsite density
   LMAXMIX     =    2 max onsite mixed and CHGCAR
   VOSKOWN=      0    Vosko Wilk Nusair interpolation
   ROPT   =    0.00000
 Ionic relaxation
   EDIFFG = 0.1E-06   stopping-criterion for IOM
   NSW    =      0    number of steps for IOM
   NBLOCK =      1;   KBLOCK =      1    inner block; outer block 
   IBRION =     -1    ionic relax: 0-MD 1-quasi-New 2-CG
   NFREE  =      0    steps in history (QN), initial steepest desc. (CG)
   ISIF   =      2    stress and relaxation
   IWAVPR =     10    prediction:  0-non 1-charg 2-wave 3-comb
   ISYM   =      0    0-nonsym 1-usesym 2-fastsym
   LCORR  =      T    Harris-Foulkes like correction to forces

   POTIM  = 0.5000    time-step for ionic-motion
   TEIN   =    0.0    initial temperature
   TEBEG  =    0.0;   TEEND  =   0.0 temperature during run
   SMASS  =  -3.00    Nose mass-parameter (am)
   estimated Nose-frequenzy (Omega)   =  0.10E-29 period in steps =****** mass=  -0.547E-26a.u.
   SCALEE = 1.0000    scale energy and forces
   NPACO  =    256;   APACO  = 16.0  distance and # of slots for P.C.
   PSTRESS=    0.0 pullay stress

  Mass of Ions in am
   POMASS =  28.09
  Ionic Valenz
   ZVAL   =   4.00
  Atomic Wigner-Seitz radii
   RWIGS  =  -1.00
  virtual crystal weights 
   VCA    =   1.00
   NELECT =     512.0000    total number of electrons
   NUPDOWN=      -1.0000    fix difference up-down

 DOS related values:
   EMIN   =  10.00;   EMAX   =-10.00  energy-range for DOS
   EFERMI =   0.00
   ISMEAR =     0;   SIGMA  =   0.05  broadening in eV -4-tet -1-fermi 0-gaus

 Electronic relaxation 2 (details)
   IALGO  =     38    algorithm
   LDIAG  =      T    sub-space diagonalisation (order eigenvalues)
   LSUBROT=      F    optimize rotation matrix (better conditioning)
   TURBO    =      0    0=normal 1=particle mesh
   IRESTART =      0    0=no restart 2=restart with 2 vectors
   NREBOOT  =      0    no. of reboots
   NMIN     =      0    reboot dimension
   EREF     =   0.00    reference energy to select bands
   IMIX   =      4    mixing-type and parameters
     AMIX     =   0.40;   BMIX     =  1.00
     AMIX_MAG =   1.60;   BMIX_MAG =  1.00
     AMIN     =   0.10
     WC   =   100.;   INIMIX=   1;  MIXPRE=   1;  MAXMIX= -45

 Intra band minimization:
   WEIMIN = 0.0000     energy-eigenvalue tresh-hold
   EBREAK =  0.78E-11  absolut break condition
   DEPER  =   0.30     relativ break condition  

   TIME   =   0.40     timestep for ELM

  volume/ion in A,a.u.               =      20.44       137.95
  Fermi-wavevector in a.u.,A,eV,Ry     =   0.950423  1.796039 12.290193  0.903304
  Thomas-Fermi vector in A             =   2.078798
 
 Write flags
   LWAVE        =      F    write WAVECAR
   LDOWNSAMPLE  =      F    k-point downsampling of WAVECAR
   LCHARG       =      F    write CHGCAR
   LVTOT        =      F    write LOCPOT, total local potential
   LVHAR        =      F    write LOCPOT, Hartree potential only
   LELF         =      F    write electronic localiz. function (ELF)
   LORBIT       =      0    0 simple, 1 ext, 2 COOP (PROOUT), +10 PAW based schemes


 Dipole corrections
   LMONO  =      F    monopole corrections only (constant potential shift)
   LDIPOL =      F    correct potential (dipole corrections)
   IDIPOL =      0    1-x, 2-y, 3-z, 4-all directions 
   EPSILON=  1.0000000 bulk dielectric constant

 Exchange correlation treatment:
   GGA     =    --    GGA type
   LEXCH   =     8    internal setting for exchange type
   VOSKOWN=      0    Vosko Wilk Nusair interpolation
   LHFCALC =     F    Hartree Fock is set to
   LHFONE  =     F    Hartree Fock one center treatment
   AEXX    =    0.0000 exact exchange contribution

 Linear response parameters
   LEPSILON=     F    determine dielectric tensor
   LRPA    =     F    only Hartree local field effects (RPA)
   LNABLA  =     F    use nabla operator in PAW spheres
   LVEL    =     F    velocity operator in full k-point grid
   LINTERFAST=   F  fast interpolation
   KINTER  =     0    interpolate to denser k-point grid
   CSHIFT  =0.1000    complex shift for real part using Kramers Kronig
   OMEGAMAX=  -1.0    maximum frequency
   DEG_THRESHOLD= 0.2000000E-02 threshold for treating states as degnerate
   RTIME   =   -0.100 relaxation time in fs
  (WPLASMAI=    0.000 imaginary part of plasma frequency in eV, 0.658/RTIME)
   DFIELD  = 0.0000000 0.0000000 0.0000000 field for delta impulse in time
 
 Orbital magnetization related:
   ORBITALMAG=     F  switch on orbital magnetization
   LCHIMAG   =     F  perturbation theory with respect to B field
   DQ        =  0.001000  dq finite difference perturbation B field
   LLRAUG    =     F  two centre corrections for induced B field



--------------------------------------------------------------------------------------------------------


 Static calculation
 charge density and potential will be updated during run
 non-spin polarized calculation
 Variant of blocked Davidson
 Davidson routine will perform the subspace rotation
 perform sub-space diagonalisation
    after iterative eigenvector-optimisation
 modified Broyden-mixing scheme, WC =      100.0
 initial mixing is a Kerker type mixing with AMIX =  0.4000 and BMIX =      1.0000
 Hartree-type preconditioning will be used
 using additional bands           66
 reciprocal scheme for non local part
 use partial core corrections
 calculate Harris-corrections to forces 
   (improved forces if not selfconsistent)
 use gradient corrections 
 use of overlap-Matrix (Vanderbilt PP)
 Gauss-broadening in eV      SIGMA  =   0.05


--------------------------------------------------------------------------------------------------------


  energy-cutoff  :      500.00
  volume of cell :     2616.64
      direct lattice vectors                 reciprocal lattice vectors
     0.000000000 10.937160696 10.937160696    -0.045715704  0.045715704  0.045715704
    10.937160696  0.000000000 10.937160696     0.045715704 -0.045715704  0.045715704
    10.937160696 10.937160696  0.000000000     0.045715704  0.045715704 -0.045715704

  length of vectors
    15.467480990 15.467480990 15.467480990     0.079181922  0.079181922  0.079181922


 
 k-points in units of 2pi/SCALE and weight: K-Spacing Value to Generate K-Mesh: 0.03
   0.00000000  0.00000000  0.00000000       1.000
 
 k-points in reciprocal lattice and weights: K-Spacing Value to Generate K-Mesh: 0.03
   0.00000000  0.00000000  0.00000000       1.000
 
 position of ions in fractional coordinates (direct lattice) 
   0.06204284  0.06295716  0.06295716
   0.99954284  0.00045716  0.99954284
   0.31250000  0.06250000  0.06250000
   0.25000000  0.00000000  0.00000000
   0.56250000  0.06250000  0.06250000
   0.50000000  0.00000000  0.00000000
   0.81250000  0.06250000  0.06250000
   0.75000000  0.00000000  0.00000000
   0.06250000  0.31250000  0.06250000
   0.00000000  0.25000000  0.00000000
   0.31250000  0.31250000  0.06250000
   0.25000000  0.25000000  0.00000000
   0.56250000  0.31250000  0.06250000
   0.50000000  0.25000000  0.00000000
   0.81250000  0.31250000  0.06250000
   0.75000000  0.25000000  0.00000000
   0.06250000  0.56250000  0.06250000
   0.00000000  0.50000000  0.00000000
   0.31250000  0.56250000  0.06250000
   0.25000000  0.50000000  0.00000000
   0.56250000  0.56250000  0.06250000
   0.50000000  0.50000000  0.00000000
   0.81250000  0.56250000  0.06250000
   0.75000000  0.50000000  0.00000000
   0.06250000  0.81250000  0.06250000
   0.00000000  0.75000000  0.00000000
   0.31250000  0.81250000  0.06250000
   0.25000000  0.75000000  0.00000000
   0.56250000  0.81250000  0.06250000
   0.50000000  0.75000000  0.00000000
   0.81250000  0.81250000  0.06250000
   0.75000000  0.75000000  0.00000000
   0.06250000  0.06250000  0.31250000
   0.00000000  0.00000000  0.25000000
   0.31250000  0.06250000  0.31250000
   0.25000000  0.00000000  0.25000000
   0.56250000  0.06250000  0.31250000
   0.50000000  0.00000000  0.25000000
   0.81250000  0.06250000  0.31250000
   0.75000000  0.00000000  0.25000000
   0.06250000  0.31250000  0.31250000
   0.00000000  0.25000000  0.25000000
   0.31250000  0.31250000  0.31250000
   0.25000000  0.25000000  0.25000000
   0.56250000  0.31250000  0.31250000
   0.50000000  0.25000000  0.25000000
   0.81250000  0.31250000  0.31250000
   0.75000000  0.25000000  0.25000000
   0.06250000  0.56250000  0.31250000
   0.00000000  0.50000000  0.25000000
   0.31250000  0.56250000  0.31250000
   0.25000000  0.50000000  0.25000000
   0.56250000  0.56250000  0.31250000
   0.50000000  0.50000000  0.25000000
   0.81250000  0.56250000  0.31250000
   0.75000000  0.50000000  0.25000000
   0.06250000  0.81250000  0.31250000
   0.00000000  0.75000000  0.25000000
   0.31250000  0.81250000  0.31250000
   0.25000000  0.75000000  0.25000000
   0.56250000  0.81250000  0.31250000
   0.50000000  0.75000000  0.25000000
   0.81250000  0.81250000  0.31250000
   0.75000000  0.75000000  0.25000000
   0.06250000  0.06250000  0.56250000
   0.00000000  0.00000000  0.50000000
   0.31250000  0.06250000  0.56250000
   0.25000000  0.00000000  0.50000000
   0.56250000  0.06250000  0.56250000
   0.50000000  0.00000000  0.50000000
   0.81250000  0.06250000  0.56250000
   0.75000000  0.00000000  0.50000000
   0.06250000  0.31250000  0.56250000
   0.00000000  0.25000000  0.50000000
   0.31250000  0.31250000  0.56250000
   0.25000000  0.25000000  0.50000000
   0.56250000  0.31250000  0.56250000
   0.50000000  0.25000000  0.50000000
   0.81250000  0.31250000  0.56250000
   0.75000000  0.25000000  0.50000000
   0.06250000  0.56250000  0.56250000
   0.00000000  0.50000000  0.50000000
   0.31250000  0.56250000  0.56250000
   0.25000000  0.50000000  0.50000000
   0.56250000  0.56250000  0.56250000
   0.50000000  0.50000000  0.50000000
   0.81250000  0.56250000  0.56250000
   0.75000000  0.50000000  0.50000000
   0.06250000  0.81250000  0.56250000
   0.00000000  0.75000000  0.50000000
   0.31250000  0.81250000  0.56250000
   0.25000000  0.75000000  0.50000000
   0.56250000  0.81250000  0.56250000
   0.50000000  0.75000000  0.50000000
   0.81250000  0.81250000  0.56250000
   0.75000000  0.75000000  0.50000000
   0.06250000  0.06250000  0.81250000
   0.00000000  0.00000000  0.75000000
   0.31250000  0.06250000  0.81250000
   0.25000000  0.00000000  0.75000000
   0.56250000  0.06250000  0.81250000
   0.50000000  0.00000000  0.75000000
   0.81250000  0.06250000  0.81250000
   0.75000000  0.00000000  0.75000000
   0.06250000  0.31250000  0.81250000
   0.00000000  0.25000000  0.75000000
   0.31250000  0.31250000  0.81250000
   0.25000000  0.25000000  0.75000000
   0.56250000  0.31250000  0.81250000
   0.50000000  0.25000000  0.75000000
   0.81250000  0.31250000  0.81250000
   0.75000000  0.25000000  0.75000000
   0.06250000  0.56250000  0.81250000
   0.00000000  0.50000000  0.75000000
   0.31250000  0.56250000  0.81250000
   0.25000000  0.50000000  0.75000000
   0.56250000  0.56250000  0.81250000
   0.50000000  0.50000000  0.75000000
   0.81250000  0.56250000  0.81250000
   0.75000000  0.50000000  0.75000000
   0.06250000  0.81250000  0.81250000
   0.00000000  0.75000000  0.75000000
   0.31250000  0.81250000  0.81250000
   0.25000000  0.75000000  0.75000000
   0.56250000  0.81250000  0.81250000
   0.50000000  0.75000000  0.75000000
   0.81250000  0.81250000  0.81250000
   0.75000000  0.75000000  0.75000000
 
 position of ions in cartesian coordinates  (Angst):
   1.37714509  1.36714509  1.36714509
  10.93716070 21.86432139 10.93716070
   1.36714509  4.10143526  4.10143526
   0.00000000  2.73429017  2.73429017
   1.36714509  6.83572544  6.83572544
   0.00000000  5.46858035  5.46858035
   1.36714509  9.57001561  9.57001561
   0.00000000  8.20287052  8.20287052
   4.10143526  1.36714509  4.10143526
   2.73429017  0.00000000  2.73429017
   4.10143526  4.10143526  6.83572544
   2.73429017  2.73429017  5.46858035
   4.10143526  6.83572544  9.57001561
   2.73429017  5.46858035  8.20287052
   4.10143526  9.57001561 12.30430578
   2.73429017  8.20287052 10.93716070
   6.83572544  1.36714509  6.83572544
   5.46858035  0.00000000  5.46858035
   6.83572544  4.10143526  9.57001561
   5.46858035  2.73429017  8.20287052
   6.83572544  6.83572544 12.30430578
   5.46858035  5.46858035 10.93716070
   6.83572544  9.57001561 15.03859596
   5.46858035  8.20287052 13.67145087
   9.57001561  1.36714509  9.57001561
   8.20287052  0.00000000  8.20287052
   9.57001561  4.10143526 12.30430578
   8.20287052  2.73429017 10.93716070
   9.57001561  6.83572544 15.03859596
   8.20287052  5.46858035 13.67145087
   9.57001561  9.57001561 17.77288613
   8.20287052  8.20287052 16.40574104
   4.10143526  4.10143526  1.36714509
   2.73429017  2.73429017  0.00000000
   4.10143526  6.83572544  4.10143526
   2.73429017  5.46858035  2.73429017
   4.10143526  9.57001561  6.83572544
   2.73429017  8.20287052  5.46858035
   4.10143526 12.30430578  9.57001561
   2.73429017 10.93716070  8.20287052
   6.83572544  4.10143526  4.10143526
   5.46858035  2.73429017  2.73429017
   6.83572544  6.83572544  6.83572544
   5.46858035  5.46858035  5.46858035
   6.83572544  9.57001561  9.57001561
   5.46858035  8.20287052  8.20287052
   6.83572544 12.30430578 12.30430578
   5.46858035 10.93716070 10.93716070
   9.57001561  4.10143526  6.83572544
   8.20287052  2.73429017  5.46858035
   9.57001561  6.83572544  9.57001561
   8.20287052  5.46858035  8.20287052
   9.57001561  9.57001561 12.30430578
   8.20287052  8.20287052 10.93716070
   9.57001561 12.30430578 15.03859596
   8.20287052 10.93716070 13.67145087
  12.30430578  4.10143526  9.57001561
  10.93716070  2.73429017  8.20287052
  12.30430578  6.83572544 12.30430578
  10.93716070  5.46858035 10.93716070
  12.30430578  9.57001561 15.03859596
  10.93716070  8.20287052 13.67145087
  12.30430578 12.30430578 17.77288613
  10.93716070 10.93716070 16.40574104
   6.83572544  6.83572544  1.36714509
   5.46858035  5.46858035  0.00000000
   6.83572544  9.57001561  4.10143526
   5.46858035  8.20287052  2.73429017
   6.83572544 12.30430578  6.83572544
   5.46858035 10.93716070  5.46858035
   6.83572544 15.03859596  9.57001561
   5.46858035 13.67145087  8.20287052
   9.57001561  6.83572544  4.10143526
   8.20287052  5.46858035  2.73429017
   9.57001561  9.57001561  6.83572544
   8.20287052  8.20287052  5.46858035
   9.57001561 12.30430578  9.57001561
   8.20287052 10.93716070  8.20287052
   9.57001561 15.03859596 12.30430578
   8.20287052 13.67145087 10.93716070
  12.30430578  6.83572544  6.83572544
  10.93716070  5.46858035  5.46858035
  12.30430578  9.57001561  9.57001561
  10.93716070  8.20287052  8.20287052
  12.30430578 12.30430578 12.30430578
  10.93716070 10.93716070 10.93716070
  12.30430578 15.03859596 15.03859596
  10.93716070 13.67145087 13.67145087
  15.03859596  6.83572544  9.57001561
  13.67145087  5.46858035  8.20287052
  15.03859596  9.57001561 12.30430578
  13.67145087  8.20287052 10.93716070
  15.03859596 12.30430578 15.03859596
  13.67145087 10.93716070 13.67145087
  15.03859596 15.03859596 17.77288613
  13.67145087 13.67145087 16.40574104
   9.57001561  9.57001561  1.36714509
   8.20287052  8.20287052  0.00000000
   9.57001561 12.30430578  4.10143526
   8.20287052 10.93716070  2.73429017
   9.57001561 15.03859596  6.83572544
   8.20287052 13.67145087  5.46858035
   9.57001561 17.77288613  9.57001561
   8.20287052 16.40574104  8.20287052
  12.30430578  9.57001561  4.10143526
  10.93716070  8.20287052  2.73429017
  12.30430578 12.30430578  6.83572544
  10.93716070 10.93716070  5.46858035
  12.30430578 15.03859596  9.57001561
  10.93716070 13.67145087  8.20287052
  12.30430578 17.77288613 12.30430578
  10.93716070 16.40574104 10.93716070
  15.03859596  9.57001561  6.83572544
  13.67145087  8.20287052  5.46858035
  15.03859596 12.30430578  9.57001561
  13.67145087 10.93716070  8.20287052
  15.03859596 15.03859596 12.30430578
  13.67145087 13.67145087 10.93716070
  15.03859596 17.77288613 15.03859596
  13.67145087 16.40574104 13.67145087
  17.77288613  9.57001561  9.57001561
  16.40574104  8.20287052  8.20287052
  17.77288613 12.30430578 12.30430578
  16.40574104 10.93716070 10.93716070
  17.77288613 15.03859596 15.03859596
  16.40574104 13.67145087 13.67145087
  17.77288613 17.77288613 17.77288613
  16.40574104 16.40574104 16.40574104
 


--------------------------------------------------------------------------------------------------------


 k-point  1 :   0.0000 0.0000 0.0000  plane waves:   66299

 maximum and minimum number of plane-waves per node :      3320     3310

 maximum number of plane-waves:     66299
 maximum index in each direction: 
   IXMAX=   28   IYMAX=   28   IZMAX=   28
   IXMIN=  -28   IYMIN=  -28   IZMIN=  -28


 parallel 3D FFT for wavefunctions:
    minimum data exchange during FFTs selected (reduces bandwidth)
 parallel 3D FFT for charge:
    minimum data exchange during FFTs selected (reduces bandwidth)


 total amount of memory used by VASP MPI-rank0   118934. kBytes
=======================================================================

   base      :      30000. kBytes
   nonl-proj :       7011. kBytes
   fftplans  :      53058. kBytes
   grid      :      20148. kBytes
   one-center:         21. kBytes
   wavefun   :       8696. kBytes
 
     INWAV:  cpu time    0.0000: real time    0.0000
 Broyden mixing: mesh for mixing (old mesh)
   NGX = 57   NGY = 57   NGZ = 57
  (NGX  =240   NGY  =240   NGZ  =240)
  gives a total of 185193 points

 initial charge density was supplied:
 charge density of overlapping atoms calculated
 number of electron     512.0000000 magnetization 
 keeping initial charge density in first step


--------------------------------------------------------------------------------------------------------


 Maximum index for augmentation-charges         4439 (set IRDMAX)


--------------------------------------------------------------------------------------------------------


 First call to EWALD:  gamma=   0.129
 Maximum number of real-space cells 3x 3x 3
 Maximum number of reciprocal cells 3x 3x 3

    FEWALD:  cpu time    0.0052: real time    0.0052


--------------------------------------- Iteration      1(   1)  ---------------------------------------


    POTLOK:  cpu time    0.2262: real time    0.2543
    SETDIJ:  cpu time    0.2992: real time    0.2999
     EDDAV:  cpu time    4.8171: real time    4.8310
       DOS:  cpu time    0.0005: real time    0.0005
    --------------------------------------------
      LOOP:  cpu time    5.3430: real time    5.3857

 eigenvalue-minimisations  :   644
 total energy-change (2. order) : 0.1374881E+04  (-0.1908718E+05)
 number of electron     512.0000000 magnetization 
 augmentation part      512.0000000 magnetization 

 Free energy of the ion-electron system (eV)
  ---------------------------------------------------
  alpha Z        PSCENC =       210.78028765
  Ewald energy   TEWEN  =    -14524.86349259
  -Hartree energ DENC   =      -724.62138770
  -exchange      EXHF   =         0.00000000
  -V(xc)+E(xc)   XCENC  =     -1195.83144779
  PAW double counting   =      4221.13331941    -1969.18571412
  entropy T*S    EENTRO =        -0.01551305
  eigenvalues    EBANDS =      2165.00444366
  atomic energy  EATOM  =     13192.48085998
  Solvation  Ediel_sol  =         0.00000000
  ---------------------------------------------------
  free energy    TOTEN  =      1374.88135546 eV

  energy without entropy =     1374.89686851  energy(sigma->0) =     1374.88911198


--------------------------------------------------------------------------------------------------------




--------------------------------------- Iteration      1(   2)  ---------------------------------------


     EDDAV:  cpu time    5.4727: real time    5.4908
       DOS:  cpu time    0.0005: real time    0.0005
    --------------------------------------------
      LOOP:  cpu time    5.4732: real time    5.4913

 eigenvalue-minimisations  :   758
 total energy-change (2. order) :-0.1911903E+04  (-0.1811831E+04)
 number of electron     512.0000000 magnetization 
 augmentation part      512.0000000 magnetization 

 Free energy of the ion-electron system (eV)
  ---------------------------------------------------
  alpha Z        PSCENC =       210.78028765
  Ewald energy   TEWEN  =    -14524.86349259
  -Hartree energ DENC   =      -724.62138770
  -exchange      EXHF   =         0.00000000
  -V(xc)+E(xc)   XCENC  =     -1195.83144779
  PAW double counting   =      4221.13331941    -1969.18571412
  entropy T*S    EENTRO =        -0.00000178
  eigenvalues    EBANDS =       253.08552089
  atomic energy  EATOM  =     13192.48085998
  Solvation  Ediel_sol  =         0.00000000
  ---------------------------------------------------
  free energy    TOTEN  =      -537.02205604 eV

  energy without entropy =     -537.02205426  energy(sigma->0) =     -537.02205515


--------------------------------------------------------------------------------------------------------




--------------------------------------- Iteration      1(   3)  ---------------------------------------


     EDDAV:  cpu time    5.4875: real time    5.5023
       DOS:  cpu time    0.0003: real time    0.0003
    --------------------------------------------
      LOOP:  cpu time    5.4879: real time    5.5026

 eigenvalue-minimisations  :   768
 total energy-change (2. order) :-0.1530013E+03  (-0.1483183E+03)
 number of electron     512.0000000 magnetization 
 augmentation part      512.0000000 magnetization 

 Free energy of the ion-electron system (eV)
  ---------------------------------------------------
  alpha Z        PSCENC =       210.78028765
  Ewald energy   TEWEN  =    -14524.86349259
  -Hartree energ DENC   =      -724.62138770
  -exchange      EXHF   =         0.00000000
  -V(xc)+E(xc)   XCENC  =     -1195.83144779
  PAW double counting   =      4221.13331941    -1969.18571412
  entropy T*S    EENTRO =        -0.00000000
  eigenvalues    EBANDS =       100.08424420
  atomic energy  EATOM  =     13192.48085998
  Solvation  Ediel_sol  =         0.00000000
  ---------------------------------------------------
  free energy    TOTEN  =      -690.02333096 eV

  energy without entropy =     -690.02333096  energy(sigma->0) =     -690.02333096


--------------------------------------------------------------------------------------------------------




--------------------------------------- Iteration      1(   4)  ---------------------------------------


     EDDAV:  cpu time    5.3993: real time    5.4157
       DOS:  cpu time    0.0003: real time    0.0003
    --------------------------------------------
      LOOP:  cpu time    5.3997: real time    5.4161

 eigenvalue-minimisations  :   752
 total energy-change (2. order) :-0.4509776E+01  (-0.4453930E+01)
 number of electron     512.0000000 magnetization 
 augmentation part      512.0000000 magnetization 

 Free energy of the ion-electron system (eV)
  ---------------------------------------------------
  alpha Z        PSCENC =       210.78028765
  Ewald energy   TEWEN  =    -14524.86349259
  -Hartree energ DENC   =      -724.62138770
  -exchange      EXHF   =         0.00000000
  -V(xc)+E(xc)   XCENC  =     -1195.83144779
  PAW double counting   =      4221.13331941    -1969.18571412
  entropy T*S    EENTRO =        -0.00000000
  eigenvalues    EBANDS =        95.57446824
  atomic energy  EATOM  =     13192.48085998
  Solvation  Ediel_sol  =         0.00000000
  ---------------------------------------------------
  free energy    TOTEN  =      -694.53310692 eV

  energy without entropy =     -694.53310692  energy(sigma->0) =     -694.53310692


--------------------------------------------------------------------------------------------------------




--------------------------------------- Iteration      1(   5)  ---------------------------------------


     EDDAV:  cpu time    5.4237: real time    5.4388
       DOS:  cpu time    0.0004: real time    0.0004
    CHARGE:  cpu time    0.5072: real time    0.5084
    MIXING:  cpu time    0.0128: real time    0.0131
    --------------------------------------------
      LOOP:  cpu time    5.9442: real time    5.9607

 eigenvalue-minimisations  :   752
 total energy-change (2. order) :-0.1662478E+00  (-0.1655016E+00)
 number of electron     511.9999999 magnetization 
 augmentation part      -29.7895331 magnetization 

 Broyden mixing:
  rms(total) = 0.24757E+01    rms(broyden)= 0.24757E+01
  rms(prec ) = 0.29957E+01
  weight for this iteration     100.00

 Free energy of the ion-electron system (eV)
  ---------------------------------------------------
  alpha Z        PSCENC =       210.78028765
  Ewald energy   TEWEN  =    -14524.86349259
  -Hartree energ DENC   =      -724.62138770
  -exchange      EXHF   =         0.00000000
  -V(xc)+E(xc)   XCENC  =     -1195.83144779
  PAW double counting   =      4221.13331941    -1969.18571412
  entropy T*S    EENTRO =        -0.00000000
  eigenvalues    EBANDS =        95.40822041
  atomic energy  EATOM  =     13192.48085998
  Solvation  Ediel_sol  =         0.00000000
  ---------------------------------------------------
  free energy    TOTEN  =      -694.69935474 eV

  energy without entropy =     -694.69935474  energy(sigma->0) =     -694.69935474


--------------------------------------------------------------------------------------------------------




--------------------------------------- Iteration      1(   6)  ---------------------------------------


    POTLOK:  cpu time    0.2225: real time    0.2256
    SETDIJ:  cpu time    0.2726: real time    0.2732
     EDDAV:  cpu time    5.0495: real time    5.0648
       DOS:  cpu time    0.0004: real time    0.0004
    CHARGE:  cpu time    0.4924: real time    0.4936
    MIXING:  cpu time    0.0143: real time    0.0144
    --------------------------------------------
      LOOP:  cpu time    6.0518: real time    6.0721

 eigenvalue-minimisations  :   688
 total energy-change (2. order) : 0.8399696E+01  (-0.4778338E+00)
 number of electron     511.9999999 magnetization 
 augmentation part      -29.4084076 magnetization 

 Broyden mixing:
  rms(total) = 0.14788E+01    rms(broyden)= 0.14788E+01
  rms(prec ) = 0.17864E+01
  weight for this iteration     100.00

 eigenvalues of (default mixing * dielectric matrix)
  average eigenvalue GAMMA=   2.4617
  2.4617

 Free energy of the ion-electron system (eV)
  ---------------------------------------------------
  alpha Z        PSCENC =       210.78028765
  Ewald energy   TEWEN  =    -14524.86349259
  -Hartree energ DENC   =      -824.85155044
  -exchange      EXHF   =         0.00000000
  -V(xc)+E(xc)   XCENC  =     -1180.31887573
  PAW double counting   =      4464.76416459    -2219.65100985
  entropy T*S    EENTRO =        -0.00000000
  eigenvalues    EBANDS =       195.35995723
  atomic energy  EATOM  =     13192.48085998
  Solvation  Ediel_sol  =         0.00000000
  ---------------------------------------------------
  free energy    TOTEN  =      -686.29965916 eV

  energy without entropy =     -686.29965916  energy(sigma->0) =     -686.29965916


--------------------------------------------------------------------------------------------------------




--------------------------------------- Iteration      1(   7)  ---------------------------------------


    POTLOK:  cpu time    0.2216: real time    0.2224
    SETDIJ:  cpu time    0.2709: real time    0.2716
     EDDAV:  cpu time    4.9073: real time    4.9240
       DOS:  cpu time    0.0004: real time    0.0004
    CHARGE:  cpu time    0.4905: real time    0.4917
    MIXING:  cpu time    0.0120: real time    0.0120
    --------------------------------------------
      LOOP:  cpu time    5.9028: real time    5.9222

 eigenvalue-minimisations  :   664
 total energy-change (2. order) : 0.3872873E+01  (-0.9700194E+00)
 number of electron     511.9999999 magnetization 
 augmentation part      -28.9141040 magnetization 

 Broyden mixing:
  rms(total) = 0.13040E+00    rms(broyden)= 0.13040E+00
  rms(prec ) = 0.15184E+00
  weight for this iteration     100.00

 eigenvalues of (default mixing * dielectric matrix)
  average eigenvalue GAMMA=   2.4939
  2.4939  2.4939

 Free energy of the ion-electron system (eV)
  ---------------------------------------------------
  alpha Z        PSCENC =       210.78028765
  Ewald energy   TEWEN  =    -14524.86349259
  -Hartree energ DENC   =      -991.88315562
  -exchange      EXHF   =         0.00000000
  -V(xc)+E(xc)   XCENC  =     -1153.93928145
  PAW double counting   =      4789.66791586    -2553.36650310
  entropy T*S    EENTRO =        -0.00000000
  eigenvalues    EBANDS =       348.69658358
  atomic energy  EATOM  =     13192.48085998
  Solvation  Ediel_sol  =         0.00000000
  ---------------------------------------------------
  free energy    TOTEN  =      -682.42678570 eV

  energy without entropy =     -682.42678570  energy(sigma->0) =     -682.42678570


--------------------------------------------------------------------------------------------------------




--------------------------------------- Iteration      1(   8)  ---------------------------------------


    POTLOK:  cpu time    0.2208: real time    0.2216
    SETDIJ:  cpu time    0.2746: real time    0.2752
     EDDAV:  cpu time    5.1188: real time    5.1319
       DOS:  cpu time    0.0004: real time    0.0004
    CHARGE:  cpu time    0.4975: real time    0.4987
    MIXING:  cpu time    0.0115: real time    0.0115
    --------------------------------------------
      LOOP:  cpu time    6.1235: real time    6.1392

 eigenvalue-minimisations  :   688
 total energy-change (2. order) :-0.1321263E+00  (-0.4949612E-01)
 number of electron     511.9999999 magnetization 
 augmentation part      -28.9853629 magnetization 

 Broyden mixing:
  rms(total) = 0.28083E-01    rms(broyden)= 0.28083E-01
  rms(prec ) = 0.37953E-01
  weight for this iteration     100.00

 eigenvalues of (default mixing * dielectric matrix)
  average eigenvalue GAMMA=   2.1012
  1.4548  2.7602  2.0885

 Free energy of the ion-electron system (eV)
  ---------------------------------------------------
  alpha Z        PSCENC =       210.78028765
  Ewald energy   TEWEN  =    -14524.86349259
  -Hartree energ DENC   =      -986.33344022
  -exchange      EXHF   =         0.00000000
  -V(xc)+E(xc)   XCENC  =     -1153.99476002
  PAW double counting   =      4718.70758290    -2480.18761714
  entropy T*S    EENTRO =        -0.00000000
  eigenvalues    EBANDS =       340.85166742
  atomic energy  EATOM  =     13192.48085998
  Solvation  Ediel_sol  =         0.00000000
  ---------------------------------------------------
  free energy    TOTEN  =      -682.55891201 eV

  energy without entropy =     -682.55891201  energy(sigma->0) =     -682.55891201


--------------------------------------------------------------------------------------------------------




--------------------------------------- Iteration      1(   9)  ---------------------------------------


    POTLOK:  cpu time    0.2239: real time    0.2258
    SETDIJ:  cpu time    0.2727: real time    0.2734
     EDDAV:  cpu time    5.4865: real time    5.5027
       DOS:  cpu time    0.0004: real time    0.0004
    CHARGE:  cpu time    0.4908: real time    0.4923
    MIXING:  cpu time    0.0117: real time    0.0117
    --------------------------------------------
      LOOP:  cpu time    6.4861: real time    6.5062

 eigenvalue-minimisations  :   768
 total energy-change (2. order) :-0.6386533E-02  (-0.2454074E-02)
 number of electron     511.9999999 magnetization 
 augmentation part      -28.9800569 magnetization 

 Broyden mixing:
  rms(total) = 0.15928E-01    rms(broyden)= 0.15928E-01
  rms(prec ) = 0.18152E-01
  weight for this iteration     100.00

 eigenvalues of (default mixing * dielectric matrix)
  average eigenvalue GAMMA=   2.2877
  1.0208  3.3890  2.7014  2.0396

 Free energy of the ion-electron system (eV)
  ---------------------------------------------------
  alpha Z        PSCENC =       210.78028765
  Ewald energy   TEWEN  =    -14524.86349259
  -Hartree energ DENC   =      -991.21555674
  -exchange      EXHF   =         0.00000000
  -V(xc)+E(xc)   XCENC  =     -1153.27696438
  PAW double counting   =      4725.24996829    -2486.96915982
  entropy T*S    EENTRO =        -0.00000000
  eigenvalues    EBANDS =       345.24875905
  atomic energy  EATOM  =     13192.48085998
  Solvation  Ediel_sol  =         0.00000000
  ---------------------------------------------------
  free energy    TOTEN  =      -682.56529854 eV

  energy without entropy =     -682.56529854  energy(sigma->0) =     -682.56529854


--------------------------------------------------------------------------------------------------------




--------------------------------------- Iteration      1(  10)  ---------------------------------------


    POTLOK:  cpu time    0.2673: real time    0.2690
    SETDIJ:  cpu time    0.2727: real time    0.2733
     EDDAV:  cpu time    4.9997: real time    5.0118
       DOS:  cpu time    0.0004: real time    0.0004
    CHARGE:  cpu time    0.4939: real time    0.4950
    MIXING:  cpu time    0.0119: real time    0.0119
    --------------------------------------------
      LOOP:  cpu time    6.0457: real time    6.0614

 eigenvalue-minimisations  :   680
 total energy-change (2. order) :-0.2687812E-02  (-0.5907578E-03)
 number of electron     511.9999999 magnetization 
 augmentation part      -28.9811157 magnetization 

 Broyden mixing:
  rms(total) = 0.47879E-02    rms(broyden)= 0.47878E-02
  rms(prec ) = 0.57378E-02
  weight for this iteration     100.00

 eigenvalues of (default mixing * dielectric matrix)
  average eigenvalue GAMMA=   1.9839
  3.2361  2.6097  2.1613  1.0595  0.8530

 Free energy of the ion-electron system (eV)
  ---------------------------------------------------
  alpha Z        PSCENC =       210.78028765
  Ewald energy   TEWEN  =    -14524.86349259
  -Hartree energ DENC   =      -991.22065220
  -exchange      EXHF   =         0.00000000
  -V(xc)+E(xc)   XCENC  =     -1153.35171652
  PAW double counting   =      4721.46936998    -2483.17005617
  entropy T*S    EENTRO =        -0.00000000
  eigenvalues    EBANDS =       345.30741352
  atomic energy  EATOM  =     13192.48085998
  Solvation  Ediel_sol  =         0.00000000
  ---------------------------------------------------
  free energy    TOTEN  =      -682.56798636 eV

  energy without entropy =     -682.56798636  energy(sigma->0) =     -682.56798636


--------------------------------------------------------------------------------------------------------




--------------------------------------- Iteration      1(  11)  ---------------------------------------


    POTLOK:  cpu time    0.2196: real time    0.2249
    SETDIJ:  cpu time    0.2723: real time    0.2730
     EDDAV:  cpu time    5.4067: real time    5.4198
       DOS:  cpu time    0.0004: real time    0.0004
    CHARGE:  cpu time    0.4913: real time    0.4925
    MIXING:  cpu time    0.0119: real time    0.0120
    --------------------------------------------
      LOOP:  cpu time    6.4023: real time    6.4225

 eigenvalue-minimisations  :   752
 total energy-change (2. order) :-0.1350854E-04  (-0.2037906E-04)
 number of electron     511.9999999 magnetization 
 augmentation part      -28.9796038 magnetization 

 Broyden mixing:
  rms(total) = 0.48964E-03    rms(broyden)= 0.48954E-03
  rms(prec ) = 0.56095E-03
  weight for this iteration     100.00

 eigenvalues of (default mixing * dielectric matrix)
  average eigenvalue GAMMA=   2.0285
  3.3658  2.6889  2.1801  1.9653  0.9855  0.9855

 Free energy of the ion-electron system (eV)
  ---------------------------------------------------
  alpha Z        PSCENC =       210.78028765
  Ewald energy   TEWEN  =    -14524.86349259
  -Hartree energ DENC   =      -991.69957001
  -exchange      EXHF   =         0.00000000
  -V(xc)+E(xc)   XCENC  =     -1153.28725156
  PAW double counting   =      4723.33791255    -2485.08395190
  entropy T*S    EENTRO =        -0.00000000
  eigenvalues    EBANDS =       345.76720600
  atomic energy  EATOM  =     13192.48085998
  Solvation  Ediel_sol  =         0.00000000
  ---------------------------------------------------
  free energy    TOTEN  =      -682.56799987 eV

  energy without entropy =     -682.56799987  energy(sigma->0) =     -682.56799987


--------------------------------------------------------------------------------------------------------




--------------------------------------- Iteration      1(  12)  ---------------------------------------


    POTLOK:  cpu time    0.2206: real time    0.2212
    SETDIJ:  cpu time    0.2722: real time    0.2729
     EDDAV:  cpu time    5.3420: real time    5.3580
       DOS:  cpu time    0.0004: real time    0.0004
    CHARGE:  cpu time    0.4909: real time    0.4920
    MIXING:  cpu time    0.0129: real time    0.0130
    --------------------------------------------
      LOOP:  cpu time    6.3390: real time    6.3575

 eigenvalue-minimisations  :   744
 total energy-change (2. order) :-0.3586963E-05  (-0.1291322E-05)
 number of electron     511.9999999 magnetization 
 augmentation part      -28.9793719 magnetization 

 Broyden mixing:
  rms(total) = 0.24767E-03    rms(broyden)= 0.24748E-03
  rms(prec ) = 0.27912E-03
  weight for this iteration     100.00

 eigenvalues of (default mixing * dielectric matrix)
  average eigenvalue GAMMA=   1.9185
  3.3085  2.6880  2.2449  2.2449  1.0258  1.0258  0.8913

 Free energy of the ion-electron system (eV)
  ---------------------------------------------------
  alpha Z        PSCENC =       210.78028765
  Ewald energy   TEWEN  =    -14524.86349259
  -Hartree energ DENC   =      -991.73561577
  -exchange      EXHF   =         0.00000000
  -V(xc)+E(xc)   XCENC  =     -1153.28702413
  PAW double counting   =      4723.41914644    -2485.16083967
  entropy T*S    EENTRO =        -0.00000000
  eigenvalues    EBANDS =       345.79867463
  atomic energy  EATOM  =     13192.48085998
  Solvation  Ediel_sol  =         0.00000000
  ---------------------------------------------------
  free energy    TOTEN  =      -682.56800345 eV

  energy without entropy =     -682.56800345  energy(sigma->0) =     -682.56800345


--------------------------------------------------------------------------------------------------------




--------------------------------------- Iteration      1(  13)  ---------------------------------------


    POTLOK:  cpu time    0.2213: real time    0.2232
    SETDIJ:  cpu time    0.2733: real time    0.2740
     EDDAV:  cpu time    5.3475: real time    5.3607
       DOS:  cpu time    0.0004: real time    0.0004
    CHARGE:  cpu time    0.4919: real time    0.4931
    MIXING:  cpu time    0.0136: real time    0.0137
    --------------------------------------------
      LOOP:  cpu time    6.3481: real time    6.3650

 eigenvalue-minimisations  :   744
 total energy-change (2. order) : 0.3311263E-05  (-0.5706581E-07)
 number of electron     511.9999999 magnetization 
 augmentation part      -28.9794760 magnetization 

 Broyden mixing:
  rms(total) = 0.81121E-04    rms(broyden)= 0.80554E-04
  rms(prec ) = 0.94640E-04
  weight for this iteration     100.00

 eigenvalues of (default mixing * dielectric matrix)
  average eigenvalue GAMMA=   1.8732
  3.3118  2.7006  2.4801  2.1316  0.9632  0.9632  1.2175  1.2175

 Free energy of the ion-electron system (eV)
  ---------------------------------------------------
  alpha Z        PSCENC =       210.78028765
  Ewald energy   TEWEN  =    -14524.86349259
  -Hartree energ DENC   =      -991.72974459
  -exchange      EXHF   =         0.00000000
  -V(xc)+E(xc)   XCENC  =     -1153.28665991
  PAW double counting   =      4723.39518425    -2485.13376619
  entropy T*S    EENTRO =        -0.00000000
  eigenvalues    EBANDS =       345.78933126
  atomic energy  EATOM  =     13192.48085998
  Solvation  Ediel_sol  =         0.00000000
  ---------------------------------------------------
  free energy    TOTEN  =      -682.56800014 eV

  energy without entropy =     -682.56800014  energy(sigma->0) =     -682.56800014


--------------------------------------------------------------------------------------------------------




--------------------------------------- Iteration      1(  14)  ---------------------------------------


    POTLOK:  cpu time    0.2214: real time    0.2221
    SETDIJ:  cpu time    0.2719: real time    0.2725
     EDDAV:  cpu time    5.3839: real time    5.4005
       DOS:  cpu time    0.0004: real time    0.0004
    CHARGE:  cpu time    0.4942: real time    0.4954
    MIXING:  cpu time    0.0138: real time    0.0138
    --------------------------------------------
      LOOP:  cpu time    6.3855: real time    6.4047

 eigenvalue-minimisations  :   744
 total energy-change (2. order) :-0.7556664E-06  (-0.1364556E-07)
 number of electron     511.9999999 magnetization 
 augmentation part      -28.9794383 magnetization 

 Broyden mixing:
  rms(total) = 0.40566E-04    rms(broyden)= 0.39420E-04
  rms(prec ) = 0.51469E-04
  weight for this iteration     100.00

 eigenvalues of (default mixing * dielectric matrix)
  average eigenvalue GAMMA=   1.8158
  3.2919  2.7277  2.4331  2.2579  0.9334  1.0133  1.0133  1.3358  1.3358

 Free energy of the ion-electron system (eV)
  ---------------------------------------------------
  alpha Z        PSCENC =       210.78028765
  Ewald energy   TEWEN  =    -14524.86349259
  -Hartree energ DENC   =      -991.74034712
  -exchange      EXHF   =         0.00000000
  -V(xc)+E(xc)   XCENC  =     -1153.28537496
  PAW double counting   =      4723.43184821    -2485.17066175
  entropy T*S    EENTRO =        -0.00000000
  eigenvalues    EBANDS =       345.79887968
  atomic energy  EATOM  =     13192.48085998
  Solvation  Ediel_sol  =         0.00000000
  ---------------------------------------------------
  free energy    TOTEN  =      -682.56800090 eV

  energy without entropy =     -682.56800090  energy(sigma->0) =     -682.56800090


--------------------------------------------------------------------------------------------------------




--------------------------------------- Iteration      1(  15)  ---------------------------------------


    POTLOK:  cpu time    0.2214: real time    0.2232
    SETDIJ:  cpu time    0.2749: real time    0.2755
     EDDAV:  cpu time    4.1452: real time    4.1598
       DOS:  cpu time    0.0004: real time    0.0004
    CHARGE:  cpu time    0.4896: real time    0.4912
    MIXING:  cpu time    0.0132: real time    0.0133
    --------------------------------------------
      LOOP:  cpu time    5.1446: real time    5.1634

 eigenvalue-minimisations  :   520
 total energy-change (2. order) : 0.1108681E-05  (-0.3193072E-08)
 number of electron     511.9999999 magnetization 
 augmentation part      -28.9794695 magnetization 

 Broyden mixing:
  rms(total) = 0.11640E-04    rms(broyden)= 0.66184E-05
  rms(prec ) = 0.72700E-05
  weight for this iteration     100.00
  WARNING: grid for Broyden might be to small

 eigenvalues of (default mixing * dielectric matrix)
  average eigenvalue GAMMA=   1.8239
  3.2954  2.6703  2.5877  2.1154  2.0505  0.9408  0.9861  1.0343  1.2794  1.2794

 Free energy of the ion-electron system (eV)
  ---------------------------------------------------
  alpha Z        PSCENC =       210.78028765
  Ewald energy   TEWEN  =    -14524.86349259
  -Hartree energ DENC   =      -991.73426220
  -exchange      EXHF   =         0.00000000
  -V(xc)+E(xc)   XCENC  =     -1153.28596807
  PAW double counting   =      4723.40888160    -2485.14689930
  entropy T*S    EENTRO =        -0.00000000
  eigenvalues    EBANDS =       345.79259314
  atomic energy  EATOM  =     13192.48085998
  Solvation  Ediel_sol  =         0.00000000
  ---------------------------------------------------
  free energy    TOTEN  =      -682.56799979 eV

  energy without entropy =     -682.56799979  energy(sigma->0) =     -682.56799979


--------------------------------------------------------------------------------------------------------




--------------------------------------- Iteration      1(  16)  ---------------------------------------


    POTLOK:  cpu time    0.2211: real time    0.2236
    SETDIJ:  cpu time    0.2725: real time    0.2732
     EDDAV:  cpu time    3.3536: real time    3.3616
       DOS:  cpu time    0.0004: real time    0.0004
    CHARGE:  cpu time    0.4881: real time    0.4892
    MIXING:  cpu time    0.0139: real time    0.0139
    --------------------------------------------
      LOOP:  cpu time    4.3496: real time    4.3619

 eigenvalue-minimisations  :   376
 total energy-change (2. order) :-0.7343624E-07  (-0.1915805E-09)
 number of electron     511.9999999 magnetization 
 augmentation part      -28.9794711 magnetization 

 Broyden mixing:
  rms(total) = 0.10076E-04    rms(broyden)= 0.31374E-05
  rms(prec ) = 0.39103E-05
  weight for this iteration     100.00
  WARNING: grid for Broyden might be to small

 eigenvalues of (default mixing * dielectric matrix)
  average eigenvalue GAMMA=   1.8054
  3.2819  2.7857  2.5398  2.2860  2.2860  1.3225  1.3225  1.1707  0.9410  0.9410
  0.9827

 Free energy of the ion-electron system (eV)
  ---------------------------------------------------
  alpha Z        PSCENC =       210.78028765
  Ewald energy   TEWEN  =    -14524.86349259
  -Hartree energ DENC   =      -991.73458883
  -exchange      EXHF   =         0.00000000
  -V(xc)+E(xc)   XCENC  =     -1153.28589588
  PAW double counting   =      4723.40943621    -2485.14756665
  entropy T*S    EENTRO =        -0.00000000
  eigenvalues    EBANDS =       345.79296025
  atomic energy  EATOM  =     13192.48085998
  Solvation  Ediel_sol  =         0.00000000
  ---------------------------------------------------
  free energy    TOTEN  =      -682.56799986 eV

  energy without entropy =     -682.56799986  energy(sigma->0) =     -682.56799986


--------------------------------------------------------------------------------------------------------




--------------------------------------- Iteration      1(  17)  ---------------------------------------


    POTLOK:  cpu time    0.2204: real time    0.2211
    SETDIJ:  cpu time    0.2720: real time    0.2728
     EDDAV:  cpu time    3.3627: real time    3.3709
       DOS:  cpu time    0.0004: real time    0.0004
    CHARGE:  cpu time    0.4903: real time    0.4914
    MIXING:  cpu time    0.0126: real time    0.0127
    --------------------------------------------
      LOOP:  cpu time    4.3585: real time    4.3693

 eigenvalue-minimisations  :   376
 total energy-change (2. order) :-0.2017077E-07  (-0.3459111E-10)
 number of electron     511.9999999 magnetization 
 augmentation part      -28.9794724 magnetization 

 Broyden mixing:
  rms(total) = 0.96215E-05    rms(broyden)= 0.94524E-06
  rms(prec ) = 0.11813E-05
  weight for this iteration     100.00
  WARNING: grid for Broyden might be to small

 eigenvalues of (default mixing * dielectric matrix)
  average eigenvalue GAMMA=   1.7933
  3.2906  2.7227  2.6020  2.1249  2.1249  2.1184  1.2673  1.2673  1.0492  1.0492
  0.9381  0.9656

 Free energy of the ion-electron system (eV)
  ---------------------------------------------------
  alpha Z        PSCENC =       210.78028765
  Ewald energy   TEWEN  =    -14524.86349259
  -Hartree energ DENC   =      -991.73432787
  -exchange      EXHF   =         0.00000000
  -V(xc)+E(xc)   XCENC  =     -1153.28593280
  PAW double counting   =      4723.40928784    -2485.14744878
  entropy T*S    EENTRO =        -0.00000000
  eigenvalues    EBANDS =       345.79276668
  atomic energy  EATOM  =     13192.48085998
  Solvation  Ediel_sol  =         0.00000000
  ---------------------------------------------------
  free energy    TOTEN  =      -682.56799988 eV

  energy without entropy =     -682.56799988  energy(sigma->0) =     -682.56799988


--------------------------------------------------------------------------------------------------------




--------------------------------------- Iteration      1(  18)  ---------------------------------------


    POTLOK:  cpu time    0.2211: real time    0.2217
    SETDIJ:  cpu time    0.2713: real time    0.2719
     EDDAV:  cpu time    3.2699: real time    3.2809
       DOS:  cpu time    0.0004: real time    0.0004
    CHARGE:  cpu time    0.4854: real time    0.4865
    MIXING:  cpu time    0.0157: real time    0.0157
    --------------------------------------------
      LOOP:  cpu time    4.2637: real time    4.2771

 eigenvalue-minimisations  :   360
 total energy-change (2. order) : 0.1818808E-07  (-0.7071010E-11)
 number of electron     511.9999999 magnetization 
 augmentation part      -28.9794728 magnetization 

 Broyden mixing:
  rms(total) = 0.95851E-05    rms(broyden)= 0.44037E-06
  rms(prec ) = 0.54918E-06
  weight for this iteration     100.00
  WARNING: grid for Broyden might be to small

 eigenvalues of (default mixing * dielectric matrix)
  average eigenvalue GAMMA=   1.7935
  3.2933  2.6825  2.6825  2.3871  2.3871  2.1629  1.2948  1.2948  1.2630  1.0556
  1.0047  0.9352  0.8724

 Free energy of the ion-electron system (eV)
  ---------------------------------------------------
  alpha Z        PSCENC =       210.78028765
  Ewald energy   TEWEN  =    -14524.86349259
  -Hartree energ DENC   =      -991.73430427
  -exchange      EXHF   =         0.00000000
  -V(xc)+E(xc)   XCENC  =     -1153.28593525
  PAW double counting   =      4723.40879857    -2485.14695024
  entropy T*S    EENTRO =        -0.00000000
  eigenvalues    EBANDS =       345.79273627
  atomic energy  EATOM  =     13192.48085998
  Solvation  Ediel_sol  =         0.00000000
  ---------------------------------------------------
  free energy    TOTEN  =      -682.56799986 eV

  energy without entropy =     -682.56799986  energy(sigma->0) =     -682.56799986


--------------------------------------------------------------------------------------------------------




--------------------------------------- Iteration      1(  19)  ---------------------------------------


    POTLOK:  cpu time    0.2212: real time    0.2220
    SETDIJ:  cpu time    0.2735: real time    0.2741
     EDDAV:  cpu time    3.2464: real time    3.2543
       DOS:  cpu time    0.0003: real time    0.0003
    --------------------------------------------
      LOOP:  cpu time    3.7414: real time    3.7507

 eigenvalue-minimisations  :   352
 total energy-change (2. order) : 0.1171429E-08  (-0.6186163E-12)
 number of electron     511.9999999 magnetization 
 augmentation part      -28.9794728 magnetization 

 Free energy of the ion-electron system (eV)
  ---------------------------------------------------
  alpha Z        PSCENC =       210.78028765
  Ewald energy   TEWEN  =    -14524.86349259
  -Hartree energ DENC   =      -991.73429769
  -exchange      EXHF   =         0.00000000
  -V(xc)+E(xc)   XCENC  =     -1153.28593752
  PAW double counting   =      4723.40870172    -2485.14685491
  entropy T*S    EENTRO =        -0.00000000
  eigenvalues    EBANDS =       345.79273350
  atomic energy  EATOM  =     13192.48085998
  Solvation  Ediel_sol  =         0.00000000
  ---------------------------------------------------
  free energy    TOTEN  =      -682.56799986 eV

  energy without entropy =     -682.56799986  energy(sigma->0) =     -682.56799986


--------------------------------------------------------------------------------------------------------




 average (electrostatic) potential at core
  the test charge radii are     0.9892
  (the norm of the test charge is              1.0000)
       1 -83.4139       2 -83.4139       3 -83.4116       4 -83.4140       5 -83.4125
       6 -83.4122       7 -83.4114       8 -83.4121       9 -83.4121      10 -83.4114
      11 -83.4133      12 -83.4131      13 -83.4134      14 -83.4133      15 -83.4133
      16 -83.4133      17 -83.4122      18 -83.4125      19 -83.4136      20 -83.4132
      21 -83.4135      22 -83.4135      23 -83.4133      24 -83.4134      25 -83.4140
      26 -83.4116      27 -83.4135      28 -83.4135      29 -83.4132      30 -83.4136
      31 -83.4131      32 -83.4133      33 -83.4137      34 -83.4137      35 -83.4137
      36 -83.4135      37 -83.4150      38 -83.4138      39 -83.4139      40 -83.4157
      41 -83.4137      42 -83.4137      43 -83.4139      44 -83.4137      45 -83.4140
      46 -83.4140      47 -83.4138      48 -83.4140      49 -83.4140      50 -83.4136
      51 -83.4139      52 -83.4139      53 -83.4137      54 -83.4139      55 -83.4137
      56 -83.4137      57 -83.4156      58 -83.4141      59 -83.4137      60 -83.4139
      61 -83.4137      62 -83.4136      63 -83.4140      64 -83.4137      65 -83.4136
      66 -83.4136      67 -83.4151      68 -83.4139      69 -83.4140      70 -83.4147
      71 -83.4138      72 -83.4138      73 -83.4138      74 -83.4138      75 -83.4140
      76 -83.4141      77 -83.4137      78 -83.4140      79 -83.4137      80 -83.4137
      81 -83.4147      82 -83.4140      83 -83.4138      84 -83.4140      85 -83.4137
      86 -83.4137      87 -83.4140      88 -83.4137      89 -83.4139      90 -83.4151
      91 -83.4138      92 -83.4138      93 -83.4140      94 -83.4138      95 -83.4141
      96 -83.4140      97 -83.4137      98 -83.4137      99 -83.4141     100 -83.4156
     101 -83.4136     102 -83.4140     103 -83.4137     104 -83.4137     105 -83.4157
     106 -83.4139     107 -83.4137     108 -83.4140     109 -83.4137     110 -83.4137
     111 -83.4140     112 -83.4138     113 -83.4138     114 -83.4150     115 -83.4136
     116 -83.4137     117 -83.4139     118 -83.4137     119 -83.4140     120 -83.4140
     121 -83.4135     122 -83.4137     123 -83.4139     124 -83.4137     125 -83.4139
     126 -83.4139     127 -83.4137     128 -83.4139
 
 
 
 E-fermi :   5.9201     XC(G=0):  -9.3007     alpha+bet :-11.7327


 k-point     1 :       0.0000    0.0000    0.0000
  band No.  band energies     occupation 
      1      -6.1630      2.00000
      2      -5.3784      2.00000
      3      -5.3783      2.00000
      4      -5.3778      2.00000
      5      -5.3776      2.00000
      6      -5.3775      2.00000
      7      -5.3774      2.00000
      8      -5.3771      2.00000
      9      -5.3757      2.00000
     10      -5.1004      2.00000
     11      -5.1003      2.00000
     12      -5.0999      2.00000
     13      -5.0997      2.00000
     14      -5.0994      2.00000
     15      -5.0981      2.00000
     16      -4.1591      2.00000
     17      -4.1580      2.00000
     18      -4.1576      2.00000
     19      -4.1575      2.00000
     20      -4.1571      2.00000
     21      -4.1570      2.00000
     22      -4.1570      2.00000
     23      -4.1569      2.00000
     24      -4.1569      2.00000
     25      -4.1568      2.00000
     26      -4.1560      2.00000
     27      -4.1536      2.00000
     28      -3.8820      2.00000
     29      -3.8816      2.00000
     30      -3.8807      2.00000
     31      -3.8804      2.00000
     32      -3.5011      2.00000
     33      -3.4977      2.00000
     34      -3.4975      2.00000
     35      -3.4975      2.00000
     36      -3.4966      2.00000
     37      -3.4966      2.00000
     38      -3.4965      2.00000
     39      -3.4964      2.00000
     40      -3.4964      2.00000
     41      -3.4963      2.00000
     42      -3.4963      2.00000
     43      -3.4963      2.00000
     44      -3.4963      2.00000
     45      -3.4962      2.00000
     46      -3.4962      2.00000
     47      -3.4962      2.00000
     48      -3.4962      2.00000
     49      -3.4962      2.00000
     50      -3.4961      2.00000
     51      -3.4960      2.00000
     52      -3.4960      2.00000
     53      -3.4958      2.00000
     54      -3.4935      2.00000
     55      -3.4895      2.00000
     56      -2.0925      2.00000
     57      -2.0914      2.00000
     58      -2.0914      2.00000
     59      -2.0909      2.00000
     60      -2.0901      2.00000
     61      -2.0893      2.00000
     62      -1.9382      2.00000
     63      -1.9364      2.00000
     64      -1.9364      2.00000
     65      -1.9356      2.00000
     66      -1.9356      2.00000
     67      -1.9354      2.00000
     68      -1.9354      2.00000
     69      -1.9354      2.00000
     70      -1.9353      2.00000
     71      -1.9353      2.00000
     72      -1.9337      2.00000
     73      -1.9321      2.00000
     74      -1.2193      2.00000
     75      -1.2186      2.00000
     76      -1.2183      2.00000
     77      -1.2175      2.00000
     78      -0.6737      2.00000
     79      -0.6707      2.00000
     80      -0.6707      2.00000
     81      -0.6693      2.00000
     82      -0.6690      2.00000
     83      -0.6689      2.00000
     84      -0.6689      2.00000
     85      -0.6689      2.00000
     86      -0.6688      2.00000
     87      -0.6688      2.00000
     88      -0.6688      2.00000
     89      -0.6687      2.00000
     90      -0.6687      2.00000
     91      -0.6686      2.00000
     92      -0.6686      2.00000
     93      -0.6686      2.00000
     94      -0.6685      2.00000
     95      -0.6684      2.00000
     96      -0.6684      2.00000
     97      -0.6684      2.00000
     98      -0.6683      2.00000
     99      -0.6677      2.00000
    100      -0.6653      2.00000
    101      -0.6624      2.00000
    102       0.2145      2.00000
    103       0.2154      2.00000
    104       0.2155      2.00000
    105       0.2165      2.00000
    106       0.2167      2.00000
    107       0.2167      2.00000
    108       0.2167      2.00000
    109       0.2168      2.00000
    110       0.2168      2.00000
    111       0.2172      2.00000
    112       0.2186      2.00000
    113       0.2196      2.00000
    114       1.7665      2.00000
    115       1.7669      2.00000
    116       1.7675      2.00000
    117       1.7676      2.00000
    118       1.7677      2.00000
    119       1.7681      2.00000
    120       1.7690      2.00000
    121       1.7694      2.00000
    122       1.8849      2.00000
    123       1.8850      2.00000
    124       1.8857      2.00000
    125       1.8858      2.00000
    126       1.8859      2.00000
    127       1.8859      2.00000
    128       1.8859      2.00000
    129       1.8860      2.00000
    130       1.8861      2.00000
    131       1.8864      2.00000
    132       1.8867      2.00000
    133       1.8877      2.00000
    134       1.9776      2.00000
    135       1.9781      2.00000
    136       1.9783      2.00000
    137       1.9784      2.00000
    138       1.9784      2.00000
    139       1.9786      2.00000
    140       1.9789      2.00000
    141       1.9790      2.00000
    142       1.9791      2.00000
    143       1.9797      2.00000
    144       1.9802      2.00000
    145       1.9803      2.00000
    146       2.1398      2.00000
    147       2.1400      2.00000
    148       2.1408      2.00000
    149       2.1413      2.00000
    150       2.1420      2.00000
    151       2.1425      2.00000
    152       2.1844      2.00000
    153       2.1848      2.00000
    154       2.1857      2.00000
    155       2.1858      2.00000
    156       2.1861      2.00000
    157       2.1865      2.00000
    158       2.1866      2.00000
    159       2.1867      2.00000
    160       2.1867      2.00000
    161       2.1868      2.00000
    162       2.1868      2.00000
    163       2.1868      2.00000
    164       2.1869      2.00000
    165       2.1869      2.00000
    166       2.1869      2.00000
    167       2.1869      2.00000
    168       2.1870      2.00000
    169       2.1870      2.00000
    170       2.1871      2.00000
    171       2.1874      2.00000
    172       2.1878      2.00000
    173       2.1891      2.00000
    174       2.1891      2.00000
    175       2.1904      2.00000
    176       2.8561      2.00000
    177       2.8563      2.00000
    178       2.8565      2.00000
    179       2.8566      2.00000
    180       2.8567      2.00000
    181       2.8574      2.00000
    182       3.4901      2.00000
    183       3.4902      2.00000
    184       3.4916      2.00000
    185       3.4916      2.00000
    186       3.4921      2.00000
    187       3.4922      2.00000
    188       3.4922      2.00000
    189       3.4923      2.00000
    190       3.4923      2.00000
    191       3.4924      2.00000
    192       3.4924      2.00000
    193       3.4924      2.00000
    194       3.4925      2.00000
    195       3.4925      2.00000
    196       3.4925      2.00000
    197       3.4926      2.00000
    198       3.4926      2.00000
    199       3.4926      2.00000
    200       3.4926      2.00000
    201       3.4928      2.00000
    202       3.4929      2.00000
    203       3.4941      2.00000
    204       3.4942      2.00000
    205       3.4966      2.00000
    206       3.8019      2.00000
    207       3.8029      2.00000
    208       3.8033      2.00000
    209       3.8036      2.00000
    210       3.8037      2.00000
    211       3.8037      2.00000
    212       3.8039      2.00000
    213       3.8039      2.00000
    214       3.8041      2.00000
    215       3.8041      2.00000
    216       3.8048      2.00000
    217       3.8062      2.00000
    218       4.3508      2.00000
    219       4.3512      2.00000
    220       4.3524      2.00000
    221       4.3525      2.00000
    222       4.3526      2.00000
    223       4.3526      2.00000
    224       4.3527      2.00000
    225       4.3528      2.00000
    226       4.3529      2.00000
    227       4.3537      2.00000
    228       4.3540      2.00000
    229       4.3554      2.00000
    230       4.4763      2.00000
    231       4.4765      2.00000
    232       4.4774      2.00000
    233       4.4775      2.00000
    234       4.4777      2.00000
    235       4.4781      2.00000
    236       4.4784      2.00000
    237       4.4797      2.00000
    238       4.9079      2.00000
    239       4.9101      2.00000
    240       4.9113      2.00000
    241       4.9114      2.00000
    242       4.9116      2.00000
    243       4.9116      2.00000
    244       4.9117      2.00000
    245       4.9117      2.00000
    246       4.9118      2.00000
    247       4.9118      2.00000
    248       4.9119      2.00000
    249       4.9119      2.00000
    250       4.9120      2.00000
    251       4.9124      2.00000
    252       4.9132      2.00000
    253       4.9163      2.00000
    254       5.6594      2.00000
    255       5.6604      2.00000
    256       5.6615      2.00000
    257       6.3943      0.00000
    258       6.3944      0.00000
    259       6.3947      0.00000
    260       6.3952      0.00000
    261       6.3960      0.00000
    262       6.3961      0.00000
    263       6.7951      0.00000
    264       6.7957      0.00000
    265       6.7957      0.00000
    266       6.7963      0.00000
    267       6.7973      0.00000
    268       6.7975      0.00000
    269       7.1206      0.00000
    270       7.1208      0.00000
    271       7.1208      0.00000
    272       7.1211      0.00000
    273       7.1828      0.00000
    274       7.1834      0.00000
    275       7.1843      0.00000
    276       7.1846      0.00000
    277       7.1856      0.00000
    278       7.1857      0.00000
    279       7.1858      0.00000
    280       7.1858      0.00000
    281       7.1859      0.00000
    282       7.1859      0.00000
    283       7.1859      0.00000
    284       7.1860      0.00000
    285       7.1860      0.00000
    286       7.1860      0.00000
    287       7.1860      0.00000
    288       7.1861      0.00000
    289       7.1861      0.00000
    290       7.1861      0.00000
    291       7.1862      0.00000
    292       7.1862      0.00000
    293       7.1863      0.00000
    294       7.1873      0.00000
    295       7.1897      0.00000
    296       7.1904      0.00000
    297       7.6116      0.00000
    298       7.6117      0.00000
    299       7.6118      0.00000
    300       7.6121      0.00000
    301       7.6122      0.00000
    302       7.6124      0.00000
    303       7.6128      0.00000
    304       7.6132      0.00000
    305       8.0811      0.00000
    306       8.0817      0.00000
    307       8.0818      0.00000
    308       8.0825      0.00000
    309       8.0828      0.00000
    310       8.0828      0.00000
    311       8.0829      0.00000
    312       8.0831      0.00000
    313       8.0831      0.00000
    314       8.0836      0.00000
    315       8.0848      0.00000
    316       8.0850      0.00000
    317       8.1987      0.00000
    318       8.1993      0.00000
    319       8.2000      0.00000
    320       8.7787      0.00000
    321       8.7793      0.00000
    322       8.7871      0.00000


--------------------------------------------------------------------------------------------------------


 soft charge-density along one line, spin component           1
         0         1         2         3         4         5         6         7         8         9
 total charge-density along one line
 
 pseudopotential strength for first ion, spin component:           1
 18.431  -0.001   0.000  -0.000   0.000  -0.000  -0.000  -0.000
 -0.001   0.006  -0.000  -0.000  -0.000   0.000   0.000   0.000
  0.000  -0.000   4.180  -0.000  -0.000  -0.004   0.000   0.000
 -0.000  -0.000  -0.000   4.180  -0.000   0.000  -0.004   0.000
  0.000  -0.000  -0.000  -0.000   4.180   0.000   0.000  -0.004
 -0.000   0.000  -0.004   0.000   0.000   0.005  -0.000  -0.000
 -0.000   0.000   0.000  -0.004   0.000  -0.000   0.005  -0.000
 -0.000   0.000   0.000   0.000  -0.004  -0.000  -0.000   0.005
 total augmentation occupancy for first ion, spin component:           1
  1.464  -0.790   0.001   0.000   0.003  -0.001  -0.001  -0.005
 -0.790   0.729  -0.001  -0.002  -0.004   0.001   0.002   0.006
  0.001  -0.001   1.036  -0.005  -0.001  -0.550   0.005   0.001
  0.000  -0.002  -0.005   1.036  -0.001   0.005  -0.549   0.001
  0.003  -0.004  -0.001  -0.001   1.036   0.001   0.001  -0.549
 -0.001   0.001  -0.550   0.005   0.001   0.350  -0.005  -0.001
 -0.001   0.002   0.005  -0.549   0.001  -0.005   0.350  -0.001
 -0.005   0.006   0.001   0.001  -0.549  -0.001  -0.001   0.349


------------------------ aborting loop because EDIFF is reached ----------------------------------------


    CHARGE:  cpu time    0.4914: real time    0.4925
    FORLOC:  cpu time    0.1904: real time    0.1908
    FORNL :  cpu time    5.3461: real time    5.3618
    STRESS:  cpu time    8.7597: real time    8.7844
    FORCOR:  cpu time    0.4014: real time    0.4024
    FORHAR:  cpu time    0.2395: real time    0.2400
    MIXING:  cpu time    0.0099: real time    0.0099
    OFIELD:  cpu time    0.0001: real time    0.0001

  FORCE on cell =-STRESS in cart. coord.  units (eV):
  Direction    XX          YY          ZZ          XY          YZ          ZX
  --------------------------------------------------------------------------------------
  Alpha Z   210.78029   210.78029   210.78029
  Ewald   -4841.67434 -4841.67434 -4841.66160     0.00115    -0.77371    -0.77371
  Hartree   330.57725   330.57725   330.57977     0.00034    -0.08851    -0.08851
  E(xc)   -1619.14457 -1619.14457 -1619.14469    -0.00001     0.00661     0.00661
  Local   -1899.80286 -1899.80286 -1899.81757    -0.00102     0.81797     0.81797
  n-local  4936.76719  4936.76719  4936.76964     0.00033    -0.15863    -0.15863
  augment  -736.53097  -736.53097  -736.53111    -0.00029     0.00672     0.00672
  Kinetic  3628.38951  3628.38951  3628.38887     0.00005     0.10321     0.10321
  Fock        0.00000     0.00000     0.00000     0.00000     0.00000     0.00000
  -------------------------------------------------------------------------------------
  Total       9.36150     9.36150     9.36360     0.00054    -0.08633    -0.08633
  in kB       5.73208     5.73208     5.73337     0.00033    -0.05286    -0.05286
  external pressure =        5.73 kB  Pullay stress =        0.00 kB


 VOLUME and BASIS-vectors are now :
 -----------------------------------------------------------------------------
  energy-cutoff  :      500.00
  volume of cell :     2616.64
      direct lattice vectors                 reciprocal lattice vectors
     0.000000000 10.937160696 10.937160696    -0.045715704  0.045715704  0.045715704
    10.937160696  0.000000000 10.937160696     0.045715704 -0.045715704  0.045715704
    10.937160696 10.937160696  0.000000000     0.045715704  0.045715704 -0.045715704

  length of vectors
    15.467480990 15.467480990 15.467480990     0.079181922  0.079181922  0.079181922


 FORCES acting on ions
    electron-ion (+dipol)            ewald-force                    non-local-force                 convergence-correction
 -----------------------------------------------------------------------------------------------
   0.725E+00 0.438E-02 0.198E+00   -.641E+00 -.369E-02 -.171E+00   -.234E+00 -.327E-01 -.466E-01   -.195E-05 0.408E-06 -.636E-06
   -.438E-02 -.725E+00 -.198E+00   0.369E-02 0.641E+00 0.171E+00   0.327E-01 0.234E+00 0.466E-01   -.356E-06 0.201E-05 0.520E-06
   0.304E-01 0.312E-02 0.127E-01   -.407E-01 -.854E-02 -.170E-01   0.586E-02 0.616E-02 0.509E-02   0.156E-06 0.287E-07 -.301E-06
   -.616E-02 0.226E+00 0.260E+00   0.453E-02 -.197E+00 -.233E+00   0.332E-01 -.507E-01 -.491E-01   -.421E-06 -.686E-06 -.120E-05
   -.660E-02 0.872E-02 0.183E-01   0.708E-03 -.841E-02 -.169E-01   0.375E-02 -.520E-03 -.159E-02   -.165E-06 0.260E-06 0.210E-07
   0.121E-01 0.101E-01 0.144E-01   -.576E-02 -.122E-01 -.174E-01   -.429E-02 0.242E-02 0.308E-02   -.209E-06 0.291E-06 0.133E-06
   -.177E+00 0.893E-02 0.207E+00   0.138E+00 -.273E-02 -.174E+00   0.547E-01 -.400E-01 -.549E-01   0.525E-06 0.457E-06 -.347E-06
   0.129E-01 0.230E-01 0.578E-01   -.576E-02 -.189E-01 -.558E-01   -.416E-02 -.621E-02 -.456E-02   -.605E-07 -.272E-06 -.683E-06
   -.230E-01 -.129E-01 -.578E-01   0.189E-01 0.576E-02 0.558E-01   0.621E-02 0.416E-02 0.456E-02   0.341E-06 0.173E-06 0.723E-06
   -.893E-02 0.177E+00 -.207E+00   0.273E-02 -.138E+00 0.174E+00   0.400E-01 -.547E-01 0.549E-01   -.451E-06 -.587E-06 0.356E-06
   -.461E-02 0.972E-03 -.418E-02   0.349E-02 -.141E-02 0.499E-02   0.841E-03 0.416E-03 -.275E-03   0.201E-06 -.169E-06 -.996E-07
   0.158E-01 -.454E-02 -.144E-01   -.163E-01 0.605E-02 0.124E-01   0.512E-03 -.127E-02 0.148E-02   0.331E-06 -.218E-06 0.149E-06
   -.193E-01 0.165E-01 0.826E-02   0.174E-01 -.164E-01 -.694E-02   0.222E-02 -.442E-03 -.572E-03   0.177E-06 0.243E-06 0.338E-06
   -.632E-02 0.114E-01 0.549E-02   0.645E-02 -.112E-01 -.696E-02   -.509E-04 -.451E-04 0.116E-02   0.456E-07 0.106E-06 0.816E-07
   -.466E-01 0.473E-01 -.374E-02   0.440E-01 -.464E-01 0.653E-02   0.392E-02 -.267E-02 -.149E-02   0.312E-06 -.864E-06 -.292E-06
   -.473E-01 0.466E-01 0.374E-02   0.464E-01 -.440E-01 -.653E-02   0.267E-02 -.392E-02 0.149E-02   0.844E-06 -.280E-06 0.318E-06
   -.101E-01 -.121E-01 -.144E-01   0.122E-01 0.576E-02 0.174E-01   -.242E-02 0.429E-02 -.308E-02   -.370E-06 0.279E-06 -.174E-06
   -.872E-02 0.660E-02 -.183E-01   0.841E-02 -.708E-03 0.169E-01   0.520E-03 -.375E-02 0.159E-02   -.192E-06 0.268E-06 0.319E-07
   -.281E-01 0.161E-01 -.131E-01   0.270E-01 -.164E-01 0.127E-01   0.131E-02 -.426E-04 0.140E-03   0.142E-06 0.170E-06 -.856E-07
   -.136E-01 0.172E-02 -.126E-01   0.144E-01 -.157E-02 0.113E-01   -.480E-03 -.927E-04 0.937E-03   0.503E-07 -.708E-09 -.738E-07
   -.173E-01 0.188E-01 0.173E-02   0.165E-01 -.191E-01 -.109E-02   0.897E-03 -.178E-03 -.480E-03   -.161E-06 0.369E-07 0.265E-07
   -.188E-01 0.173E-01 -.173E-02   0.191E-01 -.165E-01 0.109E-02   0.178E-03 -.897E-03 0.480E-03   0.915E-08 0.207E-06 0.773E-07
   -.114E-01 0.632E-02 -.549E-02   0.112E-01 -.645E-02 0.696E-02   0.450E-04 0.509E-04 -.116E-02   0.317E-09 -.669E-07 -.164E-06
   -.165E-01 0.193E-01 -.826E-02   0.164E-01 -.174E-01 0.694E-02   0.442E-03 -.222E-02 0.572E-03   -.183E-06 -.194E-06 -.326E-06
   -.226E+00 0.616E-02 -.260E+00   0.197E+00 -.453E-02 0.233E+00   0.507E-01 -.332E-01 0.491E-01   0.656E-06 0.426E-06 0.132E-05
   -.312E-02 -.304E-01 -.127E-01   0.854E-02 0.407E-01 0.170E-01   -.616E-02 -.586E-02 -.509E-02   -.123E-06 -.527E-07 0.306E-06
   -.462E-01 0.979E-01 0.203E-01   0.440E-01 -.989E-01 -.204E-01   0.334E-02 -.907E-03 -.446E-03   0.320E-06 -.904E-06 -.287E-06
   -.979E-01 0.462E-01 -.203E-01   0.989E-01 -.440E-01 0.204E-01   0.907E-03 -.334E-02 0.446E-03   0.873E-06 -.359E-06 0.234E-06
   -.171E-02 0.136E-01 0.126E-01   0.157E-02 -.144E-01 -.113E-01   0.927E-04 0.480E-03 -.937E-03   -.227E-06 0.530E-07 -.486E-07
   -.161E-01 0.281E-01 0.131E-01   0.164E-01 -.270E-01 -.127E-01   0.426E-04 -.131E-02 -.140E-03   -.283E-06 -.114E-07 0.170E-06
   0.454E-02 -.158E-01 0.144E-01   -.605E-02 0.163E-01 -.124E-01   0.127E-02 -.512E-03 -.148E-02   0.268E-06 -.314E-06 -.213E-06
   -.972E-03 0.461E-02 0.418E-02   0.141E-02 -.349E-02 -.499E-02   -.416E-03 -.841E-03 0.275E-03   0.101E-06 -.211E-06 -.862E-07
   -.677E-02 -.511E-01 0.492E-02   0.661E-02 0.520E-01 -.463E-02   0.155E-02 0.971E-03 -.772E-03   0.493E-08 0.761E-06 0.204E-07
   0.561E-01 -.177E+00 0.201E+00   -.573E-01 0.150E+00 -.174E+00   0.320E-01 0.452E-01 -.485E-01   -.977E-06 0.393E-06 -.669E-06
   0.265E-02 -.432E-02 0.109E-02   -.258E-02 0.435E-02 -.741E-03   0.418E-03 0.374E-03 -.233E-03   0.170E-06 0.292E-08 -.233E-06
   0.199E-01 -.121E-01 0.281E-02   -.220E-01 0.103E-01 -.149E-02   0.170E-02 0.138E-02 -.113E-02   0.281E-06 0.251E-06 -.308E-06
   -.304E-02 -.960E-02 0.987E-02   0.508E-02 0.351E-02 -.127E-01   -.241E-02 0.431E-02 0.311E-02   0.215E-07 0.329E-06 0.146E-06
   -.218E-02 -.193E-02 0.902E-02   0.687E-03 0.641E-03 -.912E-02   0.114E-02 0.103E-02 0.469E-04   0.887E-07 0.891E-07 -.423E-07
   -.339E-02 -.116E-01 0.553E-01   0.298E-02 0.139E-01 -.539E-01   0.233E-02 -.102E-02 -.313E-02   -.965E-07 -.131E-06 -.849E-06
   0.184E-01 -.202E-01 0.157E-01   -.141E-01 0.295E-01 -.203E-01   -.556E-02 -.480E-02 0.595E-02   0.352E-06 0.435E-06 -.200E-06
   -.619E-02 -.387E-02 -.110E-01   0.711E-02 0.435E-02 0.111E-01   -.481E-03 -.205E-04 -.251E-03   -.871E-07 0.569E-07 0.640E-07
   -.314E-01 -.212E-01 -.179E-01   0.310E-01 0.201E-01 0.183E-01   0.122E-03 0.622E-03 -.433E-03   0.197E-06 0.194E-06 0.198E-06
   -.739E-02 0.349E-02 -.363E-02   0.672E-02 -.368E-02 0.303E-02   0.391E-03 0.442E-03 0.210E-03   0.136E-06 0.746E-07 -.167E-07
   -.416E-02 -.247E-02 -.553E-02   0.368E-02 0.192E-02 0.561E-02   0.382E-03 0.468E-03 -.604E-04   0.599E-07 0.225E-06 -.732E-07
   -.138E-01 0.719E-02 0.782E-02   0.142E-01 -.738E-02 -.807E-02   -.326E-03 0.137E-03 0.397E-04   -.149E-06 -.256E-07 -.121E-07
   -.113E-01 0.548E-02 0.876E-02   0.117E-01 -.605E-02 -.790E-02   -.306E-03 0.447E-03 -.612E-03   0.733E-07 0.722E-07 0.347E-07
   -.258E-01 -.169E-03 0.437E-03   0.262E-01 0.649E-03 -.233E-04   -.255E-03 -.324E-03 -.421E-03   0.225E-06 -.659E-07 -.793E-07
   -.385E-01 0.108E-01 0.216E-01   0.390E-01 -.110E-01 -.206E-01   -.565E-03 0.258E-03 -.697E-03   0.168E-06 -.342E-06 -.291E-06
   -.672E-02 0.113E-01 -.261E-01   0.511E-02 -.107E-01 0.249E-01   0.123E-02 -.484E-03 0.152E-02   -.791E-08 0.429E-06 0.857E-07
   -.972E-02 -.174E-02 -.165E-01   0.863E-02 0.615E-03 0.170E-01   0.878E-03 0.863E-03 -.418E-03   -.699E-07 0.944E-07 0.365E-08
   -.499E-02 0.203E-01 -.652E-02   0.451E-02 -.204E-01 0.632E-02   0.602E-03 0.317E-04 -.532E-04   0.103E-06 -.121E-06 -.185E-06
   -.115E-01 0.150E-01 -.129E-01   0.117E-01 -.157E-01 0.136E-01   -.137E-03 0.655E-03 -.580E-03   0.136E-06 0.103E-06 0.605E-07
   -.636E-02 0.865E-02 0.126E-02   0.655E-02 -.845E-02 -.102E-02   -.120E-03 -.925E-04 -.231E-03   0.274E-07 -.639E-07 -.167E-07
   -.111E-01 0.146E-01 0.187E-02   0.111E-01 -.145E-01 -.110E-02   0.847E-04 -.705E-04 -.626E-03   -.295E-07 -.120E-06 -.545E-07
   -.568E-02 -.307E-03 -.862E-02   0.556E-02 0.649E-03 0.883E-02   0.218E-03 -.174E-03 -.181E-03   0.944E-07 -.413E-08 -.121E-06
   -.127E-01 0.352E-02 -.380E-02   0.124E-01 -.407E-02 0.406E-02   0.221E-03 0.401E-03 -.220E-03   0.665E-07 0.419E-08 -.906E-07
   0.457E-01 0.442E-01 -.269E-01   -.565E-01 -.389E-01 0.205E-01   0.622E-02 -.616E-02 0.696E-02   -.110E-06 -.774E-07 0.949E-07
   0.132E-01 0.297E-01 -.812E-01   -.139E-01 -.302E-01 0.806E-01   0.140E-02 -.146E-02 0.227E-02   0.396E-06 0.218E-06 0.859E-06
   0.143E-01 0.125E-01 0.444E-02   -.136E-01 -.124E-01 -.403E-02   -.464E-03 -.332E-04 -.431E-03   0.260E-06 -.624E-07 -.259E-06
   0.124E-01 0.513E-01 -.456E-02   -.139E-01 -.506E-01 0.655E-02   0.118E-02 -.486E-03 -.165E-02   0.288E-06 -.388E-06 -.388E-06
   0.411E-04 -.385E-03 0.415E-02   0.424E-04 0.663E-03 -.402E-02   0.506E-04 -.135E-03 -.131E-03   0.407E-07 0.120E-06 -.389E-07
   0.336E-04 0.919E-02 0.506E-02   -.649E-03 -.956E-02 -.478E-02   0.472E-03 0.257E-03 -.294E-03   0.843E-08 0.531E-07 -.993E-07
   0.149E-01 -.129E-01 -.217E-01   -.161E-01 0.139E-01 0.206E-01   0.115E-02 -.722E-03 0.798E-03   0.603E-06 0.172E-07 0.177E-06
   -.294E-03 -.107E-01 -.402E-02   -.649E-03 0.958E-02 0.410E-02   0.787E-03 0.916E-03 -.552E-04   0.191E-06 -.802E-07 -.144E-06
   0.103E-01 -.361E-02 -.572E-02   -.944E-02 0.432E-02 0.465E-02   -.961E-03 -.547E-03 0.597E-03   -.198E-06 0.274E-06 -.543E-11
   0.361E-02 -.103E-01 0.572E-02   -.432E-02 0.944E-02 -.465E-02   0.547E-03 0.961E-03 -.597E-03   -.225E-06 0.245E-06 0.635E-07
   -.775E-02 -.195E-01 0.528E-02   0.550E-02 0.138E-01 -.339E-02   0.277E-02 0.382E-02 -.257E-02   0.228E-06 0.763E-07 -.200E-06
   0.666E-03 -.938E-02 -.151E-02   -.171E-02 0.854E-02 0.120E-02   0.893E-03 0.655E-03 0.195E-03   0.149E-06 0.204E-07 -.475E-07
   -.610E-02 -.103E-02 0.142E-01   0.641E-02 0.159E-02 -.138E-01   -.771E-05 -.478E-03 -.616E-03   -.291E-06 -.366E-07 -.895E-07
   -.647E-02 -.865E-03 0.933E-02   0.632E-02 0.503E-02 -.898E-02   0.205E-03 -.265E-02 -.265E-03   0.519E-07 0.133E-06 -.140E-07
   -.156E-03 -.884E-03 0.911E-02   0.115E-02 0.171E-02 -.914E-02   -.864E-03 -.730E-03 0.415E-04   -.204E-06 -.541E-07 0.118E-07
   -.890E-03 -.472E-02 0.158E-01   0.372E-03 0.417E-02 -.147E-01   0.579E-03 -.279E-04 -.162E-02   -.319E-06 -.189E-06 -.209E-06
   0.472E-02 0.890E-03 -.158E-01   -.417E-02 -.372E-03 0.147E-01   0.279E-04 -.579E-03 0.162E-02   0.841E-07 0.297E-06 0.276E-06
   0.884E-03 0.156E-03 -.911E-02   -.171E-02 -.115E-02 0.914E-02   0.730E-03 0.864E-03 -.414E-04   -.846E-07 0.242E-06 0.712E-09
   -.576E-03 -.273E-02 0.387E-02   0.457E-03 0.296E-02 -.401E-02   0.215E-03 -.344E-03 0.745E-05   -.693E-08 -.276E-06 -.226E-06
   -.945E-03 -.556E-02 -.162E-02   0.141E-02 0.515E-02 0.243E-02   -.290E-03 0.326E-03 -.625E-03   0.720E-07 0.994E-07 -.130E-06
   -.411E-02 0.416E-02 0.577E-02   0.451E-02 -.370E-02 -.579E-02   -.282E-03 -.367E-03 0.449E-04   -.433E-08 -.320E-08 0.658E-07
   -.629E-02 0.126E-02 0.956E-02   0.634E-02 -.111E-02 -.901E-02   0.212E-04 -.109E-03 -.458E-03   -.190E-06 -.737E-07 -.105E-06
   -.125E-02 0.786E-02 -.413E-02   0.149E-02 -.764E-02 0.405E-02   -.168E-03 -.160E-03 0.116E-03   0.192E-07 -.616E-07 -.280E-07
   -.786E-02 0.125E-02 0.413E-02   0.764E-02 -.149E-02 -.405E-02   0.160E-03 0.168E-03 -.116E-03   0.607E-08 -.813E-07 0.640E-08
   0.865E-03 0.647E-02 -.933E-02   -.503E-02 -.632E-02 0.898E-02   0.265E-02 -.205E-03 0.265E-03   -.137E-06 -.580E-07 0.667E-07
   0.103E-02 0.610E-02 -.142E-01   -.159E-02 -.641E-02 0.138E-01   0.478E-03 0.770E-05 0.616E-03   0.536E-07 0.269E-06 0.180E-06
   0.160E-02 0.421E-02 -.915E-03   -.997E-03 -.369E-02 0.101E-02   -.451E-03 -.406E-03 -.107E-03   0.137E-06 -.169E-06 0.526E-08
   0.117E-02 0.711E-02 -.273E-02   -.159E-02 -.660E-02 0.366E-02   0.324E-03 -.442E-03 -.767E-03   0.401E-07 -.264E-06 -.660E-07
   -.445E-02 0.402E-02 -.113E-02   0.471E-02 -.370E-02 0.102E-02   -.171E-03 -.219E-03 0.800E-04   0.172E-08 -.143E-06 0.324E-07
   -.402E-02 0.445E-02 0.113E-02   0.370E-02 -.471E-02 -.102E-02   0.219E-03 0.171E-03 -.800E-04   0.137E-06 -.348E-07 0.440E-07
   -.126E-02 0.629E-02 -.956E-02   0.111E-02 -.634E-02 0.901E-02   0.109E-03 -.212E-04 0.459E-03   0.103E-06 0.411E-07 0.248E-06
   -.416E-02 0.411E-02 -.577E-02   0.370E-02 -.451E-02 0.579E-02   0.367E-03 0.282E-03 -.448E-04   0.121E-07 -.141E-06 -.702E-08
   0.938E-02 -.666E-03 0.151E-02   -.854E-02 0.171E-02 -.120E-02   -.655E-03 -.893E-03 -.195E-03   -.159E-06 -.106E-07 0.604E-07
   0.195E-01 0.775E-02 -.528E-02   -.138E-01 -.550E-02 0.339E-02   -.382E-02 -.277E-02 0.257E-02   -.182E-06 -.186E-06 0.211E-06
   -.126E-02 -.482E-02 -.299E-03   0.148E-02 0.542E-02 0.241E-04   -.144E-03 -.448E-03 0.270E-03   0.120E-06 -.108E-06 -.984E-07
   0.482E-02 0.126E-02 0.299E-03   -.542E-02 -.148E-02 -.241E-04   0.448E-03 0.144E-03 -.270E-03   0.754E-07 -.123E-06 -.599E-07
   -.711E-02 -.117E-02 0.273E-02   0.660E-02 0.159E-02 -.366E-02   0.442E-03 -.324E-03 0.767E-03   0.126E-06 0.712E-07 0.163E-06
   -.421E-02 -.160E-02 0.915E-03   0.369E-02 0.997E-03 -.101E-02   0.406E-03 0.451E-03 0.107E-03   0.705E-07 0.366E-08 -.176E-07
   0.556E-02 0.946E-03 0.162E-02   -.515E-02 -.141E-02 -.243E-02   -.326E-03 0.290E-03 0.625E-03   -.143E-06 -.151E-06 0.598E-07
   0.273E-02 0.576E-03 -.387E-02   -.296E-02 -.457E-03 0.401E-02   0.344E-03 -.215E-03 -.742E-05   0.225E-06 -.336E-07 0.218E-06
   0.177E+00 -.561E-01 -.201E+00   -.150E+00 0.573E-01 0.174E+00   -.452E-01 -.320E-01 0.485E-01   -.511E-06 0.986E-06 0.587E-06
   0.511E-01 0.677E-02 -.492E-02   -.520E-01 -.661E-02 0.463E-02   -.971E-03 -.155E-02 0.772E-03   -.855E-06 -.119E-07 0.554E-07
   -.297E-01 -.132E-01 0.812E-01   0.302E-01 0.139E-01 -.806E-01   0.146E-02 -.140E-02 -.227E-02   -.209E-06 -.322E-06 -.892E-06
   -.442E-01 -.457E-01 0.269E-01   0.389E-01 0.565E-01 -.205E-01   0.616E-02 -.622E-02 -.696E-02   0.912E-07 0.161E-06 -.896E-07
   0.174E-02 0.972E-02 0.165E-01   -.615E-03 -.863E-02 -.170E-01   -.863E-03 -.878E-03 0.418E-03   -.185E-06 -.209E-08 -.122E-07
   -.113E-01 0.672E-02 0.261E-01   0.107E-01 -.511E-02 -.249E-01   0.484E-03 -.123E-02 -.152E-02   -.430E-06 0.487E-07 -.153E-06
   0.212E-01 0.314E-01 0.179E-01   -.201E-01 -.310E-01 -.183E-01   -.622E-03 -.122E-03 0.433E-03   -.180E-06 -.161E-06 -.119E-06
   0.387E-02 0.619E-02 0.110E-01   -.435E-02 -.711E-02 -.111E-01   0.205E-04 0.481E-03 0.251E-03   -.996E-07 0.142E-07 -.885E-07
   0.202E-01 -.184E-01 -.157E-01   -.295E-01 0.141E-01 0.203E-01   0.480E-02 0.556E-02 -.595E-02   -.328E-06 -.385E-06 0.272E-06
   0.116E-01 0.339E-02 -.553E-01   -.139E-01 -.298E-02 0.539E-01   0.102E-02 -.233E-02 0.313E-02   0.215E-06 0.109E-06 0.910E-06
   0.107E-01 0.294E-03 0.402E-02   -.958E-02 0.649E-03 -.410E-02   -.916E-03 -.787E-03 0.553E-04   0.213E-06 -.235E-06 0.747E-07
   0.129E-01 -.149E-01 0.217E-01   -.139E-01 0.161E-01 -.206E-01   0.722E-03 -.115E-02 -.797E-03   0.841E-07 -.554E-06 -.283E-06
   -.352E-02 0.127E-01 0.380E-02   0.407E-02 -.124E-01 -.406E-02   -.401E-03 -.221E-03 0.220E-03   -.783E-07 -.982E-07 0.111E-06
   0.307E-03 0.568E-02 0.862E-02   -.649E-03 -.556E-02 -.883E-02   0.174E-03 -.218E-03 0.181E-03   -.234E-07 -.652E-07 0.145E-06
   -.108E-01 0.385E-01 -.216E-01   0.110E-01 -.390E-01 0.206E-01   -.258E-03 0.565E-03 0.697E-03   0.425E-06 -.770E-07 0.272E-06
   0.169E-03 0.258E-01 -.437E-03   -.649E-03 -.262E-01 0.233E-04   0.324E-03 0.255E-03 0.421E-03   0.117E-07 -.240E-06 0.425E-07
   0.193E-02 0.218E-02 -.902E-02   -.641E-03 -.687E-03 0.912E-02   -.103E-02 -.114E-02 -.468E-04   -.205E-06 0.499E-08 0.122E-06
   0.960E-02 0.304E-02 -.987E-02   -.351E-02 -.508E-02 0.127E-01   -.431E-02 0.241E-02 -.311E-02   -.389E-06 0.388E-07 -.178E-06
   -.919E-02 -.334E-04 -.506E-02   0.956E-02 0.649E-03 0.478E-02   -.257E-03 -.472E-03 0.294E-03   -.178E-07 -.185E-06 -.414E-07
   0.385E-03 -.410E-04 -.415E-02   -.663E-03 -.424E-04 0.402E-02   0.135E-03 -.507E-04 0.131E-03   -.346E-08 -.123E-06 0.266E-07
   -.146E-01 0.111E-01 -.187E-02   0.145E-01 -.111E-01 0.110E-02   0.705E-04 -.846E-04 0.626E-03   0.163E-06 0.129E-06 0.128E-06
   -.865E-02 0.636E-02 -.126E-02   0.845E-02 -.655E-02 0.102E-02   0.924E-04 0.120E-03 0.231E-03   -.340E-07 -.123E-06 0.491E-07
   -.548E-02 0.113E-01 -.876E-02   0.605E-02 -.117E-01 0.790E-02   -.447E-03 0.306E-03 0.612E-03   -.439E-07 -.521E-07 -.933E-07
   -.719E-02 0.138E-01 -.782E-02   0.738E-02 -.142E-01 0.807E-02   -.137E-03 0.326E-03 -.397E-04   0.150E-06 0.216E-06 0.691E-07
   0.121E-01 -.199E-01 -.281E-02   -.103E-01 0.220E-01 0.149E-02   -.138E-02 -.170E-02 0.113E-02   -.322E-06 -.241E-06 0.423E-06
   0.432E-02 -.265E-02 -.109E-02   -.435E-02 0.258E-02 0.741E-03   -.374E-03 -.418E-03 0.233E-03   -.112E-06 -.101E-06 0.312E-06
   -.513E-01 -.124E-01 0.456E-02   0.506E-01 0.139E-01 -.655E-02   0.486E-03 -.118E-02 0.165E-02   0.550E-06 -.289E-06 0.286E-06
   -.125E-01 -.143E-01 -.444E-02   0.124E-01 0.136E-01 0.403E-02   0.332E-04 0.464E-03 0.431E-03   0.843E-07 -.344E-06 0.105E-06
   -.150E-01 0.115E-01 0.129E-01   0.157E-01 -.117E-01 -.136E-01   -.655E-03 0.137E-03 0.580E-03   -.102E-06 -.173E-07 0.243E-07
   -.203E-01 0.499E-02 0.652E-02   0.204E-01 -.451E-02 -.632E-02   -.317E-04 -.602E-03 0.532E-04   0.118E-06 -.193E-07 0.294E-06
   0.247E-02 0.416E-02 0.553E-02   -.192E-02 -.368E-02 -.561E-02   -.468E-03 -.382E-03 0.604E-04   -.230E-06 -.128E-06 -.906E-07
   -.349E-02 0.739E-02 0.363E-02   0.368E-02 -.672E-02 -.303E-02   -.442E-03 -.391E-03 -.210E-03   0.381E-07 -.176E-06 -.659E-07
 -----------------------------------------------------------------------------------------------
   0.157E-03 -.156E-03 -.153E-05   0.160E-12 -.420E-12 -.531E-13   -.158E-03 0.157E-03 0.188E-05   0.216E-07 -.786E-09 -.207E-07
 
 
 POSITION                                       TOTAL-FORCE (eV/Angst)
 -----------------------------------------------------------------------------------
      1.37715      1.36715      1.36715        -0.149693     -0.032000     -0.019177
     10.93716     21.86432     10.93716         0.032000      0.149693      0.019177
      1.36715      4.10144      4.10144        -0.004444      0.000738      0.000750
      0.00000      2.73429      2.73429         0.031615     -0.021518     -0.021984
      1.36715      6.83573      6.83573        -0.002142     -0.000210     -0.000199
      0.00000      5.46858      5.46858         0.002039      0.000328      0.000101
      1.36715      9.57002      9.57002         0.015606     -0.033816     -0.021454
      0.00000      8.20287      8.20287         0.002994     -0.002058     -0.002516
      4.10144      1.36715      4.10144         0.002058     -0.002994      0.002516
      2.73429      0.00000      2.73429         0.033816     -0.015606      0.021454
      4.10144      4.10144      6.83573        -0.000284     -0.000019      0.000537
      2.73429      2.73429      5.46858         0.000022      0.000235     -0.000552
      4.10144      6.83573      9.57002         0.000301     -0.000359      0.000741
      2.73429      5.46858      8.20287         0.000073      0.000112     -0.000307
      4.10144      9.57002     12.30431         0.001237     -0.001778      0.001298
      2.73429      8.20287     10.93716         0.001778     -0.001237     -0.001298
      6.83573      1.36715      6.83573        -0.000328     -0.002039     -0.000101
      5.46858      0.00000      5.46858         0.000210      0.002142      0.000199
      6.83573      4.10144      9.57002         0.000242     -0.000416     -0.000265
      5.46858      2.73429      8.20287         0.000264      0.000054     -0.000351
      6.83573      6.83573     12.30431         0.000061     -0.000426      0.000158
      5.46858      5.46858     10.93716         0.000426     -0.000061     -0.000158
      6.83573      9.57002     15.03860        -0.000112     -0.000073      0.000307
      5.46858      8.20287     13.67145         0.000359     -0.000301     -0.000741
      9.57002      1.36715      9.57002         0.021518     -0.031615      0.021984
      8.20287      0.00000      8.20287        -0.000738      0.004444     -0.000750
      9.57002      4.10144     12.30431         0.001227     -0.001942     -0.000605
      8.20287      2.73429     10.93716         0.001942     -0.001227      0.000605
      9.57002      6.83573     15.03860        -0.000054     -0.000264      0.000351
      8.20287      5.46858     13.67145         0.000416     -0.000242      0.000265
      9.57002      9.57002     17.77289        -0.000235     -0.000022      0.000552
      8.20287      8.20287     16.40574         0.000019      0.000284     -0.000537
      4.10144      4.10144      1.36715         0.001386      0.001830     -0.000484
      2.73429      2.73429      0.00000         0.030840      0.018949     -0.021485
      4.10144      6.83573      4.10144         0.000490      0.000400      0.000116
      2.73429      5.46858      2.73429        -0.000401     -0.000392      0.000188
      4.10144      9.57002      6.83573        -0.000372     -0.001786      0.000327
      2.73429      8.20287      5.46858        -0.000349     -0.000262     -0.000050
      4.10144     12.30431      9.57002         0.001925      0.001211     -0.001688
      2.73429     10.93716      8.20287        -0.001220      0.004586      0.001311
      6.83573      4.10144      4.10144         0.000434      0.000459     -0.000180
      5.46858      2.73429      2.73429        -0.000286     -0.000445     -0.000070
      6.83573      6.83573      6.83573        -0.000281      0.000250     -0.000386
      5.46858      5.46858      5.46858        -0.000099     -0.000085      0.000019
      6.83573      9.57002      9.57002         0.000069     -0.000053     -0.000216
      5.46858      8.20287      8.20287         0.000109     -0.000123      0.000253
      6.83573     12.30431     12.30431         0.000145      0.000156     -0.000007
      5.46858     10.93716     10.93716        -0.000076      0.000089      0.000341
      9.57002      4.10144      6.83573        -0.000371      0.000064      0.000346
      8.20287      2.73429      5.46858        -0.000216     -0.000263      0.000129
      9.57002      6.83573      9.57002         0.000126     -0.000086     -0.000250
      8.20287      5.46858      8.20287         0.000051     -0.000067      0.000169
      9.57002      9.57002     12.30431         0.000070      0.000105      0.000012
      8.20287      8.20287     10.93716         0.000057     -0.000014      0.000147
      9.57002     12.30431     15.03860         0.000102      0.000168      0.000023
      8.20287     10.93716     13.67145        -0.000077     -0.000148      0.000035
     12.30431      4.10144      9.57002        -0.004575     -0.000886      0.000622
     10.93716      2.73429      8.20287         0.000700     -0.001916      0.001678
     12.30431      6.83573     12.30431         0.000231      0.000064     -0.000022
     10.93716      5.46858     10.93716        -0.000250      0.000175      0.000344
     12.30431      9.57002     15.03860         0.000134      0.000143     -0.000010
     10.93716      8.20287     13.67145        -0.000144     -0.000116     -0.000009
     12.30431     12.30431     17.77289        -0.000092      0.000250     -0.000342
     10.93716     10.93716     16.40574        -0.000156     -0.000245      0.000022
      6.83573      6.83573      1.36715        -0.000054      0.000162     -0.000472
      5.46858      5.46858      0.00000        -0.000162      0.000054      0.000472
      6.83573      9.57002      4.10144         0.000519     -0.001847     -0.000683
      5.46858      8.20287      2.73429        -0.000152     -0.000184     -0.000114
      6.83573     12.30431      6.83573         0.000302      0.000080     -0.000212
      5.46858     10.93716      5.46858         0.000054      0.001521      0.000081
      6.83573     15.03860      9.57002         0.000125      0.000094      0.000009
      5.46858     13.67145      8.20287         0.000060     -0.000579     -0.000471
      9.57002      6.83573      4.10144         0.000579     -0.000060      0.000471
      8.20287      5.46858      2.73429        -0.000094     -0.000125     -0.000010
      9.57002      9.57002      6.83573         0.000096     -0.000117     -0.000128
      8.20287      8.20287      5.46858         0.000173     -0.000085      0.000189
      9.57002     12.30431      9.57002         0.000118      0.000094      0.000023
      8.20287     10.93716      8.20287         0.000067      0.000033      0.000092
      9.57002     15.03860     12.30431         0.000072      0.000066      0.000035
      8.20287     13.67145     10.93716        -0.000066     -0.000072     -0.000035
     12.30431      6.83573      6.83573        -0.001521     -0.000054     -0.000081
     10.93716      5.46858      5.46858        -0.000080     -0.000302      0.000212
     12.30431      9.57002      9.57002         0.000151      0.000118     -0.000012
     10.93716      8.20287      8.20287        -0.000091      0.000065      0.000161
     12.30431     12.30431     12.30431         0.000090      0.000106     -0.000024
     10.93716     10.93716     10.93716        -0.000106     -0.000090      0.000024
     12.30431     15.03860     15.03860        -0.000033     -0.000067     -0.000092
     10.93716     13.67145     13.67145        -0.000094     -0.000118     -0.000023
     15.03860      6.83573      9.57002         0.000184      0.000152      0.000114
     13.67145      5.46858      8.20287         0.001847     -0.000519      0.000683
     15.03860      9.57002     12.30431         0.000072      0.000157     -0.000005
     13.67145      8.20287     10.93716        -0.000157     -0.000072      0.000005
     15.03860     12.30431     15.03860        -0.000065      0.000091     -0.000161
     13.67145     10.93716     13.67145        -0.000118     -0.000151      0.000012
     15.03860     15.03860     17.77289         0.000085     -0.000173     -0.000189
     13.67145     13.67145     16.40574         0.000117     -0.000096      0.000128
      9.57002      9.57002      1.36715        -0.018949     -0.030840      0.021485
      8.20287      8.20287      0.00000        -0.001830     -0.001386      0.000484
      9.57002     12.30431      4.10144         0.001916     -0.000700     -0.001678
      8.20287     10.93716      2.73429         0.000886      0.004575     -0.000622
      9.57002     15.03860      6.83573         0.000263      0.000216     -0.000129
      8.20287     13.67145      5.46858        -0.000064      0.000371     -0.000346
      9.57002     17.77289      9.57002         0.000445      0.000286      0.000070
      8.20287     16.40574      8.20287        -0.000459     -0.000434      0.000180
     12.30431      9.57002      4.10144        -0.004586      0.001220     -0.001311
     10.93716      8.20287      2.73429        -0.001211     -0.001925      0.001688
     12.30431     12.30431      6.83573         0.000245      0.000156     -0.000022
     10.93716     10.93716      5.46858        -0.000250      0.000092      0.000342
     12.30431     15.03860      9.57002         0.000148      0.000077     -0.000035
     10.93716     13.67145      8.20287        -0.000168     -0.000102     -0.000023
     12.30431     17.77289     12.30431        -0.000089      0.000076     -0.000341
     10.93716     16.40574     10.93716        -0.000156     -0.000145      0.000007
     15.03860      9.57002      6.83573         0.000262      0.000349      0.000050
     13.67145      8.20287      5.46858         0.001786      0.000372     -0.000327
     15.03860     12.30431      9.57002         0.000116      0.000144      0.000009
     13.67145     10.93716      8.20287        -0.000143     -0.000134      0.000010
     15.03860     15.03860     12.30431         0.000014     -0.000057     -0.000147
     13.67145     13.67145     10.93716        -0.000105     -0.000070     -0.000012
     15.03860     17.77289     15.03860         0.000123     -0.000109     -0.000253
     13.67145     16.40574     13.67145         0.000053     -0.000069      0.000216
     17.77289      9.57002      9.57002         0.000392      0.000401     -0.000188
     16.40574      8.20287      8.20287        -0.000400     -0.000490     -0.000116
     17.77289     12.30431     12.30431        -0.000175      0.000250     -0.000344
     16.40574     10.93716     10.93716        -0.000064     -0.000231      0.000022
     17.77289     15.03860     15.03860         0.000067     -0.000051     -0.000169
     16.40574     13.67145     13.67145         0.000086     -0.000126      0.000250
     17.77289     17.77289     17.77289         0.000085      0.000099     -0.000019
     16.40574     16.40574     16.40574        -0.000250      0.000281      0.000386
 -----------------------------------------------------------------------------------
    total drift:                               -0.000001      0.000000      0.000000


--------------------------------------------------------------------------------------------------------



  FREE ENERGIE OF THE ION-ELECTRON SYSTEM (eV)
  ---------------------------------------------------
  free  energy   TOTEN  =      -682.56799986 eV

  energy  without entropy=     -682.56799986  energy(sigma->0) =     -682.56799986
 


--------------------------------------------------------------------------------------------------------


    POTLOK:  cpu time    0.4944: real time    0.4957


--------------------------------------------------------------------------------------------------------


     LOOP+:  cpu time  121.9383: real time  122.3305
    4ORBIT:  cpu time    0.0000: real time    0.0000

 total amount of memory used by VASP MPI-rank0   118934. kBytes
=======================================================================

   base      :      30000. kBytes
   nonl-proj :       7011. kBytes
   fftplans  :      53058. kBytes
   grid      :      20148. kBytes
   one-center:         21. kBytes
   wavefun   :       8696. kBytes
 
  
  
 General timing and accounting informations for this job:
 ========================================================
  
                  Total CPU time used (sec):      129.855
                            User time (sec):      127.152
                          System time (sec):        2.703
                         Elapsed time (sec):      130.327
  
                   Maximum memory used (kb):      237024.
                   Average memory used (kb):           0.
  
                          Minor page faults:       205245
                          Major page faults:            0
                 Voluntary context switches:          450
