Ba Ge Ga
 1.0000000000000000
    10.8456713400000009   -0.0023111000000000    0.0023111000000000
    -0.0023111000000000   10.8456713400000009   -0.0023111000000000
     0.0023111000000000   -0.0023111000000000   10.8456713400000009
 Ba  Ge  Ga 
   8  30  16
Direct
  0.5006067300000000  0.4993932700000000  0.5006067300000000
  0.9986812400000000  0.0013187600000000  0.9986812400000000
  0.0001554200000000  0.7488546400000000  0.5023126999999999
  0.9934219999999999  0.2521263200000001  0.5075446700000000
  0.5075446700000000  0.0065780000000000  0.7478736799999998
  0.5023126999999998  0.9998445800000000  0.2511453600000000
  0.7478736800000000  0.4924553300000000  0.9934219999999999
  0.2511453600000000  0.4976873000000001  0.0001554200000000
  0.3170485000000000  0.6872500499999999  0.6820706599999999
  0.6820706600000001  0.6829515000000000  0.3127499500000000
  0.3127499499999999  0.3179293400000000  0.3170485000000000
  0.6847291100000000  0.3152708900000000  0.6847291100000000
  0.8151413799999999  0.1848586199999999  0.8151413799999999
  0.1826295600000000  0.1828919200000000  0.1863752000000000
  0.8171080800000000  0.8136248000000000  0.1826295600000000
  0.1863752000000000  0.8173704399999999  0.8171080800000000
  0.6874119000000000  0.3201818100000000  0.3139519099999999
  0.3139519100000000  0.3125881000000000  0.6798181900000000
  0.6798181900000000  0.6860480900000000  0.6874119000000000
  0.1844321500000000  0.8155678499999999  0.1844321500000000
  0.8123719700000001  0.8139487499999999  0.8199746100000000
  0.1860512500000000  0.1800253900000000  0.8123719699999999
  0.8199746099999999  0.1876280300000000  0.1860512500000000
  0.4982505600000000  0.2493629200000000  0.0014054100000000
  0.0014054100000000  0.5017494400000000  0.7506370799999998
  0.7506370800000000  0.9985945899999999  0.4982505600000000
  0.8115723599999999  0.5029169600000000  0.3847645800000000
  0.1885114300000000  0.5012770300000000  0.3863000400000000
  0.3847645800000000  0.1884276400000000  0.4970830399999999
  0.3863000400000000  0.8114885700000000  0.4987229699999999
  0.4987229699999999  0.6136999600000000  0.1885114300000000
  0.4970830400000000  0.6152354200000001  0.8115723599999998
  0.0021583000000000  0.3123182500000000  0.1149411000000000
  0.0008256800000000  0.6889034300000000  0.1145243000000000
  0.1149411000000000  0.9978417000000001  0.6876817500000000
  0.1145243000000000  0.9991743199999999  0.3110965700000000
  0.3110965700000000  0.8854756999999999  0.0008256800000000
  0.6876817500000000  0.8850589000000000  0.0021583000000000
  0.3167378600000000  0.6832621399999999  0.3167378600000000
  0.4992636400000000  0.7489694900000000  0.0013191600000000
  0.0013191600000000  0.5007363600000000  0.2510305099999999
  0.2510305100000000  0.9986808400000000  0.4992636400000000
  0.1913773100000000  0.4997699199999999  0.6198825000000000
  0.8069971699999999  0.5021291600000000  0.6236238700000000
  0.6236238700000000  0.1930028300000000  0.4978708400000000
  0.6198825000000000  0.8086226900000000  0.5002300800000000
  0.4978708400000000  0.3763761300000000  0.8069971700000000
  0.5002300800000000  0.3801174999999999  0.1913773100000000
  0.0018899600000000  0.3071751200000000  0.8764930200000000
  0.9999366000000000  0.6921055499999998  0.8805467899999999
  0.8805467900000000  0.0000634000000000  0.3078944499999999
  0.8764930200000000  0.9981100400000001  0.6928248800000000
  0.3078944500000000  0.1194532100000000  0.9999365999999998
  0.6928248800000000  0.1235069800000000  0.0018899600000000
