Ba Ge Ga Ba Ge Ga Ba Ge Ga Ba Ge Ga Ba Ge Ga Ba Ge Ga Ba Ge Ga Ba Ge Ga
 1.0000000000000000
    21.6913426800000018   -0.0046222000000000    0.0046222000000000
    -0.0046222000000000   21.6913426800000018   -0.0046222000000000
     0.0046222000000000   -0.0046222000000000   21.6913426800000018
 Ba  Ge  Ga  Ba  Ge  Ga  Ba  Ge  Ga  Ba  Ge  Ga  Ba  Ge  Ga  Ba  Ge  Ga  Ba  Ge  Ga  Ba  Ge  Ga 
   8  30  16   8  30  16   8  30  16   8  30  16   8  30  16   8  30  16   8  30  16   8  30  16
Direct
  0.2503033650000000  0.2496966350000000  0.2503033650000000
  0.4993406200000000  0.0006593800000000  0.4993406200000000
  0.0000777100000000  0.3744273200000000  0.2511563500000000
  0.4967110000000000  0.1260631600000000  0.2537723350000000
  0.2537723350000000  0.0032890000000000  0.3739368399999999
  0.2511563499999999  0.4999222900000000  0.1255726800000000
  0.3739368400000000  0.2462276650000000  0.4967110000000000
  0.1255726800000000  0.2488436500000000  0.0000777100000000
  0.1585242500000000  0.3436250250000000  0.3410353300000000
  0.3410353300000000  0.3414757500000000  0.1563749750000000
  0.1563749750000000  0.1589646700000000  0.1585242500000000
  0.3423645550000000  0.1576354450000000  0.3423645550000000
  0.4075706900000000  0.0924293100000000  0.4075706900000000
  0.0913147800000000  0.0914459600000000  0.0931876000000000
  0.4085540400000000  0.4068124000000000  0.0913147800000000
  0.0931876000000000  0.4086852200000000  0.4085540400000000
  0.3437059500000000  0.1600909050000000  0.1569759550000000
  0.1569759550000000  0.1562940500000000  0.3399090950000000
  0.3399090950000000  0.3430240450000000  0.3437059500000000
  0.0922160750000000  0.4077839249999999  0.0922160750000000
  0.4061859850000000  0.4069743749999999  0.4099873050000000
  0.0930256250000000  0.0900126950000000  0.4061859850000000
  0.4099873050000000  0.0938140150000000  0.0930256250000000
  0.2491252800000000  0.1246814600000000  0.0007027050000000
  0.0007027050000000  0.2508747200000000  0.3753185399999999
  0.3753185400000000  0.4992972950000000  0.2491252800000000
  0.4057861799999999  0.2514584800000000  0.1923822900000000
  0.0942557150000000  0.2506385150000000  0.1931500200000000
  0.1923822900000000  0.0942138200000000  0.2485415199999999
  0.1931500200000000  0.4057442850000000  0.2493614850000000
  0.2493614850000000  0.3068499800000000  0.0942557150000000
  0.2485415200000000  0.3076177100000000  0.4057861799999999
  0.0010791500000000  0.1561591250000000  0.0574705500000000
  0.0004128400000000  0.3444517150000000  0.0572621500000000
  0.0574705500000000  0.4989208500000000  0.3438408750000000
  0.0572621500000000  0.4995871600000000  0.1555482850000000
  0.1555482850000000  0.4427378499999999  0.0004128400000000
  0.3438408750000000  0.4425294500000000  0.0010791500000000
  0.1583689300000000  0.3416310699999999  0.1583689300000000
  0.2496318200000000  0.3744847450000000  0.0006595800000000
  0.0006595800000000  0.2503681800000000  0.1255152550000000
  0.1255152550000000  0.4993404200000000  0.2496318200000000
  0.0956886550000000  0.2498849600000000  0.3099412500000000
  0.4034985850000000  0.2510645800000000  0.3118119350000000
  0.3118119350000000  0.0965014150000000  0.2489354200000000
  0.3099412500000000  0.4043113450000000  0.2501150400000000
  0.2489354200000000  0.1881880650000000  0.4034985850000000
  0.2501150400000000  0.1900587500000000  0.0956886550000000
  0.0009449800000000  0.1535875600000000  0.4382465100000000
  0.4999683000000000  0.3460527749999999  0.4402733950000000
  0.4402733950000000  0.0000317000000000  0.1539472250000000
  0.4382465100000000  0.4990550200000001  0.3464124400000000
  0.1539472250000000  0.0597266050000000  0.4999682999999999
  0.3464124400000000  0.0617534900000000  0.0009449800000000
  0.2503033650000000  0.2496966350000000  0.7503033649999999
  0.4993406200000000  0.0006593800000000  0.9993406199999998
  0.0000777100000000  0.3744273200000000  0.7511563499999998
  0.4967110000000000  0.1260631600000000  0.7537723350000000
  0.2537723350000000  0.0032890000000000  0.8739368399999999
  0.2511563499999999  0.4999222899999999  0.6255726800000000
  0.3739368400000000  0.2462276650000000  0.9967109999999998
  0.1255726800000000  0.2488436500000000  0.5000777100000000
  0.1585242500000000  0.3436250250000000  0.8410353300000000
  0.3410353300000000  0.3414757500000001  0.6563749749999999
  0.1563749750000000  0.1589646700000000  0.6585242500000000
  0.3423645550000000  0.1576354450000000  0.8423645549999998
  0.4075706900000000  0.0924293100000000  0.9075706899999999
  0.0913147800000000  0.0914459600000000  0.5931875999999999
  0.4085540400000000  0.4068124000000000  0.5913147799999999
  0.0931876000000000  0.4086852200000001  0.9085540399999998
  0.3437059500000000  0.1600909050000000  0.6569759549999998
  0.1569759550000000  0.1562940500000000  0.8399090950000000
  0.3399090950000000  0.3430240450000000  0.8437059500000000
  0.0922160750000000  0.4077839249999999  0.5922160750000000
  0.4061859850000000  0.4069743749999999  0.9099873049999999
  0.0930256250000000  0.0900126950000000  0.9061859849999999
  0.4099873050000000  0.0938140150000000  0.5930256250000000
  0.2491252800000000  0.1246814600000000  0.5007027050000000
  0.0007027050000000  0.2508747200000000  0.8753185399999999
  0.3753185400000000  0.4992972950000000  0.7491252799999999
  0.4057861799999999  0.2514584800000000  0.6923822900000001
  0.0942557150000000  0.2506385150000000  0.6931500199999999
  0.1923822900000000  0.0942138200000000  0.7485415200000001
  0.1931500200000000  0.4057442850000000  0.7493614850000000
  0.2493614850000000  0.3068499800000000  0.5942557150000000
  0.2485415200000000  0.3076177100000000  0.9057861799999999
  0.0010791500000000  0.1561591250000000  0.5574705499999999
  0.0004128400000000  0.3444517150000000  0.5572621499999999
  0.0574705500000000  0.4989208500000000  0.8438408750000000
  0.0572621500000000  0.4995871600000000  0.6555482850000000
  0.1555482850000000  0.4427378499999999  0.5004128400000000
  0.3438408750000000  0.4425294500000000  0.5010791500000000
  0.1583689300000000  0.3416310700000000  0.6583689300000000
  0.2496318200000000  0.3744847450000000  0.5006595800000000
  0.0006595800000000  0.2503681800000000  0.6255152549999999
  0.1255152550000000  0.4993404200000000  0.7496318199999999
  0.0956886550000000  0.2498849600000000  0.8099412499999998
  0.4034985850000000  0.2510645800000000  0.8118119349999998
  0.3118119350000000  0.0965014150000000  0.7489354200000000
  0.3099412500000000  0.4043113450000000  0.7501150400000000
  0.2489354200000000  0.1881880649999999  0.9034985850000001
  0.2501150400000000  0.1900587500000000  0.5956886550000000
  0.0009449800000000  0.1535875600000000  0.9382465100000000
  0.4999683000000000  0.3460527750000000  0.9402733949999998
  0.4402733950000000  0.0000317000000000  0.6539472249999999
  0.4382465100000000  0.4990550200000000  0.8464124399999999
  0.1539472250000000  0.0597266050000000  0.9999682999999999
  0.3464124400000000  0.0617534900000000  0.5009449800000000
  0.2503033650000000  0.7496966350000001  0.2503033650000000
  0.4993406200000000  0.5006593800000000  0.4993406200000000
  0.0000777100000000  0.8744273200000000  0.2511563500000000
  0.4967110000000000  0.6260631600000000  0.2537723350000000
  0.2537723350000000  0.5032890000000000  0.3739368399999999
  0.2511563499999999  0.9999222900000000  0.1255726800000000
  0.3739368400000000  0.7462276649999999  0.4967110000000000
  0.1255726800000000  0.7488436500000000  0.0000777100000000
  0.1585242500000000  0.8436250250000000  0.3410353300000000
  0.3410353300000000  0.8414757500000001  0.1563749750000000
  0.1563749750000000  0.6589646700000000  0.1585242500000000
  0.3423645550000000  0.6576354450000002  0.3423645550000000
  0.4075706900000000  0.5924293100000000  0.4075706900000000
  0.0913147800000000  0.5914459600000000  0.0931876000000000
  0.4085540400000000  0.9068124000000000  0.0913147800000000
  0.0931876000000000  0.9086852200000001  0.4085540400000000
  0.3437059500000000  0.6600909049999999  0.1569759550000000
  0.1569759550000000  0.6562940500000000  0.3399090950000000
  0.3399090950000000  0.8430240449999998  0.3437059500000000
  0.0922160750000000  0.9077839250000000  0.0922160750000000
  0.4061859850000000  0.9069743749999999  0.4099873050000000
  0.0930256250000000  0.5900126950000000  0.4061859850000000
  0.4099873050000000  0.5938140150000000  0.0930256250000000
  0.2491252800000000  0.6246814599999999  0.0007027050000000
  0.0007027050000000  0.7508747200000001  0.3753185399999999
  0.3753185400000000  0.9992972950000000  0.2491252800000000
  0.4057861799999999  0.7514584799999998  0.1923822900000000
  0.0942557150000000  0.7506385150000000  0.1931500200000000
  0.1923822900000000  0.5942138200000000  0.2485415199999999
  0.1931500200000000  0.9057442850000000  0.2493614850000000
  0.2493614850000000  0.8068499800000000  0.0942557150000000
  0.2485415200000000  0.8076177100000000  0.4057861799999999
  0.0010791500000000  0.6561591250000000  0.0574705500000000
  0.0004128400000000  0.8444517149999999  0.0572621500000000
  0.0574705500000000  0.9989208500000001  0.3438408750000000
  0.0572621500000000  0.9995871599999999  0.1555482850000000
  0.1555482850000000  0.9427378499999999  0.0004128400000000
  0.3438408749999999  0.9425294500000002  0.0010791500000000
  0.1583689300000000  0.8416310700000000  0.1583689300000000
  0.2496318200000000  0.8744847450000001  0.0006595800000000
  0.0006595800000000  0.7503681800000001  0.1255152550000000
  0.1255152550000000  0.9993404200000001  0.2496318200000000
  0.0956886550000000  0.7498849600000000  0.3099412500000000
  0.4034985850000000  0.7510645800000002  0.3118119350000000
  0.3118119350000000  0.5965014149999999  0.2489354200000000
  0.3099412500000000  0.9043113450000000  0.2501150400000000
  0.2489354200000000  0.6881880650000000  0.4034985850000000
  0.2501150400000000  0.6900587499999999  0.0956886550000000
  0.0009449800000000  0.6535875600000001  0.4382465100000000
  0.4999683000000000  0.8460527749999999  0.4402733950000000
  0.4402733950000000  0.5000317000000001  0.1539472250000000
  0.4382465100000000  0.9990550200000000  0.3464124400000000
  0.1539472250000000  0.5597266050000000  0.4999682999999999
  0.3464124400000000  0.5617534900000000  0.0009449800000000
  0.2503033650000000  0.7496966350000001  0.7503033649999999
  0.4993406200000000  0.5006593800000000  0.9993406199999998
  0.0000777100000000  0.8744273200000000  0.7511563499999998
  0.4967110000000000  0.6260631600000001  0.7537723350000000
  0.2537723350000000  0.5032890000000000  0.8739368399999999
  0.2511563499999999  0.9999222900000000  0.6255726800000000
  0.3739368400000000  0.7462276649999999  0.9967109999999998
  0.1255726800000000  0.7488436500000000  0.5000777100000000
  0.1585242500000000  0.8436250249999998  0.8410353300000000
  0.3410353300000000  0.8414757500000000  0.6563749749999999
  0.1563749750000000  0.6589646700000000  0.6585242500000000
  0.3423645550000000  0.6576354450000000  0.8423645549999998
  0.4075706900000000  0.5924293100000000  0.9075706899999999
  0.0913147800000000  0.5914459599999999  0.5931875999999999
  0.4085540400000000  0.9068124000000000  0.5913147799999999
  0.0931876000000000  0.9086852199999998  0.9085540399999998
  0.3437059500000000  0.6600909050000000  0.6569759549999998
  0.1569759550000000  0.6562940500000000  0.8399090950000000
  0.3399090950000000  0.8430240449999999  0.8437059500000000
  0.0922160750000000  0.9077839250000002  0.5922160750000000
  0.4061859850000000  0.9069743749999999  0.9099873049999999
  0.0930256250000000  0.5900126950000001  0.9061859849999999
  0.4099873050000000  0.5938140149999999  0.5930256250000000
  0.2491252800000000  0.6246814599999999  0.5007027050000000
  0.0007027050000000  0.7508747200000000  0.8753185399999999
  0.3753185400000000  0.9992972950000000  0.7491252799999999
  0.4057861799999999  0.7514584799999998  0.6923822900000001
  0.0942557150000000  0.7506385150000000  0.6931500199999999
  0.1923822900000000  0.5942138200000000  0.7485415200000001
  0.1931500200000000  0.9057442850000000  0.7493614850000000
  0.2493614850000000  0.8068499800000002  0.5942557150000000
  0.2485415200000000  0.8076177100000000  0.9057861799999999
  0.0010791500000000  0.6561591250000000  0.5574705499999999
  0.0004128400000000  0.8444517149999999  0.5572621499999999
  0.0574705500000000  0.9989208500000000  0.8438408750000000
  0.0572621500000000  0.9995871599999998  0.6555482850000000
  0.1555482850000000  0.9427378499999999  0.5004128400000000
  0.3438408749999999  0.9425294500000000  0.5010791500000000
  0.1583689300000000  0.8416310700000000  0.6583689300000000
  0.2496318200000000  0.8744847450000001  0.5006595800000000
  0.0006595800000000  0.7503681799999999  0.6255152549999999
  0.1255152550000000  0.9993404199999999  0.7496318199999999
  0.0956886550000000  0.7498849600000002  0.8099412499999998
  0.4034985850000000  0.7510645800000001  0.8118119349999998
  0.3118119350000000  0.5965014150000000  0.7489354200000000
  0.3099412500000000  0.9043113450000000  0.7501150400000000
  0.2489354200000000  0.6881880650000000  0.9034985850000001
  0.2501150400000000  0.6900587499999999  0.5956886550000000
  0.0009449800000000  0.6535875600000000  0.9382465100000000
  0.4999683000000000  0.8460527750000001  0.9402733949999998
  0.4402733950000000  0.5000317000000000  0.6539472249999999
  0.4382465100000000  0.9990550200000000  0.8464124399999999
  0.1539472250000000  0.5597266050000000  0.9999682999999999
  0.3464124400000000  0.5617534900000000  0.5009449800000000
  0.7503033650000001  0.2496966350000000  0.2503033650000000
  0.9993406200000000  0.0006593800000000  0.4993406200000000
  0.5000777100000000  0.3744273200000000  0.2511563500000000
  0.9967109999999999  0.1260631600000000  0.2537723350000000
  0.7537723349999998  0.0032890000000000  0.3739368399999999
  0.7511563499999999  0.4999222900000000  0.1255726800000000
  0.8739368399999999  0.2462276650000000  0.4967110000000000
  0.6255726800000000  0.2488436500000000  0.0000777100000000
  0.6585242500000000  0.3436250250000000  0.3410353300000000
  0.8410353300000000  0.3414757500000000  0.1563749750000000
  0.6563749750000000  0.1589646700000000  0.1585242500000000
  0.8423645550000000  0.1576354450000000  0.3423645550000000
  0.9075706899999999  0.0924293100000000  0.4075706900000000
  0.5913147800000000  0.0914459600000000  0.0931876000000000
  0.9085540400000001  0.4068124000000000  0.0913147800000000
  0.5931875999999999  0.4086852200000000  0.4085540400000000
  0.8437059500000000  0.1600909050000000  0.1569759550000000
  0.6569759549999999  0.1562940500000000  0.3399090950000000
  0.8399090950000000  0.3430240450000000  0.3437059500000000
  0.5922160750000001  0.4077839249999999  0.0922160750000000
  0.9061859849999999  0.4069743749999999  0.4099873050000000
  0.5930256250000000  0.0900126950000000  0.4061859850000000
  0.9099873049999999  0.0938140150000000  0.0930256250000000
  0.7491252800000000  0.1246814600000000  0.0007027050000000
  0.5007027050000000  0.2508747200000000  0.3753185399999999
  0.8753185399999999  0.4992972950000000  0.2491252800000000
  0.9057861799999998  0.2514584800000000  0.1923822900000000
  0.5942557150000001  0.2506385150000000  0.1931500200000000
  0.6923822900000000  0.0942138200000000  0.2485415199999999
  0.6931500200000000  0.4057442850000000  0.2493614850000000
  0.7493614850000000  0.3068499800000000  0.0942557150000000
  0.7485415199999998  0.3076177100000000  0.4057861799999999
  0.5010791500000000  0.1561591250000000  0.0574705500000000
  0.5004128400000000  0.3444517150000000  0.0572621500000000
  0.5574705499999999  0.4989208500000000  0.3438408750000000
  0.5572621499999999  0.4995871600000000  0.1555482850000000
  0.6555482850000000  0.4427378499999999  0.0004128400000000
  0.8438408749999998  0.4425294500000000  0.0010791500000000
  0.6583689300000000  0.3416310699999999  0.1583689300000000
  0.7496318199999998  0.3744847450000000  0.0006595800000000
  0.5006595799999999  0.2503681800000000  0.1255152550000000
  0.6255152549999999  0.4993404200000000  0.2496318200000000
  0.5956886549999999  0.2498849600000000  0.3099412500000000
  0.9034985850000001  0.2510645800000000  0.3118119350000000
  0.8118119349999999  0.0965014150000000  0.2489354200000000
  0.8099412499999998  0.4043113450000000  0.2501150400000000
  0.7489354199999999  0.1881880650000000  0.4034985850000000
  0.7501150400000000  0.1900587500000000  0.0956886550000000
  0.5009449800000000  0.1535875600000000  0.4382465100000000
  0.9999682999999999  0.3460527749999999  0.4402733950000000
  0.9402733950000000  0.0000317000000000  0.1539472250000000
  0.9382465099999998  0.4990550200000001  0.3464124400000000
  0.6539472250000000  0.0597266050000000  0.4999682999999999
  0.8464124399999999  0.0617534900000000  0.0009449800000000
  0.7503033650000001  0.2496966350000000  0.7503033649999999
  0.9993406200000000  0.0006593800000000  0.9993406199999998
  0.5000777100000000  0.3744273200000000  0.7511563499999998
  0.9967109999999999  0.1260631600000000  0.7537723350000000
  0.7537723349999998  0.0032890000000000  0.8739368399999999
  0.7511563499999999  0.4999222899999999  0.6255726800000000
  0.8739368399999999  0.2462276650000000  0.9967109999999998
  0.6255726800000000  0.2488436500000000  0.5000777100000000
  0.6585242500000000  0.3436250250000000  0.8410353300000000
  0.8410353300000000  0.3414757500000001  0.6563749749999999
  0.6563749750000000  0.1589646700000000  0.6585242500000000
  0.8423645550000000  0.1576354450000000  0.8423645549999998
  0.9075706899999999  0.0924293100000000  0.9075706899999999
  0.5913147800000000  0.0914459600000000  0.5931875999999999
  0.9085540400000001  0.4068124000000000  0.5913147799999999
  0.5931875999999999  0.4086852200000001  0.9085540399999998
  0.8437059500000000  0.1600909050000000  0.6569759549999998
  0.6569759549999999  0.1562940500000000  0.8399090950000000
  0.8399090950000000  0.3430240450000000  0.8437059500000000
  0.5922160750000001  0.4077839249999999  0.5922160750000000
  0.9061859849999999  0.4069743749999999  0.9099873049999999
  0.5930256250000000  0.0900126950000000  0.9061859849999999
  0.9099873049999999  0.0938140150000000  0.5930256250000000
  0.7491252800000000  0.1246814600000000  0.5007027050000000
  0.5007027050000000  0.2508747200000000  0.8753185399999999
  0.8753185399999999  0.4992972950000000  0.7491252799999999
  0.9057861799999998  0.2514584800000000  0.6923822900000001
  0.5942557150000001  0.2506385150000000  0.6931500199999999
  0.6923822900000000  0.0942138200000000  0.7485415200000001
  0.6931500200000000  0.4057442850000000  0.7493614850000000
  0.7493614850000000  0.3068499800000000  0.5942557150000000
  0.7485415199999998  0.3076177100000000  0.9057861799999999
  0.5010791500000000  0.1561591250000000  0.5574705499999999
  0.5004128400000000  0.3444517150000000  0.5572621499999999
  0.5574705499999999  0.4989208500000000  0.8438408750000000
  0.5572621499999999  0.4995871600000000  0.6555482850000000
  0.6555482850000000  0.4427378499999999  0.5004128400000000
  0.8438408749999998  0.4425294500000000  0.5010791500000000
  0.6583689300000000  0.3416310700000000  0.6583689300000000
  0.7496318199999998  0.3744847450000000  0.5006595800000000
  0.5006595799999999  0.2503681800000000  0.6255152549999999
  0.6255152549999999  0.4993404200000000  0.7496318199999999
  0.5956886549999999  0.2498849600000000  0.8099412499999998
  0.9034985850000001  0.2510645800000000  0.8118119349999998
  0.8118119349999999  0.0965014150000000  0.7489354200000000
  0.8099412499999998  0.4043113450000000  0.7501150400000000
  0.7489354199999999  0.1881880649999999  0.9034985850000001
  0.7501150400000000  0.1900587500000000  0.5956886550000000
  0.5009449800000000  0.1535875600000000  0.9382465100000000
  0.9999682999999999  0.3460527750000000  0.9402733949999998
  0.9402733950000000  0.0000317000000000  0.6539472249999999
  0.9382465099999998  0.4990550200000000  0.8464124399999999
  0.6539472250000000  0.0597266050000000  0.9999682999999999
  0.8464124399999999  0.0617534900000000  0.5009449800000000
  0.7503033650000001  0.7496966350000001  0.2503033650000000
  0.9993406200000000  0.5006593800000000  0.4993406200000000
  0.5000777100000000  0.8744273200000000  0.2511563500000000
  0.9967109999999999  0.6260631600000000  0.2537723350000000
  0.7537723349999998  0.5032890000000000  0.3739368399999999
  0.7511563499999999  0.9999222900000000  0.1255726800000000
  0.8739368399999999  0.7462276649999999  0.4967110000000000
  0.6255726800000000  0.7488436500000000  0.0000777100000000
  0.6585242500000000  0.8436250250000000  0.3410353300000000
  0.8410353300000000  0.8414757500000001  0.1563749750000000
  0.6563749750000000  0.6589646700000000  0.1585242500000000
  0.8423645550000000  0.6576354450000002  0.3423645550000000
  0.9075706899999999  0.5924293100000000  0.4075706900000000
  0.5913147800000000  0.5914459600000000  0.0931876000000000
  0.9085540400000001  0.9068124000000000  0.0913147800000000
  0.5931875999999999  0.9086852200000001  0.4085540400000000
  0.8437059500000000  0.6600909049999999  0.1569759550000000
  0.6569759549999999  0.6562940500000000  0.3399090950000000
  0.8399090950000000  0.8430240449999998  0.3437059500000000
  0.5922160750000001  0.9077839250000000  0.0922160750000000
  0.9061859849999999  0.9069743749999999  0.4099873050000000
  0.5930256250000000  0.5900126950000000  0.4061859850000000
  0.9099873049999999  0.5938140150000000  0.0930256250000000
  0.7491252800000000  0.6246814599999999  0.0007027050000000
  0.5007027050000000  0.7508747200000001  0.3753185399999999
  0.8753185399999999  0.9992972950000000  0.2491252800000000
  0.9057861799999998  0.7514584799999998  0.1923822900000000
  0.5942557150000001  0.7506385150000000  0.1931500200000000
  0.6923822900000000  0.5942138200000000  0.2485415199999999
  0.6931500200000000  0.9057442850000000  0.2493614850000000
  0.7493614850000000  0.8068499800000000  0.0942557150000000
  0.7485415199999998  0.8076177100000000  0.4057861799999999
  0.5010791500000000  0.6561591250000000  0.0574705500000000
  0.5004128400000000  0.8444517149999999  0.0572621500000000
  0.5574705499999999  0.9989208500000001  0.3438408750000000
  0.5572621499999999  0.9995871599999999  0.1555482850000000
  0.6555482850000000  0.9427378499999999  0.0004128400000000
  0.8438408749999998  0.9425294500000002  0.0010791500000000
  0.6583689300000000  0.8416310700000000  0.1583689300000000
  0.7496318199999998  0.8744847450000001  0.0006595800000000
  0.5006595799999999  0.7503681800000001  0.1255152550000000
  0.6255152549999999  0.9993404200000001  0.2496318200000000
  0.5956886549999999  0.7498849600000000  0.3099412500000000
  0.9034985850000001  0.7510645800000002  0.3118119350000000
  0.8118119349999999  0.5965014149999999  0.2489354200000000
  0.8099412499999998  0.9043113450000000  0.2501150400000000
  0.7489354199999999  0.6881880650000000  0.4034985850000000
  0.7501150400000000  0.6900587499999999  0.0956886550000000
  0.5009449800000000  0.6535875600000001  0.4382465100000000
  0.9999682999999999  0.8460527749999999  0.4402733950000000
  0.9402733950000000  0.5000317000000001  0.1539472250000000
  0.9382465099999998  0.9990550200000000  0.3464124400000000
  0.6539472250000000  0.5597266050000000  0.4999682999999999
  0.8464124399999999  0.5617534900000000  0.0009449800000000
  0.7503033650000001  0.7496966350000001  0.7503033649999999
  0.9993406200000000  0.5006593800000000  0.9993406199999998
  0.5000777100000000  0.8744273200000000  0.7511563499999998
  0.9967109999999999  0.6260631600000001  0.7537723350000000
  0.7537723349999998  0.5032890000000000  0.8739368399999999
  0.7511563499999999  0.9999222900000000  0.6255726800000000
  0.8739368399999999  0.7462276649999999  0.9967109999999998
  0.6255726800000000  0.7488436500000000  0.5000777100000000
  0.6585242500000000  0.8436250249999998  0.8410353300000000
  0.8410353300000000  0.8414757500000000  0.6563749749999999
  0.6563749750000000  0.6589646700000000  0.6585242500000000
  0.8423645550000000  0.6576354450000000  0.8423645549999998
  0.9075706899999999  0.5924293100000000  0.9075706899999999
  0.5913147800000000  0.5914459599999999  0.5931875999999999
  0.9085540400000001  0.9068124000000000  0.5913147799999999
  0.5931875999999999  0.9086852199999998  0.9085540399999998
  0.8437059500000000  0.6600909050000000  0.6569759549999998
  0.6569759549999999  0.6562940500000000  0.8399090950000000
  0.8399090950000000  0.8430240449999999  0.8437059500000000
  0.5922160750000001  0.9077839250000002  0.5922160750000000
  0.9061859849999999  0.9069743749999999  0.9099873049999999
  0.5930256250000000  0.5900126950000001  0.9061859849999999
  0.9099873049999999  0.5938140149999999  0.5930256250000000
  0.7491252800000000  0.6246814599999999  0.5007027050000000
  0.5007027050000000  0.7508747200000000  0.8753185399999999
  0.8753185399999999  0.9992972950000000  0.7491252799999999
  0.9057861799999998  0.7514584799999998  0.6923822900000001
  0.5942557150000001  0.7506385150000000  0.6931500199999999
  0.6923822900000000  0.5942138200000000  0.7485415200000001
  0.6931500200000000  0.9057442850000000  0.7493614850000000
  0.7493614850000000  0.8068499800000002  0.5942557150000000
  0.7485415199999998  0.8076177100000000  0.9057861799999999
  0.5010791500000000  0.6561591250000000  0.5574705499999999
  0.5004128400000000  0.8444517149999999  0.5572621499999999
  0.5574705499999999  0.9989208500000000  0.8438408750000000
  0.5572621499999999  0.9995871599999998  0.6555482850000000
  0.6555482850000000  0.9427378499999999  0.5004128400000000
  0.8438408749999998  0.9425294500000000  0.5010791500000000
  0.6583689300000000  0.8416310700000000  0.6583689300000000
  0.7496318199999998  0.8744847450000001  0.5006595800000000
  0.5006595799999999  0.7503681799999999  0.6255152549999999
  0.6255152549999999  0.9993404199999999  0.7496318199999999
  0.5956886549999999  0.7498849600000002  0.8099412499999998
  0.9034985850000001  0.7510645800000001  0.8118119349999998
  0.8118119349999999  0.5965014150000000  0.7489354200000000
  0.8099412499999998  0.9043113450000000  0.7501150400000000
  0.7489354199999999  0.6881880650000000  0.9034985850000001
  0.7501150400000000  0.6900587499999999  0.5956886550000000
  0.5009449800000000  0.6535875600000000  0.9382465100000000
  0.9999682999999999  0.8460527750000001  0.9402733949999998
  0.9402733950000000  0.5000317000000000  0.6539472249999999
  0.9382465099999998  0.9990550200000000  0.8464124399999999
  0.6539472250000000  0.5597266050000000  0.9999682999999999
  0.8464124399999999  0.5617534900000000  0.5009449800000000
