<?xml version="1.0" encoding="ISO-8859-1"?>
<modeling>
 <generator>
  <i name="program" type="string">vasp </i>
  <i name="version" type="string">5.4.4.18Apr17-6-g9f103f2a35  </i>
  <i name="subversion" type="string">(build Aug 16 2020 16:33:06) complex            parallel </i>
  <i name="platform" type="string">LinuxIFC </i>
  <i name="date" type="string">2026 08 15 </i>
  <i name="time" type="string">15:43:44 </i>
 </generator>
 <incar>
  <i type="string" name="PREC">accurate</i>
  <i type="logical" name="ADDGRID"> T  </i>
  <i type="int" name="IBRION">    -1</i>
  <i name="EDIFF">      0.00000001</i>
  <i type="int" name="ISYM">     0</i>
  <i name="ENCUT">    500.00000000</i>
  <i type="logical" name="LREAL"> F  </i>
  <i type="int" name="ISMEAR">     0</i>
  <i name="SIGMA">      0.05000000</i>
  <i type="logical" name="LWAVE"> F  </i>
  <i type="logical" name="LCHARG"> F  </i>
  <v type="int" name="KPOINT_BSE">    -1     0     0     0</v>
 </incar>
 <structure name="primitive_cell" >
  <crystal>
   <varray name="basis" >
    <v>       0.00000000      10.93716070      10.93716070 </v>
    <v>      10.93716070       0.00000000      10.93716070 </v>
    <v>      10.93716070      10.93716070       0.00000000 </v>
   </varray>
   <i name="volume">   2616.63878844 </i>
   <varray name="rec_basis" >
    <v>      -0.04571570       0.04571570       0.04571570 </v>
    <v>       0.04571570      -0.04571570       0.04571570 </v>
    <v>       0.04571570       0.04571570      -0.04571570 </v>
   </varray>
  </crystal>
  <varray name="positions" >
   <v>       0.06204284       0.06204284       0.06295716 </v>
   <v>       0.00000000       0.00000000       0.25000000 </v>
   <v>       0.00000000       0.00000000       0.00000000 </v>
   <v>       0.25000000       0.00000000       0.00000000 </v>
   <v>       0.00000000       0.25000000       0.00000000 </v>
   <v>      -0.18750000       0.06250000       0.06250000 </v>
   <v>       0.06250000      -0.18750000       0.06250000 </v>
   <v>      -0.18750000       0.06250000       0.31250000 </v>
   <v>       0.06250000      -0.18750000       0.31250000 </v>
   <v>      -0.18750000       0.31250000       0.06250000 </v>
   <v>       0.31250000      -0.18750000       0.06250000 </v>
   <v>       0.06250000       0.06250000       0.31250000 </v>
   <v>       0.06250000       0.06250000      -0.18750000 </v>
   <v>       0.31250000       0.06250000       0.06250000 </v>
   <v>       0.06250000       0.31250000       0.06250000 </v>
   <v>       0.31250000       0.06250000      -0.18750000 </v>
   <v>       0.06250000       0.31250000      -0.18750000 </v>
   <v>      -0.25000000       0.00000000       0.25000000 </v>
   <v>       0.00000000      -0.25000000       0.25000000 </v>
   <v>      -0.25000000       0.25000000       0.00000000 </v>
   <v>       0.25000000      -0.25000000       0.00000000 </v>
   <v>      -0.25000000       0.25000000       0.25000000 </v>
   <v>       0.25000000      -0.25000000       0.25000000 </v>
   <v>       0.25000000       0.00000000       0.25000000 </v>
   <v>       0.00000000       0.25000000       0.25000000 </v>
   <v>       0.25000000       0.00000000      -0.25000000 </v>
   <v>       0.00000000       0.25000000      -0.25000000 </v>
   <v>       0.25000000       0.25000000       0.00000000 </v>
   <v>       0.25000000       0.25000000      -0.25000000 </v>
   <v>      -0.18750000      -0.18750000       0.31250000 </v>
   <v>      -0.18750000       0.31250000       0.31250000 </v>
   <v>       0.31250000      -0.18750000       0.31250000 </v>
   <v>      -0.18750000       0.31250000      -0.18750000 </v>
   <v>       0.31250000      -0.18750000      -0.18750000 </v>
   <v>       0.31250000       0.31250000      -0.18750000 </v>
   <v>      -0.25000000       0.00000000       0.00000000 </v>
   <v>       0.00000000      -0.25000000       0.00000000 </v>
   <v>      -0.25000000       0.00000000      -0.50000000 </v>
   <v>       0.00000000      -0.25000000      -0.50000000 </v>
   <v>       0.00000000       0.00000000      -0.50000000 </v>
   <v>       0.00000000       0.00000000      -0.25000000 </v>
   <v>      -0.25000000      -0.50000000       0.00000000 </v>
   <v>      -0.50000000      -0.25000000       0.00000000 </v>
   <v>       0.00000000      -0.50000000       0.00000000 </v>
   <v>      -0.50000000       0.00000000      -0.25000000 </v>
   <v>       0.00000000      -0.50000000      -0.25000000 </v>
   <v>      -0.49954284      -0.00045716      -0.00045716 </v>
   <v>      -0.18750000      -0.18750000       0.06250000 </v>
   <v>      -0.43750000       0.06250000       0.31250000 </v>
   <v>       0.06250000      -0.43750000       0.31250000 </v>
   <v>      -0.18750000      -0.18750000      -0.43750000 </v>
   <v>      -0.43750000       0.31250000       0.06250000 </v>
   <v>       0.31250000      -0.43750000       0.06250000 </v>
   <v>      -0.43750000       0.31250000       0.31250000 </v>
   <v>       0.31250000      -0.43750000       0.31250000 </v>
   <v>      -0.18750000       0.06250000      -0.43750000 </v>
   <v>       0.06250000      -0.18750000      -0.43750000 </v>
   <v>      -0.18750000       0.06250000      -0.18750000 </v>
   <v>       0.06250000      -0.18750000      -0.18750000 </v>
   <v>      -0.18750000      -0.43750000       0.06250000 </v>
   <v>      -0.43750000      -0.18750000       0.06250000 </v>
   <v>       0.31250000       0.06250000       0.31250000 </v>
   <v>       0.06250000       0.31250000       0.31250000 </v>
   <v>       0.31250000       0.06250000      -0.43750000 </v>
   <v>       0.06250000       0.31250000      -0.43750000 </v>
   <v>      -0.18750000      -0.43750000      -0.18750000 </v>
   <v>      -0.43750000      -0.18750000      -0.18750000 </v>
   <v>       0.31250000       0.31250000       0.06250000 </v>
   <v>       0.31250000       0.31250000      -0.43750000 </v>
   <v>      -0.43750000       0.06250000      -0.18750000 </v>
   <v>       0.06250000      -0.43750000      -0.18750000 </v>
   <v>      -0.25000000      -0.25000000      -0.50000000 </v>
   <v>      -0.25000000      -0.25000000       0.25000000 </v>
   <v>      -0.50000000       0.25000000       0.25000000 </v>
   <v>       0.25000000      -0.50000000       0.25000000 </v>
   <v>      -0.25000000       0.25000000      -0.50000000 </v>
   <v>       0.25000000      -0.25000000      -0.50000000 </v>
   <v>      -0.25000000       0.25000000      -0.25000000 </v>
   <v>       0.25000000      -0.25000000      -0.25000000 </v>
   <v>      -0.25000000      -0.50000000       0.25000000 </v>
   <v>      -0.50000000      -0.25000000       0.25000000 </v>
   <v>      -0.25000000      -0.50000000      -0.25000000 </v>
   <v>      -0.50000000      -0.25000000      -0.25000000 </v>
   <v>       0.25000000       0.25000000       0.25000000 </v>
   <v>       0.25000000       0.25000000      -0.50000000 </v>
   <v>      -0.50000000       0.25000000      -0.25000000 </v>
   <v>       0.25000000      -0.50000000      -0.25000000 </v>
   <v>      -0.43750000       0.06250000       0.06250000 </v>
   <v>       0.06250000      -0.43750000       0.06250000 </v>
   <v>      -0.43750000       0.06250000      -0.43750000 </v>
   <v>       0.06250000      -0.43750000      -0.43750000 </v>
   <v>      -0.43750000      -0.43750000       0.06250000 </v>
   <v>       0.06250000       0.06250000      -0.43750000 </v>
   <v>      -0.50000000       0.00000000       0.25000000 </v>
   <v>       0.00000000      -0.50000000       0.25000000 </v>
   <v>      -0.50000000       0.00000000      -0.50000000 </v>
   <v>       0.00000000      -0.50000000      -0.50000000 </v>
   <v>      -0.50000000       0.25000000       0.00000000 </v>
   <v>       0.25000000      -0.50000000       0.00000000 </v>
   <v>      -0.50000000       0.25000000      -0.50000000 </v>
   <v>       0.25000000      -0.50000000      -0.50000000 </v>
   <v>      -0.50000000      -0.50000000       0.00000000 </v>
   <v>      -0.50000000      -0.50000000       0.25000000 </v>
   <v>       0.25000000       0.00000000      -0.50000000 </v>
   <v>       0.00000000       0.25000000      -0.50000000 </v>
   <v>      -0.18750000      -0.43750000       0.31250000 </v>
   <v>      -0.43750000      -0.18750000       0.31250000 </v>
   <v>      -0.18750000      -0.43750000      -0.43750000 </v>
   <v>      -0.43750000      -0.18750000      -0.43750000 </v>
   <v>      -0.43750000       0.31250000      -0.43750000 </v>
   <v>       0.31250000      -0.43750000      -0.43750000 </v>
   <v>      -0.43750000       0.31250000      -0.18750000 </v>
   <v>       0.31250000      -0.43750000      -0.18750000 </v>
   <v>      -0.43750000      -0.43750000       0.31250000 </v>
   <v>      -0.18750000       0.31250000      -0.43750000 </v>
   <v>       0.31250000      -0.18750000      -0.43750000 </v>
   <v>      -0.43750000      -0.43750000      -0.18750000 </v>
   <v>      -0.25000000      -0.25000000       0.00000000 </v>
   <v>      -0.25000000      -0.25000000      -0.25000000 </v>
   <v>      -0.25000000       0.00000000      -0.25000000 </v>
   <v>       0.00000000      -0.25000000      -0.25000000 </v>
   <v>      -0.18750000      -0.18750000      -0.18750000 </v>
   <v>       0.31250000       0.31250000       0.31250000 </v>
   <v>      -0.25000000      -0.50000000      -0.50000000 </v>
   <v>      -0.50000000      -0.25000000      -0.50000000 </v>
   <v>      -0.50000000      -0.50000000      -0.50000000 </v>
   <v>      -0.50000000      -0.50000000      -0.25000000 </v>
   <v>      -0.43750000      -0.43750000      -0.43750000 </v>
  </varray>
 </structure>
 <varray name="primitive_index" >
  <v type="int" >        1 </v>
  <v type="int" >       81 </v>
  <v type="int" >       65 </v>
  <v type="int" >       66 </v>
  <v type="int" >       69 </v>
  <v type="int" >        4 </v>
  <v type="int" >       13 </v>
  <v type="int" >       20 </v>
  <v type="int" >       29 </v>
  <v type="int" >        8 </v>
  <v type="int" >       14 </v>
  <v type="int" >       17 </v>
  <v type="int" >       49 </v>
  <v type="int" >        2 </v>
  <v type="int" >        5 </v>
  <v type="int" >       50 </v>
  <v type="int" >       53 </v>
  <v type="int" >       84 </v>
  <v type="int" >       93 </v>
  <v type="int" >       72 </v>
  <v type="int" >       78 </v>
  <v type="int" >       88 </v>
  <v type="int" >       94 </v>
  <v type="int" >       82 </v>
  <v type="int" >       85 </v>
  <v type="int" >      114 </v>
  <v type="int" >      117 </v>
  <v type="int" >       70 </v>
  <v type="int" >      118 </v>
  <v type="int" >       32 </v>
  <v type="int" >       24 </v>
  <v type="int" >       30 </v>
  <v type="int" >       56 </v>
  <v type="int" >       62 </v>
  <v type="int" >       54 </v>
  <v type="int" >       68 </v>
  <v type="int" >       77 </v>
  <v type="int" >      100 </v>
  <v type="int" >      109 </v>
  <v type="int" >       97 </v>
  <v type="int" >      113 </v>
  <v type="int" >       76 </v>
  <v type="int" >       79 </v>
  <v type="int" >       73 </v>
  <v type="int" >      115 </v>
  <v type="int" >      121 </v>
  <v type="int" >       67 </v>
  <v type="int" >       16 </v>
  <v type="int" >       19 </v>
  <v type="int" >       25 </v>
  <v type="int" >       48 </v>
  <v type="int" >        7 </v>
  <v type="int" >       10 </v>
  <v type="int" >       23 </v>
  <v type="int" >       26 </v>
  <v type="int" >       36 </v>
  <v type="int" >       45 </v>
  <v type="int" >       52 </v>
  <v type="int" >       61 </v>
  <v type="int" >       12 </v>
  <v type="int" >       15 </v>
  <v type="int" >       18 </v>
  <v type="int" >       21 </v>
  <v type="int" >       34 </v>
  <v type="int" >       37 </v>
  <v type="int" >       60 </v>
  <v type="int" >       63 </v>
  <v type="int" >        6 </v>
  <v type="int" >       38 </v>
  <v type="int" >       51 </v>
  <v type="int" >       57 </v>
  <v type="int" >      112 </v>
  <v type="int" >       96 </v>
  <v type="int" >       87 </v>
  <v type="int" >       90 </v>
  <v type="int" >      104 </v>
  <v type="int" >      110 </v>
  <v type="int" >      120 </v>
  <v type="int" >      126 </v>
  <v type="int" >       92 </v>
  <v type="int" >       95 </v>
  <v type="int" >      124 </v>
  <v type="int" >      127 </v>
  <v type="int" >       86 </v>
  <v type="int" >      102 </v>
  <v type="int" >      119 </v>
  <v type="int" >      122 </v>
  <v type="int" >        3 </v>
  <v type="int" >        9 </v>
  <v type="int" >       35 </v>
  <v type="int" >       41 </v>
  <v type="int" >       11 </v>
  <v type="int" >       33 </v>
  <v type="int" >       83 </v>
  <v type="int" >       89 </v>
  <v type="int" >       99 </v>
  <v type="int" >      105 </v>
  <v type="int" >       71 </v>
  <v type="int" >       74 </v>
  <v type="int" >      103 </v>
  <v type="int" >      106 </v>
  <v type="int" >       75 </v>
  <v type="int" >       91 </v>
  <v type="int" >       98 </v>
  <v type="int" >      101 </v>
  <v type="int" >       28 </v>
  <v type="int" >       31 </v>
  <v type="int" >       44 </v>
  <v type="int" >       47 </v>
  <v type="int" >       39 </v>
  <v type="int" >       42 </v>
  <v type="int" >       55 </v>
  <v type="int" >       58 </v>
  <v type="int" >       27 </v>
  <v type="int" >       40 </v>
  <v type="int" >       46 </v>
  <v type="int" >       59 </v>
  <v type="int" >       80 </v>
  <v type="int" >      128 </v>
  <v type="int" >      116 </v>
  <v type="int" >      125 </v>
  <v type="int" >       64 </v>
  <v type="int" >       22 </v>
  <v type="int" >      108 </v>
  <v type="int" >      111 </v>
  <v type="int" >      107 </v>
  <v type="int" >      123 </v>
  <v type="int" >       43 </v>
 </varray>
 <kpoints>
  <generation param="Gamma">
   <v type="int" name="divisions">       1        1        1 </v>
   <v name="usershift">      0.00000000       0.00000000       0.00000000 </v>
   <v name="genvec1">      1.00000000       0.00000000       0.00000000 </v>
   <v name="genvec2">      0.00000000       1.00000000       0.00000000 </v>
   <v name="genvec3">      0.00000000       0.00000000       1.00000000 </v>
   <v name="shift">      0.00000000       0.00000000       0.00000000 </v>
  </generation>
  <varray name="kpointlist" >
   <v>       0.00000000       0.00000000       0.00000000 </v>
  </varray>
  <varray name="weights" >
   <v>       1.00000000 </v>
  </varray>
 </kpoints>
 <parameters>
  <separator name="general" >
   <i type="string" name="SYSTEM">unknown system</i>
   <i type="logical" name="LCOMPAT"> F  </i>
  </separator>
  <separator name="electronic" >
   <i type="string" name="PREC">accura</i>
   <i name="ENMAX">    500.00000000</i>
   <i name="ENAUG">    322.06900000</i>
   <i name="EDIFF">      0.00000001</i>
   <i type="int" name="IALGO">    38</i>
   <i type="int" name="IWAVPR">    10</i>
   <i type="int" name="NBANDS">   322</i>
   <i name="NELECT">    512.00000000</i>
   <i type="int" name="TURBO">     0</i>
   <i type="int" name="IRESTART">     0</i>
   <i type="int" name="NREBOOT">     0</i>
   <i type="int" name="NMIN">     0</i>
   <i name="EREF">      0.00000000</i>
   <separator name="electronic smearing" >
    <i type="int" name="ISMEAR">     0</i>
    <i name="SIGMA">      0.05000000</i>
    <i name="KSPACING">      0.50000000</i>
    <i type="logical" name="KGAMMA"> T  </i>
   </separator>
   <separator name="electronic projectors" >
    <i type="logical" name="LREAL"> F  </i>
    <v name="ROPT">      0.00000000</v>
    <i type="int" name="LMAXPAW">  -100</i>
    <i type="int" name="LMAXMIX">     2</i>
    <i type="logical" name="NLSPLINE"> F  </i>
   </separator>
   <separator name="electronic startup" >
    <i type="int" name="ISTART">     0</i>
    <i type="int" name="ICHARG">     2</i>
    <i type="int" name="INIWAV">     1</i>
   </separator>
   <separator name="electronic spin" >
    <i type="int" name="ISPIN">     1</i>
    <i type="logical" name="LNONCOLLINEAR"> F  </i>
    <v name="MAGMOM">      1.00000000      1.00000000      1.00000000      1.00000000      1.00000000      1.00000000      1.00000000      1.00000000      1.00000000      1.00000000      1.00000000      1.00000000      1.00000000      1.00000000      1.00000000      1.00000000      1.00000000      1.00000000      1.00000000      1.00000000
      1.00000000      1.00000000      1.00000000      1.00000000      1.00000000      1.00000000      1.00000000      1.00000000      1.00000000      1.00000000      1.00000000      1.00000000      1.00000000      1.00000000      1.00000000      1.00000000      1.00000000      1.00000000      1.00000000      1.00000000
      1.00000000      1.00000000      1.00000000      1.00000000      1.00000000      1.00000000      1.00000000      1.00000000      1.00000000      1.00000000      1.00000000      1.00000000      1.00000000      1.00000000      1.00000000      1.00000000      1.00000000      1.00000000      1.00000000      1.00000000
      1.00000000      1.00000000      1.00000000      1.00000000      1.00000000      1.00000000      1.00000000      1.00000000      1.00000000      1.00000000      1.00000000      1.00000000      1.00000000      1.00000000      1.00000000      1.00000000      1.00000000      1.00000000      1.00000000      1.00000000
      1.00000000      1.00000000      1.00000000      1.00000000      1.00000000      1.00000000      1.00000000      1.00000000      1.00000000      1.00000000      1.00000000      1.00000000      1.00000000      1.00000000      1.00000000      1.00000000      1.00000000      1.00000000      1.00000000      1.00000000
      1.00000000      1.00000000      1.00000000      1.00000000      1.00000000      1.00000000      1.00000000      1.00000000      1.00000000      1.00000000      1.00000000      1.00000000      1.00000000      1.00000000      1.00000000      1.00000000      1.00000000      1.00000000      1.00000000      1.00000000
      1.00000000      1.00000000      1.00000000      1.00000000      1.00000000      1.00000000      1.00000000      1.00000000</v>
    <i name="NUPDOWN">     -1.00000000</i>
    <i type="logical" name="LSORBIT"> F  </i>
    <v name="SAXIS">      0.00000000      0.00000000      1.00000000</v>
    <i type="logical" name="LSPIRAL"> F  </i>
    <v name="QSPIRAL">      0.00000000      0.00000000      0.00000000</v>
    <i type="logical" name="LZEROZ"> F  </i>
   </separator>
   <separator name="electronic exchange-correlation" >
    <i type="logical" name="LASPH"> F  </i>
    <i type="logical" name="LMETAGGA"> F  </i>
   </separator>
   <separator name="electronic convergence" >
    <i type="int" name="NELM">    60</i>
    <i type="int" name="NELMDL">    -5</i>
    <i type="int" name="NELMIN">     2</i>
    <i name="ENINI">    500.00000000</i>
    <separator name="electronic convergence detail" >
     <i type="logical" name="LDIAG"> T  </i>
     <i type="logical" name="LSUBROT"> F  </i>
     <i name="WEIMIN">      0.00000000</i>
     <i name="EBREAK">      0.00000000</i>
     <i name="DEPER">      0.30000000</i>
     <i type="int" name="NRMM">     4</i>
     <i name="TIME">      0.40000000</i>
    </separator>
   </separator>
   <separator name="electronic mixer" >
    <i name="AMIX">      0.40000000</i>
    <i name="BMIX">      1.00000000</i>
    <i name="AMIN">      0.10000000</i>
    <i name="AMIX_MAG">      1.60000000</i>
    <i name="BMIX_MAG">      1.00000000</i>
    <separator name="electronic mixer details" >
     <i type="int" name="IMIX">     4</i>
     <i type="logical" name="MIXFIRST"> F  </i>
     <i type="int" name="MAXMIX">   -45</i>
     <i name="WC">    100.00000000</i>
     <i type="int" name="INIMIX">     1</i>
     <i type="int" name="MIXPRE">     1</i>
     <i type="int" name="MREMOVE">     5</i>
    </separator>
   </separator>
   <separator name="electronic dipolcorrection" >
    <i type="logical" name="LDIPOL"> F  </i>
    <i type="logical" name="LMONO"> F  </i>
    <i type="int" name="IDIPOL">     0</i>
    <i name="EPSILON">      1.00000000</i>
    <v name="DIPOL">   -100.00000000   -100.00000000   -100.00000000</v>
    <i name="EFIELD">      0.00000000</i>
   </separator>
  </separator>
  <separator name="grids" >
   <i type="int" name="NGX">   120</i>
   <i type="int" name="NGY">   120</i>
   <i type="int" name="NGZ">   120</i>
   <i type="int" name="NGXF">   240</i>
   <i type="int" name="NGYF">   240</i>
   <i type="int" name="NGZF">   240</i>
   <i type="logical" name="ADDGRID"> T  </i>
  </separator>
  <separator name="ionic" >
   <i type="int" name="NSW">     0</i>
   <i type="int" name="IBRION">    -1</i>
   <i type="int" name="MDALGO">     0</i>
   <i type="int" name="ISIF">     2</i>
   <i name="PSTRESS">      0.00000000</i>
   <i name="EDIFFG">      0.00000010</i>
   <i type="int" name="NFREE">     0</i>
   <i name="POTIM">      0.50000000</i>
   <i name="SMASS">     -3.00000000</i>
   <i name="SCALEE">      1.00000000</i>
  </separator>
  <separator name="ionic md" >
   <i name="TEBEG">      0.00010000</i>
   <i name="TEEND">      0.00010000</i>
   <i type="int" name="NBLOCK">     1</i>
   <i type="int" name="KBLOCK">     1</i>
   <i type="int" name="NPACO">   256</i>
   <i name="APACO">     16.00000000</i>
  </separator>
  <separator name="symmetry" >
   <i type="int" name="ISYM">     0</i>
   <i name="SYMPREC">      0.00001000</i>
  </separator>
  <separator name="dos" >
   <i type="int" name="LORBIT">     0</i>
   <v name="RWIGS">     -1.00000000</v>
   <i type="int" name="NEDOS">   301</i>
   <i name="EMIN">     10.00000000</i>
   <i name="EMAX">    -10.00000000</i>
   <i name="EFERMI">      0.00000000</i>
  </separator>
  <separator name="writing" >
   <i type="int" name="NWRITE">     2</i>
   <i type="logical" name="LWAVE"> F  </i>
   <i type="logical" name="LDOWNSAMPLE"> F  </i>
   <i type="logical" name="LCHARG"> F  </i>
   <i type="logical" name="LPARD"> F  </i>
   <i type="logical" name="LVTOT"> F  </i>
   <i type="logical" name="LVHAR"> F  </i>
   <i type="logical" name="LELF"> F  </i>
   <i type="logical" name="LOPTICS"> F  </i>
   <v name="STM">      0.00000000      0.00000000      0.00000000      0.00000000      0.00000000      0.00000000      0.00000000</v>
  </separator>
  <separator name="performance" >
   <i type="int" name="NPAR">     2</i>
   <i type="int" name="NSIM">     4</i>
   <i type="int" name="NBLK">    -1</i>
   <i type="logical" name="LPLANE"> T  </i>
   <i type="logical" name="LSCALAPACK"> T  </i>
   <i type="logical" name="LSCAAWARE"> F  </i>
   <i type="logical" name="LSCALU"> F  </i>
   <i type="logical" name="LASYNC"> F  </i>
   <i type="logical" name="LORBITALREAL"> F  </i>
  </separator>
  <separator name="miscellaneous" >
   <i type="int" name="IDIOT">     3</i>
   <i type="int" name="ISPECIAL">     0</i>
   <i type="logical" name="LMUSIC"> F  </i>
   <v name="POMASS">     28.08500000</v>
   <v name="DARWINR">      0.00000000</v>
   <v name="DARWINV">      1.00000000</v>
   <i type="logical" name="LCORR"> T  </i>
  </separator>
  <i type="logical" name="GGA_COMPAT"> T  </i>
  <i type="logical" name="LBERRY"> F  </i>
  <i type="int" name="ICORELEVEL">     0</i>
  <i type="logical" name="LDAU"> F  </i>
  <i type="int" name="I_CONSTRAINED_M">     0</i>
  <separator name="electronic exchange-correlation" >
   <i type="string" name="GGA">--</i>
   <i type="int" name="VOSKOWN">     0</i>
   <i type="logical" name="LHFCALC"> F  </i>
   <i type="string" name="PRECFOCK"></i>
   <i type="logical" name="LSYMGRAD"> F  </i>
   <i type="logical" name="LHFONE"> F  </i>
   <i type="logical" name="LRHFCALC"> F  </i>
   <i type="logical" name="LTHOMAS"> F  </i>
   <i type="logical" name="LMODELHF"> F  </i>
   <i name="ENCUT4O">     -1.00000000</i>
   <i type="int" name="EXXOEP">     0</i>
   <i type="int" name="FOURORBIT">     0</i>
   <i name="AEXX">      0.00000000</i>
   <i name="HFALPHA">      0.00000000</i>
   <i name="MCALPHA">      0.00000000</i>
   <i name="ALDAX">      1.00000000</i>
   <i name="AGGAX">      1.00000000</i>
   <i name="ALDAC">      1.00000000</i>
   <i name="AGGAC">      1.00000000</i>
   <i type="int" name="NKREDX">     1</i>
   <i type="int" name="NKREDY">     1</i>
   <i type="int" name="NKREDZ">     1</i>
   <i type="logical" name="SHIFTRED"> F  </i>
   <i type="logical" name="ODDONLY"> F  </i>
   <i type="logical" name="EVENONLY"> F  </i>
   <i type="int" name="LMAXFOCK">     0</i>
   <i type="int" name="NMAXFOCKAE">     0</i>
   <i type="logical" name="LFOCKAEDFT"> F  </i>
   <i name="HFSCREEN">      0.00000000</i>
   <i name="HFSCREENC">      0.00000000</i>
   <i type="int" name="NBANDSGWLOW">     0</i>
  </separator>
  <separator name="vdW DFT" >
   <i type="logical" name="LUSE_VDW"> F  </i>
   <i name="Zab_VDW">     -0.84910000</i>
   <i name="PARAM1">      0.12340000</i>
   <i name="PARAM2">      1.00000000</i>
   <i name="PARAM3">      0.00000000</i>
  </separator>
  <separator name="model GW" >
   <i type="int" name="MODEL_GW">     0</i>
   <i name="MODEL_EPS0">     12.26549432</i>
   <i name="MODEL_ALPHA">      1.00000000</i>
  </separator>
  <separator name="linear response parameters" >
   <i type="logical" name="LEPSILON"> F  </i>
   <i type="logical" name="LRPA"> F  </i>
   <i type="logical" name="LNABLA"> F  </i>
   <i type="logical" name="LVEL"> F  </i>
   <i type="int" name="KINTER">     0</i>
   <i name="CSHIFT">      0.10000000</i>
   <i name="OMEGAMAX">     -1.00000000</i>
   <i name="DEG_THRESHOLD">      0.00200000</i>
   <i name="RTIME">     -0.10000000</i>
   <i name="WPLASMAI">      0.00000000</i>
   <v name="DFIELD">      0.00000000      0.00000000      0.00000000</v>
   <v name="WPLASMA">      0.00000000      0.00000000      0.00000000      0.00000000      0.00000000      0.00000000      0.00000000      0.00000000      0.00000000</v>
  </separator>
  <separator name="orbital magnetization" >
   <i type="logical" name="NUCIND"> F  </i>
   <v name="MAGPOS">      0.00000000      0.00000000      0.00000000</v>
   <i type="logical" name="LNICSALL"> T  </i>
   <i type="logical" name="ORBITALMAG"> F  </i>
   <i type="logical" name="LMAGBLOCH"> F  </i>
   <i type="logical" name="LCHIMAG"> F  </i>
   <i type="logical" name="LGAUGE"> T  </i>
   <i type="int" name="MAGATOM">     0</i>
   <v name="MAGDIPOL">      0.00000000      0.00000000      0.00000000</v>
   <v name="AVECCONST">      0.00000000      0.00000000      0.00000000</v>
  </separator>
  <separator name="response functions" >
   <i type="logical" name="LADDER"> F  </i>
   <i type="logical" name="LRPAFORCE"> F  </i>
   <i type="logical" name="LFXC"> F  </i>
   <i type="logical" name="LHARTREE"> T  </i>
   <i type="int" name="IBSE">     0</i>
   <v type="int" name="KPOINT">    -1     0     0     0</v>
   <i type="logical" name="LTCTE"> F  </i>
   <i type="logical" name="LTETE"> F  </i>
   <i type="logical" name="LTRIPLET"> F  </i>
   <i type="logical" name="LFXCEPS"> F  </i>
   <i type="logical" name="LFXHEG"> F  </i>
   <i type="int" name="NATURALO">     2</i>
   <i type="logical" name="L2ORDER"> F  </i>
   <i type="logical" name="LMP2LT"> F  </i>
   <i type="logical" name="LUSEW"> F  </i>
   <i name="ENCUTGW">     -2.00000000</i>
   <i name="ENCUTGWSOFT">     -2.00000000</i>
   <i name="ENCUTLF">     -1.00000000</i>
   <i type="int" name="LMAXMP2">    -1</i>
   <i name="SCISSOR">      0.00000000</i>
   <i type="int" name="NOMEGA">     0</i>
   <i type="int" name="NOMEGAR">     0</i>
   <i type="int" name="NBANDSGW">    -1</i>
   <i type="int" name="NBANDSO">    -1</i>
   <i type="int" name="NBANDSV">    -1</i>
   <i type="int" name="NELM">     1</i>
   <i type="int" name="NELMHF">     1</i>
   <i type="int" name="DIM">     3</i>
   <i type="int" name="ANTIRES">     0</i>
   <i name="OMEGAMAX">    -30.00000000</i>
   <i name="OMEGAMIN">    -30.00000000</i>
   <i name="OMEGATL">   -200.00000000</i>
   <i type="int" name="OMEGAGRID">   140</i>
   <i name="CSHIFT">     -0.10000000</i>
   <i type="logical" name="SELFENERGY"> F  </i>
   <i type="logical" name="LSPECTRAL"> F  </i>
   <i type="logical" name="LSPECTRALGW"> F  </i>
   <i type="logical" name="LSINGLES"> F  </i>
   <i type="logical" name="LFERMIGW"> F  </i>
   <i type="logical" name="ODDONLYGW"> F  </i>
   <i type="logical" name="EVENONLYGW"> F  </i>
   <i type="int" name="NKREDLFX">     1</i>
   <i type="int" name="NKREDLFY">     1</i>
   <i type="int" name="NKREDLFZ">     1</i>
   <i type="int" name="MAXMEM">  2800</i>
   <i type="int" name="TELESCOPE">     0</i>
   <i type="int" name="TAUPAR">     1</i>
   <i type="int" name="OMEGAPAR">    -1</i>
   <i name="LAMBDA">      1.00000000</i>
  </separator>
  <separator name="External order field" >
   <i name="OFIELD_KAPPA">      0.00000000</i>
   <v name="OFIELD_K">      0.00000000      0.00000000      0.00000000</v>
   <i name="OFIELD_Q6_NEAR">      0.00000000</i>
   <i name="OFIELD_Q6_FAR">      0.00000000</i>
   <i name="OFIELD_A">      0.00000000</i>
  </separator>
 </parameters>
 <atominfo>
  <atoms>     128 </atoms>
  <types>       1 </types>
  <array name="atoms" >
   <dimension dim="1">ion</dimension>
   <field type="string">element</field>
   <field type="int">atomtype</field>
   <set>
    <rc><c>Si</c><c>   1</c></rc>
    <rc><c>Si</c><c>   1</c></rc>
    <rc><c>Si</c><c>   1</c></rc>
    <rc><c>Si</c><c>   1</c></rc>
    <rc><c>Si</c><c>   1</c></rc>
    <rc><c>Si</c><c>   1</c></rc>
    <rc><c>Si</c><c>   1</c></rc>
    <rc><c>Si</c><c>   1</c></rc>
    <rc><c>Si</c><c>   1</c></rc>
    <rc><c>Si</c><c>   1</c></rc>
    <rc><c>Si</c><c>   1</c></rc>
    <rc><c>Si</c><c>   1</c></rc>
    <rc><c>Si</c><c>   1</c></rc>
    <rc><c>Si</c><c>   1</c></rc>
    <rc><c>Si</c><c>   1</c></rc>
    <rc><c>Si</c><c>   1</c></rc>
    <rc><c>Si</c><c>   1</c></rc>
    <rc><c>Si</c><c>   1</c></rc>
    <rc><c>Si</c><c>   1</c></rc>
    <rc><c>Si</c><c>   1</c></rc>
    <rc><c>Si</c><c>   1</c></rc>
    <rc><c>Si</c><c>   1</c></rc>
    <rc><c>Si</c><c>   1</c></rc>
    <rc><c>Si</c><c>   1</c></rc>
    <rc><c>Si</c><c>   1</c></rc>
    <rc><c>Si</c><c>   1</c></rc>
    <rc><c>Si</c><c>   1</c></rc>
    <rc><c>Si</c><c>   1</c></rc>
    <rc><c>Si</c><c>   1</c></rc>
    <rc><c>Si</c><c>   1</c></rc>
    <rc><c>Si</c><c>   1</c></rc>
    <rc><c>Si</c><c>   1</c></rc>
    <rc><c>Si</c><c>   1</c></rc>
    <rc><c>Si</c><c>   1</c></rc>
    <rc><c>Si</c><c>   1</c></rc>
    <rc><c>Si</c><c>   1</c></rc>
    <rc><c>Si</c><c>   1</c></rc>
    <rc><c>Si</c><c>   1</c></rc>
    <rc><c>Si</c><c>   1</c></rc>
    <rc><c>Si</c><c>   1</c></rc>
    <rc><c>Si</c><c>   1</c></rc>
    <rc><c>Si</c><c>   1</c></rc>
    <rc><c>Si</c><c>   1</c></rc>
    <rc><c>Si</c><c>   1</c></rc>
    <rc><c>Si</c><c>   1</c></rc>
    <rc><c>Si</c><c>   1</c></rc>
    <rc><c>Si</c><c>   1</c></rc>
    <rc><c>Si</c><c>   1</c></rc>
    <rc><c>Si</c><c>   1</c></rc>
    <rc><c>Si</c><c>   1</c></rc>
    <rc><c>Si</c><c>   1</c></rc>
    <rc><c>Si</c><c>   1</c></rc>
    <rc><c>Si</c><c>   1</c></rc>
    <rc><c>Si</c><c>   1</c></rc>
    <rc><c>Si</c><c>   1</c></rc>
    <rc><c>Si</c><c>   1</c></rc>
    <rc><c>Si</c><c>   1</c></rc>
    <rc><c>Si</c><c>   1</c></rc>
    <rc><c>Si</c><c>   1</c></rc>
    <rc><c>Si</c><c>   1</c></rc>
    <rc><c>Si</c><c>   1</c></rc>
    <rc><c>Si</c><c>   1</c></rc>
    <rc><c>Si</c><c>   1</c></rc>
    <rc><c>Si</c><c>   1</c></rc>
    <rc><c>Si</c><c>   1</c></rc>
    <rc><c>Si</c><c>   1</c></rc>
    <rc><c>Si</c><c>   1</c></rc>
    <rc><c>Si</c><c>   1</c></rc>
    <rc><c>Si</c><c>   1</c></rc>
    <rc><c>Si</c><c>   1</c></rc>
    <rc><c>Si</c><c>   1</c></rc>
    <rc><c>Si</c><c>   1</c></rc>
    <rc><c>Si</c><c>   1</c></rc>
    <rc><c>Si</c><c>   1</c></rc>
    <rc><c>Si</c><c>   1</c></rc>
    <rc><c>Si</c><c>   1</c></rc>
    <rc><c>Si</c><c>   1</c></rc>
    <rc><c>Si</c><c>   1</c></rc>
    <rc><c>Si</c><c>   1</c></rc>
    <rc><c>Si</c><c>   1</c></rc>
    <rc><c>Si</c><c>   1</c></rc>
    <rc><c>Si</c><c>   1</c></rc>
    <rc><c>Si</c><c>   1</c></rc>
    <rc><c>Si</c><c>   1</c></rc>
    <rc><c>Si</c><c>   1</c></rc>
    <rc><c>Si</c><c>   1</c></rc>
    <rc><c>Si</c><c>   1</c></rc>
    <rc><c>Si</c><c>   1</c></rc>
    <rc><c>Si</c><c>   1</c></rc>
    <rc><c>Si</c><c>   1</c></rc>
    <rc><c>Si</c><c>   1</c></rc>
    <rc><c>Si</c><c>   1</c></rc>
    <rc><c>Si</c><c>   1</c></rc>
    <rc><c>Si</c><c>   1</c></rc>
    <rc><c>Si</c><c>   1</c></rc>
    <rc><c>Si</c><c>   1</c></rc>
    <rc><c>Si</c><c>   1</c></rc>
    <rc><c>Si</c><c>   1</c></rc>
    <rc><c>Si</c><c>   1</c></rc>
    <rc><c>Si</c><c>   1</c></rc>
    <rc><c>Si</c><c>   1</c></rc>
    <rc><c>Si</c><c>   1</c></rc>
    <rc><c>Si</c><c>   1</c></rc>
    <rc><c>Si</c><c>   1</c></rc>
    <rc><c>Si</c><c>   1</c></rc>
    <rc><c>Si</c><c>   1</c></rc>
    <rc><c>Si</c><c>   1</c></rc>
    <rc><c>Si</c><c>   1</c></rc>
    <rc><c>Si</c><c>   1</c></rc>
    <rc><c>Si</c><c>   1</c></rc>
    <rc><c>Si</c><c>   1</c></rc>
    <rc><c>Si</c><c>   1</c></rc>
    <rc><c>Si</c><c>   1</c></rc>
    <rc><c>Si</c><c>   1</c></rc>
    <rc><c>Si</c><c>   1</c></rc>
    <rc><c>Si</c><c>   1</c></rc>
    <rc><c>Si</c><c>   1</c></rc>
    <rc><c>Si</c><c>   1</c></rc>
    <rc><c>Si</c><c>   1</c></rc>
    <rc><c>Si</c><c>   1</c></rc>
    <rc><c>Si</c><c>   1</c></rc>
    <rc><c>Si</c><c>   1</c></rc>
    <rc><c>Si</c><c>   1</c></rc>
    <rc><c>Si</c><c>   1</c></rc>
    <rc><c>Si</c><c>   1</c></rc>
    <rc><c>Si</c><c>   1</c></rc>
    <rc><c>Si</c><c>   1</c></rc>
    <rc><c>Si</c><c>   1</c></rc>
   </set>
  </array>
  <array name="atomtypes" >
   <dimension dim="1">type</dimension>
   <field type="int">atomspertype</field>
   <field type="string">element</field>
   <field>mass</field>
   <field>valence</field>
   <field type="string">pseudopotential</field>
   <set>
    <rc><c> 128</c><c>Si</c><c>     28.08500000</c><c>      4.00000000</c><c> PAW_PBE Si 05Jan2001                   </c></rc>
   </set>
  </array>
 </atominfo>
 <structure name="initialpos" >
  <crystal>
   <varray name="basis" >
    <v>       0.00000000      10.93716070      10.93716070 </v>
    <v>      10.93716070       0.00000000      10.93716070 </v>
    <v>      10.93716070      10.93716070       0.00000000 </v>
   </varray>
   <i name="volume">   2616.63878844 </i>
   <varray name="rec_basis" >
    <v>      -0.04571570       0.04571570       0.04571570 </v>
    <v>       0.04571570      -0.04571570       0.04571570 </v>
    <v>       0.04571570       0.04571570      -0.04571570 </v>
   </varray>
  </crystal>
  <varray name="positions" >
   <v>       0.06204284       0.06204284       0.06295716 </v>
   <v>       0.31250000       0.06250000       0.06250000 </v>
   <v>       0.56250000       0.06250000       0.06250000 </v>
   <v>       0.81250000       0.06250000       0.06250000 </v>
   <v>       0.06250000       0.31250000       0.06250000 </v>
   <v>       0.31250000       0.31250000       0.06250000 </v>
   <v>       0.56250000       0.31250000       0.06250000 </v>
   <v>       0.81250000       0.31250000       0.06250000 </v>
   <v>       0.06250000       0.56250000       0.06250000 </v>
   <v>       0.31250000       0.56250000       0.06250000 </v>
   <v>       0.56250000       0.56250000       0.06250000 </v>
   <v>       0.81250000       0.56250000       0.06250000 </v>
   <v>       0.06250000       0.81250000       0.06250000 </v>
   <v>       0.31250000       0.81250000       0.06250000 </v>
   <v>       0.56250000       0.81250000       0.06250000 </v>
   <v>       0.81250000       0.81250000       0.06250000 </v>
   <v>       0.06250000       0.06250000       0.31250000 </v>
   <v>       0.31250000       0.06250000       0.31250000 </v>
   <v>       0.56250000       0.06250000       0.31250000 </v>
   <v>       0.81250000       0.06250000       0.31250000 </v>
   <v>       0.06250000       0.31250000       0.31250000 </v>
   <v>       0.31250000       0.31250000       0.31250000 </v>
   <v>       0.56250000       0.31250000       0.31250000 </v>
   <v>       0.81250000       0.31250000       0.31250000 </v>
   <v>       0.06250000       0.56250000       0.31250000 </v>
   <v>       0.31250000       0.56250000       0.31250000 </v>
   <v>       0.56250000       0.56250000       0.31250000 </v>
   <v>       0.81250000       0.56250000       0.31250000 </v>
   <v>       0.06250000       0.81250000       0.31250000 </v>
   <v>       0.31250000       0.81250000       0.31250000 </v>
   <v>       0.56250000       0.81250000       0.31250000 </v>
   <v>       0.81250000       0.81250000       0.31250000 </v>
   <v>       0.06250000       0.06250000       0.56250000 </v>
   <v>       0.31250000       0.06250000       0.56250000 </v>
   <v>       0.56250000       0.06250000       0.56250000 </v>
   <v>       0.81250000       0.06250000       0.56250000 </v>
   <v>       0.06250000       0.31250000       0.56250000 </v>
   <v>       0.31250000       0.31250000       0.56250000 </v>
   <v>       0.56250000       0.31250000       0.56250000 </v>
   <v>       0.81250000       0.31250000       0.56250000 </v>
   <v>       0.06250000       0.56250000       0.56250000 </v>
   <v>       0.31250000       0.56250000       0.56250000 </v>
   <v>       0.56250000       0.56250000       0.56250000 </v>
   <v>       0.81250000       0.56250000       0.56250000 </v>
   <v>       0.06250000       0.81250000       0.56250000 </v>
   <v>       0.31250000       0.81250000       0.56250000 </v>
   <v>       0.56250000       0.81250000       0.56250000 </v>
   <v>       0.81250000       0.81250000       0.56250000 </v>
   <v>       0.06250000       0.06250000       0.81250000 </v>
   <v>       0.31250000       0.06250000       0.81250000 </v>
   <v>       0.56250000       0.06250000       0.81250000 </v>
   <v>       0.81250000       0.06250000       0.81250000 </v>
   <v>       0.06250000       0.31250000       0.81250000 </v>
   <v>       0.31250000       0.31250000       0.81250000 </v>
   <v>       0.56250000       0.31250000       0.81250000 </v>
   <v>       0.81250000       0.31250000       0.81250000 </v>
   <v>       0.06250000       0.56250000       0.81250000 </v>
   <v>       0.31250000       0.56250000       0.81250000 </v>
   <v>       0.56250000       0.56250000       0.81250000 </v>
   <v>       0.81250000       0.56250000       0.81250000 </v>
   <v>       0.06250000       0.81250000       0.81250000 </v>
   <v>       0.31250000       0.81250000       0.81250000 </v>
   <v>       0.56250000       0.81250000       0.81250000 </v>
   <v>       0.81250000       0.81250000       0.81250000 </v>
   <v>       0.00000000       0.00000000       0.00000000 </v>
   <v>       0.25000000       0.00000000       0.00000000 </v>
   <v>       0.50045716       0.99954284       0.99954284 </v>
   <v>       0.75000000       0.00000000       0.00000000 </v>
   <v>       0.00000000       0.25000000       0.00000000 </v>
   <v>       0.25000000       0.25000000       0.00000000 </v>
   <v>       0.50000000       0.25000000       0.00000000 </v>
   <v>       0.75000000       0.25000000       0.00000000 </v>
   <v>       0.00000000       0.50000000       0.00000000 </v>
   <v>       0.25000000       0.50000000       0.00000000 </v>
   <v>       0.50000000       0.50000000       0.00000000 </v>
   <v>       0.75000000       0.50000000       0.00000000 </v>
   <v>       0.00000000       0.75000000       0.00000000 </v>
   <v>       0.25000000       0.75000000       0.00000000 </v>
   <v>       0.50000000       0.75000000       0.00000000 </v>
   <v>       0.75000000       0.75000000       0.00000000 </v>
   <v>       0.00000000       0.00000000       0.25000000 </v>
   <v>       0.25000000       0.00000000       0.25000000 </v>
   <v>       0.50000000       0.00000000       0.25000000 </v>
   <v>       0.75000000       0.00000000       0.25000000 </v>
   <v>       0.00000000       0.25000000       0.25000000 </v>
   <v>       0.25000000       0.25000000       0.25000000 </v>
   <v>       0.50000000       0.25000000       0.25000000 </v>
   <v>       0.75000000       0.25000000       0.25000000 </v>
   <v>       0.00000000       0.50000000       0.25000000 </v>
   <v>       0.25000000       0.50000000       0.25000000 </v>
   <v>       0.50000000       0.50000000       0.25000000 </v>
   <v>       0.75000000       0.50000000       0.25000000 </v>
   <v>       0.00000000       0.75000000       0.25000000 </v>
   <v>       0.25000000       0.75000000       0.25000000 </v>
   <v>       0.50000000       0.75000000       0.25000000 </v>
   <v>       0.75000000       0.75000000       0.25000000 </v>
   <v>       0.00000000       0.00000000       0.50000000 </v>
   <v>       0.25000000       0.00000000       0.50000000 </v>
   <v>       0.50000000       0.00000000       0.50000000 </v>
   <v>       0.75000000       0.00000000       0.50000000 </v>
   <v>       0.00000000       0.25000000       0.50000000 </v>
   <v>       0.25000000       0.25000000       0.50000000 </v>
   <v>       0.50000000       0.25000000       0.50000000 </v>
   <v>       0.75000000       0.25000000       0.50000000 </v>
   <v>       0.00000000       0.50000000       0.50000000 </v>
   <v>       0.25000000       0.50000000       0.50000000 </v>
   <v>       0.50000000       0.50000000       0.50000000 </v>
   <v>       0.75000000       0.50000000       0.50000000 </v>
   <v>       0.00000000       0.75000000       0.50000000 </v>
   <v>       0.25000000       0.75000000       0.50000000 </v>
   <v>       0.50000000       0.75000000       0.50000000 </v>
   <v>       0.75000000       0.75000000       0.50000000 </v>
   <v>       0.00000000       0.00000000       0.75000000 </v>
   <v>       0.25000000       0.00000000       0.75000000 </v>
   <v>       0.50000000       0.00000000       0.75000000 </v>
   <v>       0.75000000       0.00000000       0.75000000 </v>
   <v>       0.00000000       0.25000000       0.75000000 </v>
   <v>       0.25000000       0.25000000       0.75000000 </v>
   <v>       0.50000000       0.25000000       0.75000000 </v>
   <v>       0.75000000       0.25000000       0.75000000 </v>
   <v>       0.00000000       0.50000000       0.75000000 </v>
   <v>       0.25000000       0.50000000       0.75000000 </v>
   <v>       0.50000000       0.50000000       0.75000000 </v>
   <v>       0.75000000       0.50000000       0.75000000 </v>
   <v>       0.00000000       0.75000000       0.75000000 </v>
   <v>       0.25000000       0.75000000       0.75000000 </v>
   <v>       0.50000000       0.75000000       0.75000000 </v>
   <v>       0.75000000       0.75000000       0.75000000 </v>
  </varray>
 </structure>
 <calculation>
  <scstep>
   <time name="dav">    4.80    4.82</time>
   <time name="total">    5.32    5.34</time>
   <energy>
    <i name="alphaZ">    210.78028765 </i>
    <i name="ewald"> -14524.86517344 </i>
    <i name="hartreedc">   -724.62057581 </i>
    <i name="XCdc">  -1195.83148083 </i>
    <i name="pawpsdc">   4221.13331941 </i>
    <i name="pawaedc">  -1969.18571412 </i>
    <i name="eentropy">     -0.01538140 </i>
    <i name="bandstr">   2165.00823132 </i>
    <i name="atom">  13192.48085998 </i>
    <i name="e_fr_energy">   1374.88437276 </i>
    <i name="e_wo_entrp">   1374.89975416 </i>
    <i name="e_0_energy">   1374.89206346 </i>
   </energy>
  </scstep>
  <scstep>
   <time name="dav">    5.43    5.45</time>
   <time name="total">    5.43    5.45</time>
   <energy>
    <i name="e_fr_energy">   -537.01360132 </i>
    <i name="e_wo_entrp">   -537.01359939 </i>
    <i name="e_0_energy">   -537.01360035 </i>
   </energy>
  </scstep>
  <scstep>
   <time name="dav">    5.48    5.50</time>
   <time name="total">    5.48    5.50</time>
   <energy>
    <i name="e_fr_energy">   -690.02371131 </i>
    <i name="e_wo_entrp">   -690.02371131 </i>
    <i name="e_0_energy">   -690.02371131 </i>
   </energy>
  </scstep>
  <scstep>
   <time name="dav">    5.39    5.41</time>
   <time name="total">    5.39    5.41</time>
   <energy>
    <i name="e_fr_energy">   -694.53327094 </i>
    <i name="e_wo_entrp">   -694.53327094 </i>
    <i name="e_0_energy">   -694.53327094 </i>
   </energy>
  </scstep>
  <scstep>
   <time name="dav">    5.36    5.38</time>
   <time name="total">    5.89    5.90</time>
   <energy>
    <i name="e_fr_energy">   -694.69875091 </i>
    <i name="e_wo_entrp">   -694.69875091 </i>
    <i name="e_0_energy">   -694.69875091 </i>
   </energy>
  </scstep>
  <scstep>
   <time name="dav">    5.10    5.12</time>
   <time name="total">    6.12    6.14</time>
   <energy>
    <i name="e_fr_energy">   -686.29985539 </i>
    <i name="e_wo_entrp">   -686.29985539 </i>
    <i name="e_0_energy">   -686.29985539 </i>
   </energy>
  </scstep>
  <scstep>
   <time name="dav">    4.91    4.92</time>
   <time name="total">    5.94    5.95</time>
   <energy>
    <i name="e_fr_energy">   -682.42699398 </i>
    <i name="e_wo_entrp">   -682.42699398 </i>
    <i name="e_0_energy">   -682.42699398 </i>
   </energy>
  </scstep>
  <scstep>
   <time name="dav">    5.00    5.02</time>
   <time name="total">    6.04    6.06</time>
   <energy>
    <i name="e_fr_energy">   -682.55905661 </i>
    <i name="e_wo_entrp">   -682.55905661 </i>
    <i name="e_0_energy">   -682.55905661 </i>
   </energy>
  </scstep>
  <scstep>
   <time name="dav">    5.48    5.49</time>
   <time name="total">    6.50    6.52</time>
   <energy>
    <i name="e_fr_energy">   -682.56550406 </i>
    <i name="e_wo_entrp">   -682.56550406 </i>
    <i name="e_0_energy">   -682.56550406 </i>
   </energy>
  </scstep>
  <scstep>
   <time name="dav">    4.95    4.96</time>
   <time name="total">    5.97    5.99</time>
   <energy>
    <i name="e_fr_energy">   -682.56818740 </i>
    <i name="e_wo_entrp">   -682.56818740 </i>
    <i name="e_0_energy">   -682.56818740 </i>
   </energy>
  </scstep>
  <scstep>
   <time name="dav">    5.43    5.45</time>
   <time name="total">    6.45    6.49</time>
   <energy>
    <i name="e_fr_energy">   -682.56820075 </i>
    <i name="e_wo_entrp">   -682.56820075 </i>
    <i name="e_0_energy">   -682.56820075 </i>
   </energy>
  </scstep>
  <scstep>
   <time name="dav">    5.38    5.40</time>
   <time name="total">    6.40    6.42</time>
   <energy>
    <i name="e_fr_energy">   -682.56820548 </i>
    <i name="e_wo_entrp">   -682.56820548 </i>
    <i name="e_0_energy">   -682.56820548 </i>
   </energy>
  </scstep>
  <scstep>
   <time name="dav">    5.39    5.40</time>
   <time name="total">    6.41    6.43</time>
   <energy>
    <i name="e_fr_energy">   -682.56820161 </i>
    <i name="e_wo_entrp">   -682.56820161 </i>
    <i name="e_0_energy">   -682.56820161 </i>
   </energy>
  </scstep>
  <scstep>
   <time name="dav">    5.29    5.31</time>
   <time name="total">    6.32    6.34</time>
   <energy>
    <i name="e_fr_energy">   -682.56820219 </i>
    <i name="e_wo_entrp">   -682.56820219 </i>
    <i name="e_0_energy">   -682.56820219 </i>
   </energy>
  </scstep>
  <scstep>
   <time name="dav">    3.83    3.84</time>
   <time name="total">    4.85    4.87</time>
   <energy>
    <i name="e_fr_energy">   -682.56820113 </i>
    <i name="e_wo_entrp">   -682.56820113 </i>
    <i name="e_0_energy">   -682.56820113 </i>
   </energy>
  </scstep>
  <scstep>
   <time name="dav">    3.37    3.38</time>
   <time name="total">    4.39    4.41</time>
   <energy>
    <i name="e_fr_energy">   -682.56820121 </i>
    <i name="e_wo_entrp">   -682.56820121 </i>
    <i name="e_0_energy">   -682.56820121 </i>
   </energy>
  </scstep>
  <scstep>
   <time name="dav">    3.22    3.23</time>
   <time name="total">    4.24    4.25</time>
   <energy>
    <i name="e_fr_energy">   -682.56820124 </i>
    <i name="e_wo_entrp">   -682.56820124 </i>
    <i name="e_0_energy">   -682.56820124 </i>
   </energy>
  </scstep>
  <scstep>
   <time name="dav">    3.22    3.23</time>
   <time name="total">    4.24    4.26</time>
   <energy>
    <i name="e_fr_energy">   -682.56820123 </i>
    <i name="e_wo_entrp">   -682.56820123 </i>
    <i name="e_0_energy">   -682.56820123 </i>
   </energy>
  </scstep>
  <scstep>
   <time name="dav">    3.23    3.24</time>
   <time name="total">    3.73    3.74</time>
   <energy>
    <i name="alphaZ">    210.78028765 </i>
    <i name="ewald"> -14524.86517344 </i>
    <i name="hartreedc">   -991.73328609 </i>
    <i name="XCdc">  -1153.28598609 </i>
    <i name="pawpsdc">   4723.40772735 </i>
    <i name="pawaedc">  -2485.14585401 </i>
    <i name="eentropy">     -0.00000000 </i>
    <i name="bandstr">    345.79322342 </i>
    <i name="atom">  13192.48085998 </i>
    <i name="e_fr_energy">   -682.56820122 </i>
    <i name="e_wo_entrp">   -682.56820122 </i>
    <i name="e_0_energy">   -682.56820122 </i>
   </energy>
  </scstep>
  <structure>
   <crystal>
    <varray name="basis" >
     <v>       0.00000000      10.93716070      10.93716070 </v>
     <v>      10.93716070       0.00000000      10.93716070 </v>
     <v>      10.93716070      10.93716070       0.00000000 </v>
    </varray>
    <i name="volume">   2616.63878844 </i>
    <varray name="rec_basis" >
     <v>      -0.04571570       0.04571570       0.04571570 </v>
     <v>       0.04571570      -0.04571570       0.04571570 </v>
     <v>       0.04571570       0.04571570      -0.04571570 </v>
    </varray>
   </crystal>
   <varray name="positions" >
    <v>       0.06204284       0.06204284       0.06295716 </v>
    <v>       0.31250000       0.06250000       0.06250000 </v>
    <v>       0.56250000       0.06250000       0.06250000 </v>
    <v>       0.81250000       0.06250000       0.06250000 </v>
    <v>       0.06250000       0.31250000       0.06250000 </v>
    <v>       0.31250000       0.31250000       0.06250000 </v>
    <v>       0.56250000       0.31250000       0.06250000 </v>
    <v>       0.81250000       0.31250000       0.06250000 </v>
    <v>       0.06250000       0.56250000       0.06250000 </v>
    <v>       0.31250000       0.56250000       0.06250000 </v>
    <v>       0.56250000       0.56250000       0.06250000 </v>
    <v>       0.81250000       0.56250000       0.06250000 </v>
    <v>       0.06250000       0.81250000       0.06250000 </v>
    <v>       0.31250000       0.81250000       0.06250000 </v>
    <v>       0.56250000       0.81250000       0.06250000 </v>
    <v>       0.81250000       0.81250000       0.06250000 </v>
    <v>       0.06250000       0.06250000       0.31250000 </v>
    <v>       0.31250000       0.06250000       0.31250000 </v>
    <v>       0.56250000       0.06250000       0.31250000 </v>
    <v>       0.81250000       0.06250000       0.31250000 </v>
    <v>       0.06250000       0.31250000       0.31250000 </v>
    <v>       0.31250000       0.31250000       0.31250000 </v>
    <v>       0.56250000       0.31250000       0.31250000 </v>
    <v>       0.81250000       0.31250000       0.31250000 </v>
    <v>       0.06250000       0.56250000       0.31250000 </v>
    <v>       0.31250000       0.56250000       0.31250000 </v>
    <v>       0.56250000       0.56250000       0.31250000 </v>
    <v>       0.81250000       0.56250000       0.31250000 </v>
    <v>       0.06250000       0.81250000       0.31250000 </v>
    <v>       0.31250000       0.81250000       0.31250000 </v>
    <v>       0.56250000       0.81250000       0.31250000 </v>
    <v>       0.81250000       0.81250000       0.31250000 </v>
    <v>       0.06250000       0.06250000       0.56250000 </v>
    <v>       0.31250000       0.06250000       0.56250000 </v>
    <v>       0.56250000       0.06250000       0.56250000 </v>
    <v>       0.81250000       0.06250000       0.56250000 </v>
    <v>       0.06250000       0.31250000       0.56250000 </v>
    <v>       0.31250000       0.31250000       0.56250000 </v>
    <v>       0.56250000       0.31250000       0.56250000 </v>
    <v>       0.81250000       0.31250000       0.56250000 </v>
    <v>       0.06250000       0.56250000       0.56250000 </v>
    <v>       0.31250000       0.56250000       0.56250000 </v>
    <v>       0.56250000       0.56250000       0.56250000 </v>
    <v>       0.81250000       0.56250000       0.56250000 </v>
    <v>       0.06250000       0.81250000       0.56250000 </v>
    <v>       0.31250000       0.81250000       0.56250000 </v>
    <v>       0.56250000       0.81250000       0.56250000 </v>
    <v>       0.81250000       0.81250000       0.56250000 </v>
    <v>       0.06250000       0.06250000       0.81250000 </v>
    <v>       0.31250000       0.06250000       0.81250000 </v>
    <v>       0.56250000       0.06250000       0.81250000 </v>
    <v>       0.81250000       0.06250000       0.81250000 </v>
    <v>       0.06250000       0.31250000       0.81250000 </v>
    <v>       0.31250000       0.31250000       0.81250000 </v>
    <v>       0.56250000       0.31250000       0.81250000 </v>
    <v>       0.81250000       0.31250000       0.81250000 </v>
    <v>       0.06250000       0.56250000       0.81250000 </v>
    <v>       0.31250000       0.56250000       0.81250000 </v>
    <v>       0.56250000       0.56250000       0.81250000 </v>
    <v>       0.81250000       0.56250000       0.81250000 </v>
    <v>       0.06250000       0.81250000       0.81250000 </v>
    <v>       0.31250000       0.81250000       0.81250000 </v>
    <v>       0.56250000       0.81250000       0.81250000 </v>
    <v>       0.81250000       0.81250000       0.81250000 </v>
    <v>       0.00000000       0.00000000       0.00000000 </v>
    <v>       0.25000000       0.00000000       0.00000000 </v>
    <v>       0.50045716       0.99954284       0.99954284 </v>
    <v>       0.75000000       0.00000000       0.00000000 </v>
    <v>       0.00000000       0.25000000       0.00000000 </v>
    <v>       0.25000000       0.25000000       0.00000000 </v>
    <v>       0.50000000       0.25000000       0.00000000 </v>
    <v>       0.75000000       0.25000000       0.00000000 </v>
    <v>       0.00000000       0.50000000       0.00000000 </v>
    <v>       0.25000000       0.50000000       0.00000000 </v>
    <v>       0.50000000       0.50000000       0.00000000 </v>
    <v>       0.75000000       0.50000000       0.00000000 </v>
    <v>       0.00000000       0.75000000       0.00000000 </v>
    <v>       0.25000000       0.75000000       0.00000000 </v>
    <v>       0.50000000       0.75000000       0.00000000 </v>
    <v>       0.75000000       0.75000000       0.00000000 </v>
    <v>       0.00000000       0.00000000       0.25000000 </v>
    <v>       0.25000000       0.00000000       0.25000000 </v>
    <v>       0.50000000       0.00000000       0.25000000 </v>
    <v>       0.75000000       0.00000000       0.25000000 </v>
    <v>       0.00000000       0.25000000       0.25000000 </v>
    <v>       0.25000000       0.25000000       0.25000000 </v>
    <v>       0.50000000       0.25000000       0.25000000 </v>
    <v>       0.75000000       0.25000000       0.25000000 </v>
    <v>       0.00000000       0.50000000       0.25000000 </v>
    <v>       0.25000000       0.50000000       0.25000000 </v>
    <v>       0.50000000       0.50000000       0.25000000 </v>
    <v>       0.75000000       0.50000000       0.25000000 </v>
    <v>       0.00000000       0.75000000       0.25000000 </v>
    <v>       0.25000000       0.75000000       0.25000000 </v>
    <v>       0.50000000       0.75000000       0.25000000 </v>
    <v>       0.75000000       0.75000000       0.25000000 </v>
    <v>       0.00000000       0.00000000       0.50000000 </v>
    <v>       0.25000000       0.00000000       0.50000000 </v>
    <v>       0.50000000       0.00000000       0.50000000 </v>
    <v>       0.75000000       0.00000000       0.50000000 </v>
    <v>       0.00000000       0.25000000       0.50000000 </v>
    <v>       0.25000000       0.25000000       0.50000000 </v>
    <v>       0.50000000       0.25000000       0.50000000 </v>
    <v>       0.75000000       0.25000000       0.50000000 </v>
    <v>       0.00000000       0.50000000       0.50000000 </v>
    <v>       0.25000000       0.50000000       0.50000000 </v>
    <v>       0.50000000       0.50000000       0.50000000 </v>
    <v>       0.75000000       0.50000000       0.50000000 </v>
    <v>       0.00000000       0.75000000       0.50000000 </v>
    <v>       0.25000000       0.75000000       0.50000000 </v>
    <v>       0.50000000       0.75000000       0.50000000 </v>
    <v>       0.75000000       0.75000000       0.50000000 </v>
    <v>       0.00000000       0.00000000       0.75000000 </v>
    <v>       0.25000000       0.00000000       0.75000000 </v>
    <v>       0.50000000       0.00000000       0.75000000 </v>
    <v>       0.75000000       0.00000000       0.75000000 </v>
    <v>       0.00000000       0.25000000       0.75000000 </v>
    <v>       0.25000000       0.25000000       0.75000000 </v>
    <v>       0.50000000       0.25000000       0.75000000 </v>
    <v>       0.75000000       0.25000000       0.75000000 </v>
    <v>       0.00000000       0.50000000       0.75000000 </v>
    <v>       0.25000000       0.50000000       0.75000000 </v>
    <v>       0.50000000       0.50000000       0.75000000 </v>
    <v>       0.75000000       0.50000000       0.75000000 </v>
    <v>       0.00000000       0.75000000       0.75000000 </v>
    <v>       0.25000000       0.75000000       0.75000000 </v>
    <v>       0.50000000       0.75000000       0.75000000 </v>
    <v>       0.75000000       0.75000000       0.75000000 </v>
   </varray>
  </structure>
  <varray name="forces" >
   <v>      -0.00203871      -0.00046663       0.12983566 </v>
   <v>      -0.03161347       0.01792251       0.01837800 </v>
   <v>      -0.03256193      -0.02032127      -0.02009452 </v>
   <v>      -0.00300080      -0.00156454      -0.00111087 </v>
   <v>      -0.00222472       0.00114731      -0.00204533 </v>
   <v>      -0.00013103      -0.00055158       0.00029676 </v>
   <v>      -0.00047646       0.00032480      -0.00029949 </v>
   <v>       0.00119740      -0.00133399       0.00530147 </v>
   <v>      -0.00042562      -0.00008125       0.00001505 </v>
   <v>      -0.00020486      -0.00042759      -0.00002333 </v>
   <v>      -0.00020893      -0.00047385       0.00147072 </v>
   <v>      -0.00041866      -0.00007348       0.00036897 </v>
   <v>      -0.00195504      -0.00111870      -0.00142632 </v>
   <v>      -0.00069511       0.00060718       0.00525658 </v>
   <v>      -0.03313017       0.02031249      -0.02062686 </v>
   <v>       0.00010177      -0.00049354       0.00029167 </v>
   <v>      -0.00117221      -0.00143747       0.00511630 </v>
   <v>       0.00034879       0.00019357      -0.00044679 </v>
   <v>       0.00000141      -0.00040423       0.00042700 </v>
   <v>       0.00228656       0.00135105      -0.00197285 </v>
   <v>      -0.00008587       0.00029340      -0.00008234 </v>
   <v>       0.00006445      -0.00002155      -0.00012583 </v>
   <v>       0.00039947       0.00065474       0.00028194 </v>
   <v>       0.00025076      -0.00038511      -0.00063795 </v>
   <v>      -0.00010260       0.00018393      -0.00002247 </v>
   <v>       0.00042562       0.00015719      -0.00012558 </v>
   <v>      -0.00206628      -0.00048663       0.00034799 </v>
   <v>       0.00015433       0.00003430      -0.00010217 </v>
   <v>       0.00111722       0.00204069      -0.00156192 </v>
   <v>       0.00024954      -0.00034299      -0.00059240 </v>
   <v>       0.00026202       0.00033890       0.00024929 </v>
   <v>       0.00015587      -0.00002203      -0.00017422 </v>
   <v>      -0.00005493       0.00015727       0.00159832 </v>
   <v>       0.00009421      -0.00019201      -0.00026224 </v>
   <v>       0.00016099      -0.00019559      -0.00061578 </v>
   <v>      -0.00000199       0.00020291       0.00009386 </v>
   <v>      -0.00016648       0.00017412      -0.00012838 </v>
   <v>       0.00036379       0.00018621      -0.00003806 </v>
   <v>      -0.00205190       0.00048677      -0.00056850 </v>
   <v>       0.00016785      -0.00002018      -0.00010472 </v>
   <v>       0.00010759       0.00034698      -0.00016593 </v>
   <v>       0.00009045      -0.00015749      -0.00025277 </v>
   <v>       0.00007836       0.00015891       0.00004559 </v>
   <v>       0.00009368       0.00002474      -0.00007066 </v>
   <v>      -0.00032647       0.00004863      -0.00018402 </v>
   <v>       0.00008630      -0.00000645      -0.00010791 </v>
   <v>      -0.00005399       0.00006740       0.00006460 </v>
   <v>       0.00021436       0.00012738      -0.00002297 </v>
   <v>       0.00104283       0.00112320       0.00476279 </v>
   <v>       0.00226733      -0.00060831      -0.00190948 </v>
   <v>      -0.03270880      -0.02067218       0.02047085 </v>
   <v>       0.00052307       0.00012933      -0.00044797 </v>
   <v>      -0.00079462       0.00203948      -0.00156349 </v>
   <v>       0.00024972      -0.00034011      -0.00050934 </v>
   <v>       0.00023736       0.00034171       0.00024621 </v>
   <v>       0.00015591      -0.00000738      -0.00027412 </v>
   <v>      -0.00020483       0.00006981      -0.00020679 </v>
   <v>       0.00009701       0.00000650      -0.00011273 </v>
   <v>      -0.00004266       0.00017130      -0.00004656 </v>
   <v>       0.00033534       0.00023089      -0.00012651 </v>
   <v>      -0.00010888       0.00028997      -0.00008550 </v>
   <v>       0.00009876      -0.00001836      -0.00027053 </v>
   <v>       0.00028556       0.00061118       0.00023648 </v>
   <v>       0.00007654      -0.00034071      -0.00044438 </v>
   <v>      -0.01884946      -0.02051768      -0.03285953 </v>
   <v>       0.02486663      -0.02089231      -0.03351266 </v>
   <v>       0.12983586      -0.00019759      -0.00020294 </v>
   <v>       0.00538905       0.00075045       0.00073859 </v>
   <v>      -0.02005180       0.02015767      -0.03282922 </v>
   <v>      -0.00122800       0.00236231       0.00102855 </v>
   <v>      -0.00141404      -0.00087034      -0.00207327 </v>
   <v>       0.00023304       0.00061507       0.00004248 </v>
   <v>      -0.00033914      -0.00010262      -0.00020679 </v>
   <v>       0.00003415       0.00036580      -0.00026386 </v>
   <v>       0.00001592       0.00015836      -0.00029332 </v>
   <v>       0.00042842      -0.00032440      -0.00218519 </v>
   <v>      -0.00030158       0.00062187      -0.00048022 </v>
   <v>       0.00024052       0.00060874       0.00010340 </v>
   <v>      -0.00205899       0.00143432      -0.00406784 </v>
   <v>      -0.00119662       0.00242240      -0.00070901 </v>
   <v>       0.02041708       0.02024734      -0.03264940 </v>
   <v>      -0.00191402       0.00129135       0.00226710 </v>
   <v>      -0.00172979      -0.00193790      -0.00100556 </v>
   <v>      -0.00044476       0.00013204       0.00034738 </v>
   <v>       0.00029271      -0.00019350       0.00039931 </v>
   <v>      -0.00018428      -0.00001881       0.00009871 </v>
   <v>      -0.00002907      -0.00016818      -0.00005071 </v>
   <v>      -0.00044809      -0.00033745       0.00025150 </v>
   <v>      -0.00001407      -0.00015707      -0.00006723 </v>
   <v>      -0.00011256       0.00003074       0.00009735 </v>
   <v>      -0.00026161      -0.00042892      -0.00013065 </v>
   <v>      -0.00012576       0.00021491       0.00042746 </v>
   <v>       0.00021425      -0.00035280       0.00008892 </v>
   <v>      -0.00058944      -0.00034436       0.00025114 </v>
   <v>       0.00492764      -0.00098640       0.00112044 </v>
   <v>      -0.00027422      -0.00002173       0.00006484 </v>
   <v>      -0.00061689      -0.00047606      -0.00168228 </v>
   <v>      -0.00020513      -0.00004936       0.00028680 </v>
   <v>      -0.00022151      -0.00021170      -0.00005382 </v>
   <v>       0.00015260      -0.00062554      -0.00006134 </v>
   <v>       0.00006499      -0.00017117       0.00008012 </v>
   <v>      -0.00007524       0.00001714       0.00011097 </v>
   <v>      -0.00018442      -0.00036516      -0.00032687 </v>
   <v>      -0.00008197       0.00027957       0.00036339 </v>
   <v>       0.00004591      -0.00007971      -0.00005501 </v>
   <v>      -0.00028422      -0.00009286      -0.00006778 </v>
   <v>       0.00165530      -0.00002414       0.00010556 </v>
   <v>      -0.00010292      -0.00001127       0.00011848 </v>
   <v>      -0.00056868       0.00020969      -0.00020880 </v>
   <v>      -0.00009623       0.00029439       0.00030560 </v>
   <v>      -0.00012805      -0.00012620      -0.00016588 </v>
   <v>      -0.00007200       0.00002119       0.00005238 </v>
   <v>       0.00037141       0.00020427      -0.00190593 </v>
   <v>      -0.00044519       0.00019379       0.00052066 </v>
   <v>      -0.00138660      -0.00155808       0.00075553 </v>
   <v>      -0.00197187      -0.00057476       0.00228719 </v>
   <v>       0.00021706      -0.00032812       0.00023748 </v>
   <v>      -0.00059545      -0.00034326       0.00007721 </v>
   <v>       0.00494208       0.00094313      -0.00090049 </v>
   <v>      -0.00025995      -0.00002192       0.00015607 </v>
   <v>       0.00037874       0.00019783      -0.00019421 </v>
   <v>      -0.00012606       0.00017155       0.00033644 </v>
   <v>      -0.00007990      -0.00024794      -0.00004432 </v>
   <v>      -0.00010164       0.00000959       0.00015483 </v>
   <v>       0.00033838      -0.00017716       0.00045866 </v>
   <v>      -0.00012571      -0.00000801       0.00015556 </v>
   <v>      -0.00002488      -0.00021543      -0.00005263 </v>
   <v>      -0.00055411      -0.00038717       0.00025117 </v>
  </varray>
  <varray name="stress" >
   <v>       5.73172744       0.05338400       0.00000860 </v>
   <v>       0.05338401       5.73276714      -0.05336658 </v>
   <v>       0.00000860      -0.05336658       5.73175133 </v>
  </varray>
  <energy>
   <i name="e_fr_energy">   -682.56820122 </i>
   <i name="e_wo_entrp">   -682.56820122 </i>
   <i name="e_0_energy">     -0.00000000 </i>
  </energy>
  <time name="totalsc">  121.81  122.32</time>
  <eigenvalues>
   <array>
    <dimension dim="1">band</dimension>
    <dimension dim="2">kpoint</dimension>
    <dimension dim="3">spin</dimension>
    <field>eigene</field>
    <field>occ</field>
    <set>
     <set comment="spin 1">
      <set comment="kpoint 1">
       <r>   -6.1630    1.0000 </r>
       <r>   -5.3789    1.0000 </r>
       <r>   -5.3782    1.0000 </r>
       <r>   -5.3778    1.0000 </r>
       <r>   -5.3776    1.0000 </r>
       <r>   -5.3775    1.0000 </r>
       <r>   -5.3772    1.0000 </r>
       <r>   -5.3766    1.0000 </r>
       <r>   -5.3759    1.0000 </r>
       <r>   -5.1010    1.0000 </r>
       <r>   -5.1000    1.0000 </r>
       <r>   -5.0998    1.0000 </r>
       <r>   -5.0996    1.0000 </r>
       <r>   -5.0989    1.0000 </r>
       <r>   -5.0984    1.0000 </r>
       <r>   -4.1592    1.0000 </r>
       <r>   -4.1587    1.0000 </r>
       <r>   -4.1576    1.0000 </r>
       <r>   -4.1574    1.0000 </r>
       <r>   -4.1570    1.0000 </r>
       <r>   -4.1570    1.0000 </r>
       <r>   -4.1569    1.0000 </r>
       <r>   -4.1569    1.0000 </r>
       <r>   -4.1566    1.0000 </r>
       <r>   -4.1563    1.0000 </r>
       <r>   -4.1551    1.0000 </r>
       <r>   -4.1548    1.0000 </r>
       <r>   -3.8820    1.0000 </r>
       <r>   -3.8816    1.0000 </r>
       <r>   -3.8807    1.0000 </r>
       <r>   -3.8804    1.0000 </r>
       <r>   -3.5005    1.0000 </r>
       <r>   -3.4996    1.0000 </r>
       <r>   -3.4979    1.0000 </r>
       <r>   -3.4977    1.0000 </r>
       <r>   -3.4968    1.0000 </r>
       <r>   -3.4966    1.0000 </r>
       <r>   -3.4966    1.0000 </r>
       <r>   -3.4964    1.0000 </r>
       <r>   -3.4964    1.0000 </r>
       <r>   -3.4963    1.0000 </r>
       <r>   -3.4963    1.0000 </r>
       <r>   -3.4962    1.0000 </r>
       <r>   -3.4962    1.0000 </r>
       <r>   -3.4962    1.0000 </r>
       <r>   -3.4962    1.0000 </r>
       <r>   -3.4961    1.0000 </r>
       <r>   -3.4961    1.0000 </r>
       <r>   -3.4960    1.0000 </r>
       <r>   -3.4959    1.0000 </r>
       <r>   -3.4958    1.0000 </r>
       <r>   -3.4951    1.0000 </r>
       <r>   -3.4940    1.0000 </r>
       <r>   -3.4923    1.0000 </r>
       <r>   -3.4921    1.0000 </r>
       <r>   -2.0920    1.0000 </r>
       <r>   -2.0916    1.0000 </r>
       <r>   -2.0914    1.0000 </r>
       <r>   -2.0905    1.0000 </r>
       <r>   -2.0903    1.0000 </r>
       <r>   -2.0899    1.0000 </r>
       <r>   -1.9379    1.0000 </r>
       <r>   -1.9367    1.0000 </r>
       <r>   -1.9364    1.0000 </r>
       <r>   -1.9362    1.0000 </r>
       <r>   -1.9356    1.0000 </r>
       <r>   -1.9355    1.0000 </r>
       <r>   -1.9354    1.0000 </r>
       <r>   -1.9354    1.0000 </r>
       <r>   -1.9345    1.0000 </r>
       <r>   -1.9343    1.0000 </r>
       <r>   -1.9340    1.0000 </r>
       <r>   -1.9329    1.0000 </r>
       <r>   -1.2193    1.0000 </r>
       <r>   -1.2186    1.0000 </r>
       <r>   -1.2183    1.0000 </r>
       <r>   -1.2175    1.0000 </r>
       <r>   -0.6724    1.0000 </r>
       <r>   -0.6717    1.0000 </r>
       <r>   -0.6712    1.0000 </r>
       <r>   -0.6706    1.0000 </r>
       <r>   -0.6691    1.0000 </r>
       <r>   -0.6690    1.0000 </r>
       <r>   -0.6690    1.0000 </r>
       <r>   -0.6689    1.0000 </r>
       <r>   -0.6688    1.0000 </r>
       <r>   -0.6687    1.0000 </r>
       <r>   -0.6687    1.0000 </r>
       <r>   -0.6687    1.0000 </r>
       <r>   -0.6686    1.0000 </r>
       <r>   -0.6686    1.0000 </r>
       <r>   -0.6686    1.0000 </r>
       <r>   -0.6685    1.0000 </r>
       <r>   -0.6685    1.0000 </r>
       <r>   -0.6684    1.0000 </r>
       <r>   -0.6683    1.0000 </r>
       <r>   -0.6681    1.0000 </r>
       <r>   -0.6675    1.0000 </r>
       <r>   -0.6659    1.0000 </r>
       <r>   -0.6654    1.0000 </r>
       <r>   -0.6640    1.0000 </r>
       <r>    0.2149    1.0000 </r>
       <r>    0.2152    1.0000 </r>
       <r>    0.2156    1.0000 </r>
       <r>    0.2160    1.0000 </r>
       <r>    0.2166    1.0000 </r>
       <r>    0.2167    1.0000 </r>
       <r>    0.2167    1.0000 </r>
       <r>    0.2168    1.0000 </r>
       <r>    0.2172    1.0000 </r>
       <r>    0.2179    1.0000 </r>
       <r>    0.2182    1.0000 </r>
       <r>    0.2189    1.0000 </r>
       <r>    1.7665    1.0000 </r>
       <r>    1.7672    1.0000 </r>
       <r>    1.7674    1.0000 </r>
       <r>    1.7677    1.0000 </r>
       <r>    1.7678    1.0000 </r>
       <r>    1.7680    1.0000 </r>
       <r>    1.7689    1.0000 </r>
       <r>    1.7691    1.0000 </r>
       <r>    1.8848    1.0000 </r>
       <r>    1.8848    1.0000 </r>
       <r>    1.8856    1.0000 </r>
       <r>    1.8857    1.0000 </r>
       <r>    1.8858    1.0000 </r>
       <r>    1.8859    1.0000 </r>
       <r>    1.8861    1.0000 </r>
       <r>    1.8862    1.0000 </r>
       <r>    1.8863    1.0000 </r>
       <r>    1.8865    1.0000 </r>
       <r>    1.8871    1.0000 </r>
       <r>    1.8872    1.0000 </r>
       <r>    1.9777    1.0000 </r>
       <r>    1.9779    1.0000 </r>
       <r>    1.9780    1.0000 </r>
       <r>    1.9782    1.0000 </r>
       <r>    1.9786    1.0000 </r>
       <r>    1.9788    1.0000 </r>
       <r>    1.9789    1.0000 </r>
       <r>    1.9791    1.0000 </r>
       <r>    1.9795    1.0000 </r>
       <r>    1.9796    1.0000 </r>
       <r>    1.9800    1.0000 </r>
       <r>    1.9802    1.0000 </r>
       <r>    2.1398    1.0000 </r>
       <r>    2.1404    1.0000 </r>
       <r>    2.1408    1.0000 </r>
       <r>    2.1414    1.0000 </r>
       <r>    2.1417    1.0000 </r>
       <r>    2.1424    1.0000 </r>
       <r>    2.1840    1.0000 </r>
       <r>    2.1848    1.0000 </r>
       <r>    2.1854    1.0000 </r>
       <r>    2.1860    1.0000 </r>
       <r>    2.1862    1.0000 </r>
       <r>    2.1864    1.0000 </r>
       <r>    2.1866    1.0000 </r>
       <r>    2.1866    1.0000 </r>
       <r>    2.1867    1.0000 </r>
       <r>    2.1867    1.0000 </r>
       <r>    2.1868    1.0000 </r>
       <r>    2.1869    1.0000 </r>
       <r>    2.1869    1.0000 </r>
       <r>    2.1870    1.0000 </r>
       <r>    2.1870    1.0000 </r>
       <r>    2.1871    1.0000 </r>
       <r>    2.1872    1.0000 </r>
       <r>    2.1873    1.0000 </r>
       <r>    2.1873    1.0000 </r>
       <r>    2.1876    1.0000 </r>
       <r>    2.1879    1.0000 </r>
       <r>    2.1886    1.0000 </r>
       <r>    2.1895    1.0000 </r>
       <r>    2.1898    1.0000 </r>
       <r>    2.8561    1.0000 </r>
       <r>    2.8563    1.0000 </r>
       <r>    2.8566    1.0000 </r>
       <r>    2.8566    1.0000 </r>
       <r>    2.8569    1.0000 </r>
       <r>    2.8571    1.0000 </r>
       <r>    3.4896    1.0000 </r>
       <r>    3.4899    1.0000 </r>
       <r>    3.4912    1.0000 </r>
       <r>    3.4916    1.0000 </r>
       <r>    3.4921    1.0000 </r>
       <r>    3.4921    1.0000 </r>
       <r>    3.4921    1.0000 </r>
       <r>    3.4922    1.0000 </r>
       <r>    3.4923    1.0000 </r>
       <r>    3.4923    1.0000 </r>
       <r>    3.4924    1.0000 </r>
       <r>    3.4924    1.0000 </r>
       <r>    3.4925    1.0000 </r>
       <r>    3.4926    1.0000 </r>
       <r>    3.4926    1.0000 </r>
       <r>    3.4927    1.0000 </r>
       <r>    3.4928    1.0000 </r>
       <r>    3.4929    1.0000 </r>
       <r>    3.4929    1.0000 </r>
       <r>    3.4930    1.0000 </r>
       <r>    3.4936    1.0000 </r>
       <r>    3.4941    1.0000 </r>
       <r>    3.4951    1.0000 </r>
       <r>    3.4952    1.0000 </r>
       <r>    3.8021    1.0000 </r>
       <r>    3.8024    1.0000 </r>
       <r>    3.8034    1.0000 </r>
       <r>    3.8035    1.0000 </r>
       <r>    3.8037    1.0000 </r>
       <r>    3.8038    1.0000 </r>
       <r>    3.8039    1.0000 </r>
       <r>    3.8039    1.0000 </r>
       <r>    3.8042    1.0000 </r>
       <r>    3.8043    1.0000 </r>
       <r>    3.8053    1.0000 </r>
       <r>    3.8056    1.0000 </r>
       <r>    4.3507    1.0000 </r>
       <r>    4.3512    1.0000 </r>
       <r>    4.3522    1.0000 </r>
       <r>    4.3525    1.0000 </r>
       <r>    4.3526    1.0000 </r>
       <r>    4.3527    1.0000 </r>
       <r>    4.3528    1.0000 </r>
       <r>    4.3530    1.0000 </r>
       <r>    4.3533    1.0000 </r>
       <r>    4.3536    1.0000 </r>
       <r>    4.3540    1.0000 </r>
       <r>    4.3551    1.0000 </r>
       <r>    4.4763    1.0000 </r>
       <r>    4.4767    1.0000 </r>
       <r>    4.4773    1.0000 </r>
       <r>    4.4776    1.0000 </r>
       <r>    4.4778    1.0000 </r>
       <r>    4.4781    1.0000 </r>
       <r>    4.4787    1.0000 </r>
       <r>    4.4792    1.0000 </r>
       <r>    4.9082    1.0000 </r>
       <r>    4.9091    1.0000 </r>
       <r>    4.9114    1.0000 </r>
       <r>    4.9114    1.0000 </r>
       <r>    4.9116    1.0000 </r>
       <r>    4.9116    1.0000 </r>
       <r>    4.9117    1.0000 </r>
       <r>    4.9117    1.0000 </r>
       <r>    4.9118    1.0000 </r>
       <r>    4.9118    1.0000 </r>
       <r>    4.9119    1.0000 </r>
       <r>    4.9121    1.0000 </r>
       <r>    4.9122    1.0000 </r>
       <r>    4.9122    1.0000 </r>
       <r>    4.9138    1.0000 </r>
       <r>    4.9160    1.0000 </r>
       <r>    5.6594    1.0000 </r>
       <r>    5.6604    1.0000 </r>
       <r>    5.6615    1.0000 </r>
       <r>    6.3942    0.0000 </r>
       <r>    6.3944    0.0000 </r>
       <r>    6.3950    0.0000 </r>
       <r>    6.3953    0.0000 </r>
       <r>    6.3959    0.0000 </r>
       <r>    6.3960    0.0000 </r>
       <r>    6.7951    0.0000 </r>
       <r>    6.7957    0.0000 </r>
       <r>    6.7959    0.0000 </r>
       <r>    6.7966    0.0000 </r>
       <r>    6.7968    0.0000 </r>
       <r>    6.7974    0.0000 </r>
       <r>    7.1206    0.0000 </r>
       <r>    7.1208    0.0000 </r>
       <r>    7.1209    0.0000 </r>
       <r>    7.1211    0.0000 </r>
       <r>    7.1827    0.0000 </r>
       <r>    7.1832    0.0000 </r>
       <r>    7.1839    0.0000 </r>
       <r>    7.1846    0.0000 </r>
       <r>    7.1857    0.0000 </r>
       <r>    7.1857    0.0000 </r>
       <r>    7.1858    0.0000 </r>
       <r>    7.1858    0.0000 </r>
       <r>    7.1858    0.0000 </r>
       <r>    7.1858    0.0000 </r>
       <r>    7.1859    0.0000 </r>
       <r>    7.1859    0.0000 </r>
       <r>    7.1860    0.0000 </r>
       <r>    7.1860    0.0000 </r>
       <r>    7.1861    0.0000 </r>
       <r>    7.1861    0.0000 </r>
       <r>    7.1862    0.0000 </r>
       <r>    7.1862    0.0000 </r>
       <r>    7.1863    0.0000 </r>
       <r>    7.1863    0.0000 </r>
       <r>    7.1871    0.0000 </r>
       <r>    7.1880    0.0000 </r>
       <r>    7.1892    0.0000 </r>
       <r>    7.1895    0.0000 </r>
       <r>    7.6112    0.0000 </r>
       <r>    7.6115    0.0000 </r>
       <r>    7.6119    0.0000 </r>
       <r>    7.6121    0.0000 </r>
       <r>    7.6122    0.0000 </r>
       <r>    7.6126    0.0000 </r>
       <r>    7.6129    0.0000 </r>
       <r>    7.6133    0.0000 </r>
       <r>    8.0812    0.0000 </r>
       <r>    8.0816    0.0000 </r>
       <r>    8.0820    0.0000 </r>
       <r>    8.0823    0.0000 </r>
       <r>    8.0828    0.0000 </r>
       <r>    8.0829    0.0000 </r>
       <r>    8.0830    0.0000 </r>
       <r>    8.0831    0.0000 </r>
       <r>    8.0833    0.0000 </r>
       <r>    8.0839    0.0000 </r>
       <r>    8.0841    0.0000 </r>
       <r>    8.0848    0.0000 </r>
       <r>    8.1987    0.0000 </r>
       <r>    8.1993    0.0000 </r>
       <r>    8.2000    0.0000 </r>
       <r>    8.7789    0.0000 </r>
       <r>    8.7792    0.0000 </r>
       <r>    8.7867    0.0000 </r>
      </set>
     </set>
    </set>
   </array>
  </eigenvalues>
  <separator name="orbital magnetization" >
   <v name="MAGDIPOLOUT">      0.00000000      0.00000000      0.00000000</v>
  </separator>
  <dos>
   <i name="efermi">      5.91976298 </i>
   <total>
    <array>
     <dimension dim="1">gridpoints</dimension>
     <dimension dim="2">spin</dimension>
     <field>energy</field>
     <field>total</field>
     <field>integrated</field>
     <set>
      <set comment="spin 1">
       <r>    -6.9105     0.0000     0.0000 </r>
       <r>    -6.8557     0.0000     0.0000 </r>
       <r>    -6.8009     0.0000     0.0000 </r>
       <r>    -6.7461     0.0000     0.0000 </r>
       <r>    -6.6912     0.0000     0.0000 </r>
       <r>    -6.6364     0.0000     0.0000 </r>
       <r>    -6.5816     0.0000     0.0000 </r>
       <r>    -6.5268     0.0000     0.0000 </r>
       <r>    -6.4720     0.0000     0.0000 </r>
       <r>    -6.4172     0.0000     0.0000 </r>
       <r>    -6.3623     0.0000     0.0000 </r>
       <r>    -6.3075     0.0008     0.0000 </r>
       <r>    -6.2527     0.2031     0.0112 </r>
       <r>    -6.1979     5.7036     0.3238 </r>
       <r>    -6.1431    20.1271     1.4271 </r>
       <r>    -6.0883     9.8220     1.9655 </r>
       <r>    -6.0335     0.6248     1.9998 </r>
       <r>    -5.9786     0.0045     2.0000 </r>
       <r>    -5.9238     0.0000     2.0000 </r>
       <r>    -5.8690     0.0000     2.0000 </r>
       <r>    -5.8142     0.0000     2.0000 </r>
       <r>    -5.7594     0.0000     2.0000 </r>
       <r>    -5.7046     0.0000     2.0000 </r>
       <r>    -5.6497     0.0000     2.0000 </r>
       <r>    -5.5949     0.0000     2.0000 </r>
       <r>    -5.5401     0.0006     2.0000 </r>
       <r>    -5.4853     0.3348     2.0184 </r>
       <r>    -5.4305    19.2118     3.0715 </r>
       <r>    -5.3757   132.3541    10.3266 </r>
       <r>    -5.3209   124.0276    17.1252 </r>
       <r>    -5.2660    15.7219    17.9870 </r>
       <r>    -5.2112     0.4124    18.0096 </r>
       <r>    -5.1564    11.6967    18.6508 </r>
       <r>    -5.1016    92.7723    23.7361 </r>
       <r>    -5.0468    99.5002    29.1903 </r>
       <r>    -4.9920    14.5167    29.9860 </r>
       <r>    -4.9371     0.2543    30.0000 </r>
       <r>    -4.8823     0.0005    30.0000 </r>
       <r>    -4.8275     0.0000    30.0000 </r>
       <r>    -4.7727     0.0000    30.0000 </r>
       <r>    -4.7179     0.0000    30.0000 </r>
       <r>    -4.6631     0.0000    30.0000 </r>
       <r>    -4.6082     0.0000    30.0000 </r>
       <r>    -4.5534     0.0000    30.0000 </r>
       <r>    -4.4986     0.0000    30.0000 </r>
       <r>    -4.4438     0.0000    30.0000 </r>
       <r>    -4.3890     0.0000    30.0000 </r>
       <r>    -4.3342     0.0001    30.0000 </r>
       <r>    -4.2794     0.1182    30.0065 </r>
       <r>    -4.2245    12.1610    30.6731 </r>
       <r>    -4.1697   144.9577    38.6190 </r>
       <r>    -4.1149   229.2493    51.1855 </r>
       <r>    -4.0601    49.9934    53.9259 </r>
       <r>    -4.0053     1.3809    54.0016 </r>
       <r>    -3.9505     3.6236    54.2002 </r>
       <r>    -3.8956    46.1351    56.7291 </r>
       <r>    -3.8408    77.6255    60.9842 </r>
       <r>    -3.7860    18.0111    61.9715 </r>
       <r>    -3.7312     0.5182    61.9999 </r>
       <r>    -3.6764     0.0018    62.0000 </r>
       <r>    -3.6216     0.1745    62.0096 </r>
       <r>    -3.5668    20.1145    63.1122 </r>
       <r>    -3.5119   267.4604    77.7732 </r>
       <r>    -3.4571   470.0198   103.5375 </r>
       <r>    -3.4023   114.4040   109.8087 </r>
       <r>    -3.3475     3.4790   109.9994 </r>
       <r>    -3.2927     0.0116   110.0000 </r>
       <r>    -3.2379     0.0000   110.0000 </r>
       <r>    -3.1830     0.0000   110.0000 </r>
       <r>    -3.1282     0.0000   110.0000 </r>
       <r>    -3.0734     0.0000   110.0000 </r>
       <r>    -3.0186     0.0000   110.0000 </r>
       <r>    -2.9638     0.0000   110.0000 </r>
       <r>    -2.9090     0.0000   110.0000 </r>
       <r>    -2.8542     0.0000   110.0000 </r>
       <r>    -2.7993     0.0000   110.0000 </r>
       <r>    -2.7445     0.0000   110.0000 </r>
       <r>    -2.6897     0.0000   110.0000 </r>
       <r>    -2.6349     0.0000   110.0000 </r>
       <r>    -2.5801     0.0000   110.0000 </r>
       <r>    -2.5253     0.0000   110.0000 </r>
       <r>    -2.4704     0.0000   110.0000 </r>
       <r>    -2.4156     0.0000   110.0000 </r>
       <r>    -2.3608     0.0000   110.0000 </r>
       <r>    -2.3060     0.0000   110.0000 </r>
       <r>    -2.2512     0.0006   110.0000 </r>
       <r>    -2.1964     0.3138   110.0172 </r>
       <r>    -2.1415    16.3699   110.9146 </r>
       <r>    -2.0867   103.1507   116.5688 </r>
       <r>    -2.0319    90.0654   121.5058 </r>
       <r>    -1.9771    61.0633   124.8530 </r>
       <r>    -1.9223   230.1143   137.4669 </r>
       <r>    -1.8675   143.6547   145.3414 </r>
       <r>    -1.8127    11.9010   145.9937 </r>
       <r>    -1.7578     0.1142   146.0000 </r>
       <r>    -1.7030     0.0001   146.0000 </r>
       <r>    -1.6482     0.0000   146.0000 </r>
       <r>    -1.5934     0.0000   146.0000 </r>
       <r>    -1.5386     0.0000   146.0000 </r>
       <r>    -1.4838     0.0000   146.0000 </r>
       <r>    -1.4289     0.0000   146.0000 </r>
       <r>    -1.3741     0.0008   146.0000 </r>
       <r>    -1.3193     0.3147   146.0173 </r>
       <r>    -1.2645    13.7268   146.7697 </r>
       <r>    -1.2097    73.1509   150.7795 </r>
       <r>    -1.1549    53.4709   153.7106 </r>
       <r>    -1.1001     5.2203   153.9967 </r>
       <r>    -1.0452     0.0595   154.0000 </r>
       <r>    -0.9904     0.0001   154.0000 </r>
       <r>    -0.9356     0.0000   154.0000 </r>
       <r>    -0.8808     0.0000   154.0000 </r>
       <r>    -0.8260     0.0038   154.0002 </r>
       <r>    -0.7712     1.6483   154.0906 </r>
       <r>    -0.7163    76.1318   158.2638 </r>
       <r>    -0.6615   429.6101   181.8131 </r>
       <r>    -0.6067   333.1072   200.0725 </r>
       <r>    -0.5519    34.7351   201.9766 </r>
       <r>    -0.4971     0.4269   202.0000 </r>
       <r>    -0.4423     0.0006   202.0000 </r>
       <r>    -0.3875     0.0000   202.0000 </r>
       <r>    -0.3326     0.0000   202.0000 </r>
       <r>    -0.2778     0.0000   202.0000 </r>
       <r>    -0.2230     0.0000   202.0000 </r>
       <r>    -0.1682     0.0000   202.0000 </r>
       <r>    -0.1134     0.0000   202.0000 </r>
       <r>    -0.0586     0.0000   202.0000 </r>
       <r>    -0.0037     0.0000   202.0000 </r>
       <r>     0.0511     0.0006   202.0000 </r>
       <r>     0.1059     0.3775   202.0207 </r>
       <r>     0.1607    24.4051   203.3585 </r>
       <r>     0.2155   188.1360   213.6713 </r>
       <r>     0.2703   196.5174   224.4435 </r>
       <r>     0.3252    27.9185   225.9739 </r>
       <r>     0.3800     0.4759   226.0000 </r>
       <r>     0.4348     0.0009   226.0000 </r>
       <r>     0.4896     0.0000   226.0000 </r>
       <r>     0.5444     0.0000   226.0000 </r>
       <r>     0.5992     0.0000   226.0000 </r>
       <r>     0.6540     0.0000   226.0000 </r>
       <r>     0.7089     0.0000   226.0000 </r>
       <r>     0.7637     0.0000   226.0000 </r>
       <r>     0.8185     0.0000   226.0000 </r>
       <r>     0.8733     0.0000   226.0000 </r>
       <r>     0.9281     0.0000   226.0000 </r>
       <r>     0.9829     0.0000   226.0000 </r>
       <r>     1.0378     0.0000   226.0000 </r>
       <r>     1.0926     0.0000   226.0000 </r>
       <r>     1.1474     0.0000   226.0000 </r>
       <r>     1.2022     0.0000   226.0000 </r>
       <r>     1.2570     0.0000   226.0000 </r>
       <r>     1.3118     0.0000   226.0000 </r>
       <r>     1.3666     0.0000   226.0000 </r>
       <r>     1.4215     0.0000   226.0000 </r>
       <r>     1.4763     0.0000   226.0000 </r>
       <r>     1.5311     0.0000   226.0000 </r>
       <r>     1.5859     0.0000   226.0000 </r>
       <r>     1.6407     0.0475   226.0026 </r>
       <r>     1.6955     5.9290   226.3276 </r>
       <r>     1.7504    84.7225   230.9717 </r>
       <r>     1.8052   163.5977   239.9394 </r>
       <r>     1.8600   137.5730   247.4806 </r>
       <r>     1.9148   262.2569   261.8563 </r>
       <r>     1.9696   245.3346   275.3045 </r>
       <r>     2.0244   224.9002   287.6325 </r>
       <r>     2.0792    52.0205   290.4840 </r>
       <r>     2.1341   142.5618   298.2986 </r>
       <r>     2.1889   505.3047   325.9972 </r>
       <r>     2.2437   389.9411   347.3720 </r>
       <r>     2.2985    47.2364   349.9613 </r>
       <r>     2.3533     0.7047   349.9999 </r>
       <r>     2.4081     0.0011   350.0000 </r>
       <r>     2.4630     0.0000   350.0000 </r>
       <r>     2.5178     0.0000   350.0000 </r>
       <r>     2.5726     0.0000   350.0000 </r>
       <r>     2.6274     0.0000   350.0000 </r>
       <r>     2.6822     0.0001   350.0000 </r>
       <r>     2.7370     0.0787   350.0043 </r>
       <r>     2.7919     7.2565   350.4021 </r>
       <r>     2.8467    77.8816   354.6712 </r>
       <r>     2.9015   111.3261   360.7736 </r>
       <r>     2.9563    21.8465   361.9711 </r>
       <r>     3.0111     0.5252   361.9999 </r>
       <r>     3.0659     0.0014   362.0000 </r>
       <r>     3.1207     0.0000   362.0000 </r>
       <r>     3.1756     0.0000   362.0000 </r>
       <r>     3.2304     0.0000   362.0000 </r>
       <r>     3.2852     0.0000   362.0000 </r>
       <r>     3.3400     0.0071   362.0004 </r>
       <r>     3.3948     2.5115   362.1381 </r>
       <r>     3.4496    96.2017   367.4114 </r>
       <r>     3.5045   454.7744   392.3401 </r>
       <r>     3.5593   296.2589   408.5797 </r>
       <r>     3.6141    25.6521   409.9859 </r>
       <r>     3.6689     0.2877   410.0016 </r>
       <r>     3.7237     5.1137   410.2819 </r>
       <r>     3.7785    98.6943   415.6919 </r>
       <r>     3.8333   245.5386   429.1512 </r>
       <r>     3.8882    84.7091   433.7946 </r>
       <r>     3.9430     3.7284   433.9990 </r>
       <r>     3.9978     0.0183   434.0000 </r>
       <r>     4.0526     0.0000   434.0000 </r>
       <r>     4.1074     0.0000   434.0000 </r>
       <r>     4.1622     0.0000   434.0000 </r>
       <r>     4.2171     0.0271   434.0015 </r>
       <r>     4.2719     4.8154   434.2655 </r>
       <r>     4.3267    95.8898   439.5217 </r>
       <r>     4.3815   246.6858   453.0439 </r>
       <r>     4.4363   121.7216   459.7162 </r>
       <r>     4.4911   157.7818   468.3650 </r>
       <r>     4.5459    94.9662   473.5707 </r>
       <r>     4.6008     7.7588   473.9960 </r>
       <r>     4.6556     0.0733   474.0000 </r>
       <r>     4.7104     0.0001   474.0000 </r>
       <r>     4.7652     0.0101   474.0006 </r>
       <r>     4.8200     2.7700   474.1524 </r>
       <r>     4.8748    83.7831   478.7450 </r>
       <r>     4.9297   318.1120   496.1825 </r>
       <r>     4.9845   167.4240   505.3599 </r>
       <r>     5.0393    11.5847   505.9950 </r>
       <r>     5.0941     0.0919   506.0000 </r>
       <r>     5.1489     0.0001   506.0000 </r>
       <r>     5.2037     0.0000   506.0000 </r>
       <r>     5.2586     0.0000   506.0000 </r>
       <r>     5.3134     0.0000   506.0000 </r>
       <r>     5.3682     0.0000   506.0000 </r>
       <r>     5.4230     0.0000   506.0000 </r>
       <r>     5.4778     0.0000   506.0000 </r>
       <r>     5.5326     0.0165   506.0009 </r>
       <r>     5.5874     2.1195   506.1171 </r>
       <r>     5.6423    31.1010   507.8219 </r>
       <r>     5.6971    59.7918   511.0994 </r>
       <r>     5.7519    15.8977   511.9709 </r>
       <r>     5.8067     0.5295   511.9999 </r>
       <r>     5.8615     0.0019   512.0000 </r>
       <r>     5.9163     0.0000   512.0000 </r>
       <r>     5.9712     0.0000   512.0000 </r>
       <r>     6.0260     0.0000   512.0000 </r>
       <r>     6.0808     0.0000   512.0000 </r>
       <r>     6.1356     0.0000   512.0000 </r>
       <r>     6.1904     0.0000   512.0000 </r>
       <r>     6.2452     0.0025   512.0001 </r>
       <r>     6.3000     0.7827   512.0430 </r>
       <r>     6.3549    27.1134   513.5293 </r>
       <r>     6.4097   116.5132   519.9160 </r>
       <r>     6.4645    69.0534   523.7012 </r>
       <r>     6.5193     5.4021   523.9973 </r>
       <r>     6.5741     0.0487   524.0000 </r>
       <r>     6.6289     0.0003   524.0000 </r>
       <r>     6.6838     0.1603   524.0088 </r>
       <r>     6.7386    11.0980   524.6171 </r>
       <r>     6.7934    91.1240   529.6122 </r>
       <r>     6.8482   101.0073   535.1489 </r>
       <r>     6.9030    15.2486   535.9848 </r>
       <r>     6.9578     0.2773   536.0000 </r>
       <r>     7.0126     0.1621   536.0089 </r>
       <r>     7.0675     9.7582   536.5438 </r>
       <r>     7.1223    96.8356   541.8519 </r>
       <r>     7.1771   381.9192   562.7870 </r>
       <r>     7.2319   447.6687   587.3262 </r>
       <r>     7.2867    83.3289   591.8939 </r>
       <r>     7.3415     1.9306   591.9997 </r>
       <r>     7.3964     0.0048   592.0000 </r>
       <r>     7.4512     0.0008   592.0000 </r>
       <r>     7.5060     0.3875   592.0213 </r>
       <r>     7.5608    20.8974   593.1668 </r>
       <r>     7.6156   135.7975   600.6106 </r>
       <r>     7.6704   120.2438   607.2018 </r>
       <r>     7.7253    14.3577   607.9889 </r>
       <r>     7.7801     0.2030   608.0000 </r>
       <r>     7.8349     0.0003   608.0000 </r>
       <r>     7.8897     0.0000   608.0000 </r>
       <r>     7.9445     0.0199   608.0011 </r>
       <r>     7.9993     3.9399   608.2171 </r>
       <r>     8.0541    87.0344   612.9879 </r>
       <r>     8.1090   246.3122   626.4896 </r>
       <r>     8.1638   112.8628   632.6763 </r>
       <r>     8.2186    65.0164   636.2402 </r>
       <r>     8.2734    30.1234   637.8914 </r>
       <r>     8.3282     1.9662   637.9992 </r>
       <r>     8.3830     0.0146   638.0000 </r>
       <r>     8.4379     0.0000   638.0000 </r>
       <r>     8.4927     0.0000   638.0000 </r>
       <r>     8.5475     0.0000   638.0000 </r>
       <r>     8.6023     0.0000   638.0000 </r>
       <r>     8.6571     0.0250   638.0014 </r>
       <r>     8.7119     2.7066   638.1497 </r>
       <r>     8.7667    34.2710   640.0283 </r>
       <r>     8.8216    58.1826   643.2176 </r>
       <r>     8.8764    13.8531   643.9770 </r>
       <r>     8.9312     0.4182   643.9999 </r>
       <r>     8.9860     0.0014   644.0000 </r>
       <r>     9.0408     0.0000   644.0000 </r>
       <r>     9.0956     0.0000   644.0000 </r>
       <r>     9.1505     0.0000   644.0000 </r>
       <r>     9.2053     0.0000   644.0000 </r>
       <r>     9.2601     0.0000   644.0000 </r>
       <r>     9.3149     0.0000   644.0000 </r>
       <r>     9.3697     0.0000   644.0000 </r>
       <r>     9.4245     0.0000   644.0000 </r>
       <r>     9.4793     0.0000   644.0000 </r>
       <r>     9.5342     0.0000   644.0000 </r>
      </set>
     </set>
    </array>
   </total>
  </dos>
 </calculation>
 <structure name="finalpos" >
  <crystal>
   <varray name="basis" >
    <v>       0.00000000      10.93716070      10.93716070 </v>
    <v>      10.93716070       0.00000000      10.93716070 </v>
    <v>      10.93716070      10.93716070       0.00000000 </v>
   </varray>
   <i name="volume">   2616.63878844 </i>
   <varray name="rec_basis" >
    <v>      -0.04571570       0.04571570       0.04571570 </v>
    <v>       0.04571570      -0.04571570       0.04571570 </v>
    <v>       0.04571570       0.04571570      -0.04571570 </v>
   </varray>
  </crystal>
  <varray name="positions" >
   <v>       0.06204284       0.06204284       0.06295716 </v>
   <v>       0.31250000       0.06250000       0.06250000 </v>
   <v>       0.56250000       0.06250000       0.06250000 </v>
   <v>       0.81250000       0.06250000       0.06250000 </v>
   <v>       0.06250000       0.31250000       0.06250000 </v>
   <v>       0.31250000       0.31250000       0.06250000 </v>
   <v>       0.56250000       0.31250000       0.06250000 </v>
   <v>       0.81250000       0.31250000       0.06250000 </v>
   <v>       0.06250000       0.56250000       0.06250000 </v>
   <v>       0.31250000       0.56250000       0.06250000 </v>
   <v>       0.56250000       0.56250000       0.06250000 </v>
   <v>       0.81250000       0.56250000       0.06250000 </v>
   <v>       0.06250000       0.81250000       0.06250000 </v>
   <v>       0.31250000       0.81250000       0.06250000 </v>
   <v>       0.56250000       0.81250000       0.06250000 </v>
   <v>       0.81250000       0.81250000       0.06250000 </v>
   <v>       0.06250000       0.06250000       0.31250000 </v>
   <v>       0.31250000       0.06250000       0.31250000 </v>
   <v>       0.56250000       0.06250000       0.31250000 </v>
   <v>       0.81250000       0.06250000       0.31250000 </v>
   <v>       0.06250000       0.31250000       0.31250000 </v>
   <v>       0.31250000       0.31250000       0.31250000 </v>
   <v>       0.56250000       0.31250000       0.31250000 </v>
   <v>       0.81250000       0.31250000       0.31250000 </v>
   <v>       0.06250000       0.56250000       0.31250000 </v>
   <v>       0.31250000       0.56250000       0.31250000 </v>
   <v>       0.56250000       0.56250000       0.31250000 </v>
   <v>       0.81250000       0.56250000       0.31250000 </v>
   <v>       0.06250000       0.81250000       0.31250000 </v>
   <v>       0.31250000       0.81250000       0.31250000 </v>
   <v>       0.56250000       0.81250000       0.31250000 </v>
   <v>       0.81250000       0.81250000       0.31250000 </v>
   <v>       0.06250000       0.06250000       0.56250000 </v>
   <v>       0.31250000       0.06250000       0.56250000 </v>
   <v>       0.56250000       0.06250000       0.56250000 </v>
   <v>       0.81250000       0.06250000       0.56250000 </v>
   <v>       0.06250000       0.31250000       0.56250000 </v>
   <v>       0.31250000       0.31250000       0.56250000 </v>
   <v>       0.56250000       0.31250000       0.56250000 </v>
   <v>       0.81250000       0.31250000       0.56250000 </v>
   <v>       0.06250000       0.56250000       0.56250000 </v>
   <v>       0.31250000       0.56250000       0.56250000 </v>
   <v>       0.56250000       0.56250000       0.56250000 </v>
   <v>       0.81250000       0.56250000       0.56250000 </v>
   <v>       0.06250000       0.81250000       0.56250000 </v>
   <v>       0.31250000       0.81250000       0.56250000 </v>
   <v>       0.56250000       0.81250000       0.56250000 </v>
   <v>       0.81250000       0.81250000       0.56250000 </v>
   <v>       0.06250000       0.06250000       0.81250000 </v>
   <v>       0.31250000       0.06250000       0.81250000 </v>
   <v>       0.56250000       0.06250000       0.81250000 </v>
   <v>       0.81250000       0.06250000       0.81250000 </v>
   <v>       0.06250000       0.31250000       0.81250000 </v>
   <v>       0.31250000       0.31250000       0.81250000 </v>
   <v>       0.56250000       0.31250000       0.81250000 </v>
   <v>       0.81250000       0.31250000       0.81250000 </v>
   <v>       0.06250000       0.56250000       0.81250000 </v>
   <v>       0.31250000       0.56250000       0.81250000 </v>
   <v>       0.56250000       0.56250000       0.81250000 </v>
   <v>       0.81250000       0.56250000       0.81250000 </v>
   <v>       0.06250000       0.81250000       0.81250000 </v>
   <v>       0.31250000       0.81250000       0.81250000 </v>
   <v>       0.56250000       0.81250000       0.81250000 </v>
   <v>       0.81250000       0.81250000       0.81250000 </v>
   <v>       0.00000000       0.00000000       0.00000000 </v>
   <v>       0.25000000       0.00000000       0.00000000 </v>
   <v>       0.50045716       0.99954284       0.99954284 </v>
   <v>       0.75000000       0.00000000       0.00000000 </v>
   <v>       0.00000000       0.25000000       0.00000000 </v>
   <v>       0.25000000       0.25000000       0.00000000 </v>
   <v>       0.50000000       0.25000000       0.00000000 </v>
   <v>       0.75000000       0.25000000       0.00000000 </v>
   <v>       0.00000000       0.50000000       0.00000000 </v>
   <v>       0.25000000       0.50000000       0.00000000 </v>
   <v>       0.50000000       0.50000000       0.00000000 </v>
   <v>       0.75000000       0.50000000       0.00000000 </v>
   <v>       0.00000000       0.75000000       0.00000000 </v>
   <v>       0.25000000       0.75000000       0.00000000 </v>
   <v>       0.50000000       0.75000000       0.00000000 </v>
   <v>       0.75000000       0.75000000       0.00000000 </v>
   <v>       0.00000000       0.00000000       0.25000000 </v>
   <v>       0.25000000       0.00000000       0.25000000 </v>
   <v>       0.50000000       0.00000000       0.25000000 </v>
   <v>       0.75000000       0.00000000       0.25000000 </v>
   <v>       0.00000000       0.25000000       0.25000000 </v>
   <v>       0.25000000       0.25000000       0.25000000 </v>
   <v>       0.50000000       0.25000000       0.25000000 </v>
   <v>       0.75000000       0.25000000       0.25000000 </v>
   <v>       0.00000000       0.50000000       0.25000000 </v>
   <v>       0.25000000       0.50000000       0.25000000 </v>
   <v>       0.50000000       0.50000000       0.25000000 </v>
   <v>       0.75000000       0.50000000       0.25000000 </v>
   <v>       0.00000000       0.75000000       0.25000000 </v>
   <v>       0.25000000       0.75000000       0.25000000 </v>
   <v>       0.50000000       0.75000000       0.25000000 </v>
   <v>       0.75000000       0.75000000       0.25000000 </v>
   <v>       0.00000000       0.00000000       0.50000000 </v>
   <v>       0.25000000       0.00000000       0.50000000 </v>
   <v>       0.50000000       0.00000000       0.50000000 </v>
   <v>       0.75000000       0.00000000       0.50000000 </v>
   <v>       0.00000000       0.25000000       0.50000000 </v>
   <v>       0.25000000       0.25000000       0.50000000 </v>
   <v>       0.50000000       0.25000000       0.50000000 </v>
   <v>       0.75000000       0.25000000       0.50000000 </v>
   <v>       0.00000000       0.50000000       0.50000000 </v>
   <v>       0.25000000       0.50000000       0.50000000 </v>
   <v>       0.50000000       0.50000000       0.50000000 </v>
   <v>       0.75000000       0.50000000       0.50000000 </v>
   <v>       0.00000000       0.75000000       0.50000000 </v>
   <v>       0.25000000       0.75000000       0.50000000 </v>
   <v>       0.50000000       0.75000000       0.50000000 </v>
   <v>       0.75000000       0.75000000       0.50000000 </v>
   <v>       0.00000000       0.00000000       0.75000000 </v>
   <v>       0.25000000       0.00000000       0.75000000 </v>
   <v>       0.50000000       0.00000000       0.75000000 </v>
   <v>       0.75000000       0.00000000       0.75000000 </v>
   <v>       0.00000000       0.25000000       0.75000000 </v>
   <v>       0.25000000       0.25000000       0.75000000 </v>
   <v>       0.50000000       0.25000000       0.75000000 </v>
   <v>       0.75000000       0.25000000       0.75000000 </v>
   <v>       0.00000000       0.50000000       0.75000000 </v>
   <v>       0.25000000       0.50000000       0.75000000 </v>
   <v>       0.50000000       0.50000000       0.75000000 </v>
   <v>       0.75000000       0.50000000       0.75000000 </v>
   <v>       0.00000000       0.75000000       0.75000000 </v>
   <v>       0.25000000       0.75000000       0.75000000 </v>
   <v>       0.50000000       0.75000000       0.75000000 </v>
   <v>       0.75000000       0.75000000       0.75000000 </v>
  </varray>
 </structure>
</modeling>
