b479b036c4d24002dc0c318b05109c784bc7d9e7
1.0
   0.000000000000000   10.937160696091608   10.937160696091608
  10.937160696091608    0.000000000000000   10.937160696091608
  10.937160696091608   10.937160696091608    0.000000000000000
Si
128
Direct
   0.062042842960899    0.062957157039101    0.062957157039101
   0.312500000000000    0.062500000000000    0.062500000000000
   0.562500000000000    0.062500000000000    0.062500000000000
   0.812500000000000    0.062500000000000    0.062500000000000
   0.062500000000000    0.312500000000000    0.062500000000000
   0.312500000000000    0.312500000000000    0.062500000000000
   0.562500000000000    0.312500000000000    0.062500000000000
   0.812500000000000    0.312500000000000    0.062500000000000
   0.062500000000000    0.562500000000000    0.062500000000000
   0.312500000000000    0.562500000000000    0.062500000000000
   0.562500000000000    0.562500000000000    0.062500000000000
   0.812500000000000    0.562500000000000    0.062500000000000
   0.062500000000000    0.812500000000000    0.062500000000000
   0.312500000000000    0.812500000000000    0.062500000000000
   0.562500000000000    0.812500000000000    0.062500000000000
   0.812500000000000    0.812500000000000    0.062500000000000
   0.062500000000000    0.062500000000000    0.312500000000000
   0.312500000000000    0.062500000000000    0.312500000000000
   0.562500000000000    0.062500000000000    0.312500000000000
   0.812500000000000    0.062500000000000    0.312500000000000
   0.062500000000000    0.312500000000000    0.312500000000000
   0.312500000000000    0.312500000000000    0.312500000000000
   0.562500000000000    0.312500000000000    0.312500000000000
   0.812500000000000    0.312500000000000    0.312500000000000
   0.062500000000000    0.562500000000000    0.312500000000000
   0.312500000000000    0.562500000000000    0.312500000000000
   0.562500000000000    0.562500000000000    0.312500000000000
   0.812500000000000    0.562500000000000    0.312500000000000
   0.062500000000000    0.812500000000000    0.312500000000000
   0.312500000000000    0.812500000000000    0.312500000000000
   0.562500000000000    0.812500000000000    0.312500000000000
   0.812500000000000    0.812500000000000    0.312500000000000
   0.062500000000000    0.062500000000000    0.562500000000000
   0.312500000000000    0.062500000000000    0.562500000000000
   0.562500000000000    0.062500000000000    0.562500000000000
   0.812500000000000    0.062500000000000    0.562500000000000
   0.062500000000000    0.312500000000000    0.562500000000000
   0.312500000000000    0.312500000000000    0.562500000000000
   0.562500000000000    0.312500000000000    0.562500000000000
   0.812500000000000    0.312500000000000    0.562500000000000
   0.062500000000000    0.562500000000000    0.562500000000000
   0.312500000000000    0.562500000000000    0.562500000000000
   0.562500000000000    0.562500000000000    0.562500000000000
   0.812500000000000    0.562500000000000    0.562500000000000
   0.062500000000000    0.812500000000000    0.562500000000000
   0.312500000000000    0.812500000000000    0.562500000000000
   0.562500000000000    0.812500000000000    0.562500000000000
   0.812500000000000    0.812500000000000    0.562500000000000
   0.062500000000000    0.062500000000000    0.812500000000000
   0.312500000000000    0.062500000000000    0.812500000000000
   0.562500000000000    0.062500000000000    0.812500000000000
   0.812500000000000    0.062500000000000    0.812500000000000
   0.062500000000000    0.312500000000000    0.812500000000000
   0.312500000000000    0.312500000000000    0.812500000000000
   0.562500000000000    0.312500000000000    0.812500000000000
   0.812500000000000    0.312500000000000    0.812500000000000
   0.062500000000000    0.562500000000000    0.812500000000000
   0.312500000000000    0.562500000000000    0.812500000000000
   0.562500000000000    0.562500000000000    0.812500000000000
   0.812500000000000    0.562500000000000    0.812500000000000
   0.062500000000000    0.812500000000000    0.812500000000000
   0.312500000000000    0.812500000000000    0.812500000000000
   0.562500000000000    0.812500000000000    0.812500000000000
   0.812500000000000    0.812500000000000    0.812500000000000
  -0.000457157039101   -0.000457157039101    0.000457157039101
   0.250000000000000    0.000000000000000    0.000000000000000
   0.500000000000000    0.000000000000000    0.000000000000000
   0.750000000000000    0.000000000000000    0.000000000000000
   0.000000000000000    0.250000000000000    0.000000000000000
   0.250000000000000    0.250000000000000    0.000000000000000
   0.500000000000000    0.250000000000000    0.000000000000000
   0.750000000000000    0.250000000000000    0.000000000000000
   0.000000000000000    0.500000000000000    0.000000000000000
   0.250000000000000    0.500000000000000    0.000000000000000
   0.500000000000000    0.500000000000000    0.000000000000000
   0.750000000000000    0.500000000000000    0.000000000000000
   0.000000000000000    0.750000000000000    0.000000000000000
   0.250000000000000    0.750000000000000    0.000000000000000
   0.500000000000000    0.750000000000000    0.000000000000000
   0.750000000000000    0.750000000000000    0.000000000000000
   0.000000000000000    0.000000000000000    0.250000000000000
   0.250000000000000    0.000000000000000    0.250000000000000
   0.500000000000000    0.000000000000000    0.250000000000000
   0.750000000000000    0.000000000000000    0.250000000000000
   0.000000000000000    0.250000000000000    0.250000000000000
   0.250000000000000    0.250000000000000    0.250000000000000
   0.500000000000000    0.250000000000000    0.250000000000000
   0.750000000000000    0.250000000000000    0.250000000000000
   0.000000000000000    0.500000000000000    0.250000000000000
   0.250000000000000    0.500000000000000    0.250000000000000
   0.500000000000000    0.500000000000000    0.250000000000000
   0.750000000000000    0.500000000000000    0.250000000000000
   0.000000000000000    0.750000000000000    0.250000000000000
   0.250000000000000    0.750000000000000    0.250000000000000
   0.500000000000000    0.750000000000000    0.250000000000000
   0.750000000000000    0.750000000000000    0.250000000000000
   0.000000000000000    0.000000000000000    0.500000000000000
   0.250000000000000    0.000000000000000    0.500000000000000
   0.500000000000000    0.000000000000000    0.500000000000000
   0.750000000000000    0.000000000000000    0.500000000000000
   0.000000000000000    0.250000000000000    0.500000000000000
   0.250000000000000    0.250000000000000    0.500000000000000
   0.500000000000000    0.250000000000000    0.500000000000000
   0.750000000000000    0.250000000000000    0.500000000000000
   0.000000000000000    0.500000000000000    0.500000000000000
   0.250000000000000    0.500000000000000    0.500000000000000
   0.500000000000000    0.500000000000000    0.500000000000000
   0.750000000000000    0.500000000000000    0.500000000000000
   0.000000000000000    0.750000000000000    0.500000000000000
   0.250000000000000    0.750000000000000    0.500000000000000
   0.500000000000000    0.750000000000000    0.500000000000000
   0.750000000000000    0.750000000000000    0.500000000000000
   0.000000000000000    0.000000000000000    0.750000000000000
   0.250000000000000    0.000000000000000    0.750000000000000
   0.500000000000000    0.000000000000000    0.750000000000000
   0.750000000000000    0.000000000000000    0.750000000000000
   0.000000000000000    0.250000000000000    0.750000000000000
   0.250000000000000    0.250000000000000    0.750000000000000
   0.500000000000000    0.250000000000000    0.750000000000000
   0.750000000000000    0.250000000000000    0.750000000000000
   0.000000000000000    0.500000000000000    0.750000000000000
   0.250000000000000    0.500000000000000    0.750000000000000
   0.500000000000000    0.500000000000000    0.750000000000000
   0.750000000000000    0.500000000000000    0.750000000000000
   0.000000000000000    0.750000000000000    0.750000000000000
   0.250000000000000    0.750000000000000    0.750000000000000
   0.500000000000000    0.750000000000000    0.750000000000000
   0.750000000000000    0.750000000000000    0.750000000000000
