0700a3ce78610a9a669b8dbe76e14f85688bb39b
1.0
   0.000000000000000   10.937160696091608   10.937160696091608
  10.937160696091608    0.000000000000000   10.937160696091608
  10.937160696091608   10.937160696091608    0.000000000000000
Si
128
Direct
   0.062500000000000    0.062500000000000    0.061585685921797
   0.312500000000000    0.062500000000000    0.062500000000000
   0.562500000000000    0.062500000000000    0.062500000000000
   0.812500000000000    0.062500000000000    0.062500000000000
   0.062500000000000    0.312500000000000    0.062500000000000
   0.312500000000000    0.312500000000000    0.062500000000000
   0.562500000000000    0.312500000000000    0.062500000000000
   0.812500000000000    0.312500000000000    0.062500000000000
   0.062500000000000    0.562500000000000    0.062500000000000
   0.312500000000000    0.562500000000000    0.062500000000000
   0.562500000000000    0.562500000000000    0.062500000000000
   0.812500000000000    0.562500000000000    0.062500000000000
   0.062500000000000    0.812500000000000    0.062500000000000
   0.312500000000000    0.812500000000000    0.062500000000000
   0.562500000000000    0.812500000000000    0.062500000000000
   0.812500000000000    0.812500000000000    0.062500000000000
   0.062500000000000    0.062500000000000    0.312500000000000
   0.312500000000000    0.062500000000000    0.312500000000000
   0.562500000000000    0.062500000000000    0.312500000000000
   0.812500000000000    0.062500000000000    0.312500000000000
   0.062500000000000    0.312500000000000    0.312500000000000
   0.312500000000000    0.312500000000000    0.312500000000000
   0.562500000000000    0.312500000000000    0.312500000000000
   0.812500000000000    0.312500000000000    0.312500000000000
   0.062500000000000    0.562500000000000    0.312500000000000
   0.312500000000000    0.562500000000000    0.312500000000000
   0.562500000000000    0.562500000000000    0.312500000000000
   0.812500000000000    0.562500000000000    0.312500000000000
   0.062500000000000    0.812500000000000    0.312500000000000
   0.312500000000000    0.812500000000000    0.312500000000000
   0.562500000000000    0.812500000000000    0.312500000000000
   0.812500000000000    0.812500000000000    0.312500000000000
   0.062500000000000    0.062500000000000    0.562500000000000
   0.312500000000000    0.062500000000000    0.562500000000000
   0.562500000000000    0.062500000000000    0.562500000000000
   0.812500000000000    0.062500000000000    0.562500000000000
   0.062500000000000    0.312500000000000    0.562500000000000
   0.312500000000000    0.312500000000000    0.562500000000000
   0.562500000000000    0.312500000000000    0.562500000000000
   0.812500000000000    0.312500000000000    0.562500000000000
   0.062500000000000    0.562500000000000    0.562500000000000
   0.312500000000000    0.562500000000000    0.562500000000000
   0.562500000000000    0.562500000000000    0.562500000000000
   0.812500000000000    0.562500000000000    0.562500000000000
   0.062500000000000    0.812500000000000    0.562500000000000
   0.312500000000000    0.812500000000000    0.562500000000000
   0.562500000000000    0.812500000000000    0.562500000000000
   0.812500000000000    0.812500000000000    0.562500000000000
   0.062500000000000    0.062500000000000    0.812500000000000
   0.312500000000000    0.062500000000000    0.812500000000000
   0.562500000000000    0.062500000000000    0.812500000000000
   0.812500000000000    0.062500000000000    0.812500000000000
   0.062500000000000    0.312500000000000    0.812500000000000
   0.312500000000000    0.312500000000000    0.812500000000000
   0.562500000000000    0.312500000000000    0.812500000000000
   0.812500000000000    0.312500000000000    0.812500000000000
   0.062500000000000    0.562500000000000    0.812500000000000
   0.312500000000000    0.562500000000000    0.812500000000000
   0.562500000000000    0.562500000000000    0.812500000000000
   0.812500000000000    0.562500000000000    0.812500000000000
   0.062500000000000    0.812500000000000    0.812500000000000
   0.312500000000000    0.812500000000000    0.812500000000000
   0.562500000000000    0.812500000000000    0.812500000000000
   0.812500000000000    0.812500000000000    0.812500000000000
   0.000000000000000    0.000000000000000    0.000000000000000
   0.250000000000000    0.000000000000000    0.000000000000000
   0.500000000000000    0.000000000000000    0.000000000000000
   0.750000000000000    0.000000000000000    0.000000000000000
   0.000000000000000    0.250000000000000    0.000000000000000
   0.250000000000000    0.250000000000000    0.000000000000000
   0.500000000000000    0.250000000000000    0.000000000000000
   0.750000000000000    0.250000000000000    0.000000000000000
   0.000000000000000    0.500000000000000    0.000000000000000
   0.250000000000000    0.500000000000000    0.000000000000000
   0.500000000000000    0.500000000000000    0.000000000000000
   0.750000000000000    0.500000000000000    0.000000000000000
   0.000000000000000    0.750000000000000    0.000000000000000
   0.250000000000000    0.750000000000000    0.000000000000000
   0.500000000000000    0.750000000000000    0.000000000000000
   0.750000000000000    0.750000000000000    0.000000000000000
   0.000000000000000    0.000000000000000    0.250000000000000
   0.250000000000000    0.000000000000000    0.250000000000000
   0.500000000000000    0.000000000000000    0.250000000000000
   0.750000000000000    0.000000000000000    0.250000000000000
   0.000000000000000    0.250000000000000    0.250000000000000
   0.250000000000000    0.250000000000000    0.250000000000000
   0.500000000000000    0.250000000000000    0.250000000000000
   0.750000000000000    0.250000000000000    0.250000000000000
   0.000000000000000    0.500000000000000    0.250000000000000
   0.250000000000000    0.500000000000000    0.250000000000000
   0.500000000000000    0.500000000000000    0.250000000000000
   0.750000000000000    0.500000000000000    0.250000000000000
   0.000000000000000    0.750000000000000    0.250000000000000
   0.250000000000000    0.750000000000000    0.250000000000000
   0.500000000000000    0.750000000000000    0.250000000000000
   0.750000000000000    0.750000000000000    0.250000000000000
   0.000000000000000    0.000000000000000    0.500000000000000
   0.250000000000000    0.000000000000000    0.500000000000000
   0.500000000000000    0.000000000000000    0.500000000000000
   0.750000000000000    0.000000000000000    0.500000000000000
   0.000000000000000    0.250000000000000    0.500000000000000
   0.250000000000000    0.250000000000000    0.500000000000000
   0.500000000000000    0.250000000000000    0.500000000000000
   0.750000000000000    0.250000000000000    0.500000000000000
   0.000000000000000    0.500000000000000    0.500000000000000
   0.250000000000000    0.500000000000000    0.500000000000000
   0.500000000000000    0.500000000000000    0.500000000000000
   0.750000000000000    0.500000000000000    0.500000000000000
   0.000000000000000    0.750000000000000    0.500000000000000
   0.250000000000000    0.750000000000000    0.500000000000000
   0.500000000000000    0.750000000000000    0.500000000000000
   0.750000000000000    0.750000000000000    0.500000000000000
   0.000000000000000    0.000000000000000    0.750000000000000
   0.250000000000000    0.000000000000000    0.750000000000000
   0.500000000000000    0.000000000000000    0.750000000000000
   0.750000000000000    0.000000000000000    0.750000000000000
   0.000000000000000    0.250000000000000    0.750000000000000
   0.250000000000000    0.250000000000000    0.750000000000000
   0.500000000000000    0.250000000000000    0.750000000000000
   0.750000000000000    0.250000000000000    0.750000000000000
   0.000000000000000    0.500000000000000    0.750000000000000
   0.250000000000000    0.500000000000000    0.750000000000000
   0.500000000000000    0.500000000000000    0.750000000000000
   0.750000000000000    0.500000000000000    0.750000000000000
   0.000000000000000    0.750000000000000    0.750000000000000
   0.250000000000000    0.750000000000000    0.750000000000000
   0.500000000000000    0.750000000000000    0.750000000000000
   0.750000000000000    0.750000000000000    0.750000000000000
