 vasp.5.4.4.18Apr17-6-g9f103f2a35 (build Aug 16 2020 16:33:06) complex          
  
 executed on             LinuxIFC date 2026.08.15  15:07:00
 running on   40 total cores
 distrk:  each k-point on   40 cores,    1 groups
 distr:  one band on NCORES_PER_BAND=  20 cores,    2 groups


--------------------------------------------------------------------------------------------------------


 INCAR:
 POTCAR:   PAW_PBE Si 05Jan2001                   

 ----------------------------------------------------------------------------- 
|                                                                             |
|           W    W    AA    RRRRR   N    N  II  N    N   GGGG   !!!           |
|           W    W   A  A   R    R  NN   N  II  NN   N  G    G  !!!           |
|           W    W  A    A  R    R  N N  N  II  N N  N  G       !!!           |
|           W WW W  AAAAAA  RRRRR   N  N N  II  N  N N  G  GGG   !            |
|           WW  WW  A    A  R   R   N   NN  II  N   NN  G    G                |
|           W    W  A    A  R    R  N    N  II  N    N   GGGG   !!!           |
|                                                                             |
|      For optimal performance we recommend to set                            |
|        NCORE= 4 - approx SQRT( number of cores)                             |
|      NCORE specifies how many cores store one orbital (NPAR=cpu/NCORE).     |
|      This setting can  greatly improve the performance of VASP for DFT.     |
|      The default,   NCORE=1            might be grossly inefficient         |
|      on modern multi-core architectures or massively parallel machines.     |
|      Do your own testing !!!!                                               |
|      Unfortunately you need to use the default for GW and RPA calculations. |
|      (for HF NCORE is supported but not extensively tested yet)             |
|                                                                             |
 ----------------------------------------------------------------------------- 

 POTCAR:   PAW_PBE Si 05Jan2001                   
   VRHFIN =Si: s2p2                                                             
   LEXCH  = PE                                                                  
   EATOM  =   103.0669 eV,    7.5752 Ry                                         
                                                                                
   TITEL  = PAW_PBE Si 05Jan2001                                                
   LULTRA =        F    use ultrasoft PP ?                                      
   IUNSCR =        1    unscreen: 0-lin 1-nonlin 2-no                           
   RPACOR =    1.500    partial core radius                                     
   POMASS =   28.085; ZVAL   =    4.000    mass and valenz                      
   RCORE  =    1.900    outmost cutoff radius                                   
   RWIGS  =    2.480; RWIGS  =    1.312    wigner-seitz radius (au A)           
   ENMAX  =  245.345; ENMIN  =  184.009 eV                                      
   ICORE  =        2    local potential                                         
   LCOR   =        T    correct aug charges                                     
   LPAW   =        T    paw PP                                                  
   EAUG   =  322.069                                                            
   DEXC   =    -.007                                                            
   RMAX   =    2.944    core radius for proj-oper                               
   RAUG   =    1.300    factor for augmentation sphere                          
   RDEP   =    1.993    radius for radial grids                                 
   QCUT   =   -4.246; QGAM   =    8.493    optimization parameters              
                                                                                
   Description                                                                  
     l     E      TYP  RCUT    TYP  RCUT                                        
     0   .000     23  1.900                                                     
     0   .000     23  1.900                                                     
     1   .000     23  1.900                                                     
     1   .000     23  1.900                                                     
     2   .000      7  1.900                                                     
  local pseudopotential read in
  partial core-charges read in
  atomic valenz-charges read in
  non local Contribution for L=           0  read in
    real space projection operators read in
  non local Contribution for L=           0  read in
    real space projection operators read in
  non local Contribution for L=           1  read in
    real space projection operators read in
  non local Contribution for L=           1  read in
    real space projection operators read in
    PAW grid and wavefunctions read in
 
   number of l-projection  operators is LMAX  =           4
   number of lm-projection operators is LMMAX =           8
 

 ----------------------------------------------------------------------------- 
|                                                                             |
|  ADVICE TO THIS USER RUNNING 'VASP/VAMP'   (HEAR YOUR MASTER'S VOICE ...):  |
|                                                                             |
|      You have a (more or less) 'large supercell' and for larger cells       |
|      it might be more efficient to use real space projection operators      |
|      So try LREAL= Auto  in the INCAR   file.                               |
|      Mind: If you want to do a very accurate calculations keep the          |
|      reciprocal projection scheme          (i.e. LREAL=.FALSE.)             |
|                                                                             |
 ----------------------------------------------------------------------------- 

 PAW_PBE Si 05Jan2001                   :
 energy of atom  1       EATOM= -103.0669
 kinetic energy error for atom=    0.0006 (will be added to EATOM!!)
 
 
 POSCAR: Si                                      
  positions in direct lattice
  No initial velocities read in
 exchange correlation table for  LEXCH =        8
   RHO(1)=    0.500       N(1)  =     2000
   RHO(2)=  100.500       N(2)  =     4000
 


--------------------------------------------------------------------------------------------------------


 ion  position               nearest neighbor table
   1  0.062  0.062  0.063-  34 2.36   2 2.36  10 2.37   4 2.37
   2  0.000  0.000  0.000-   1 2.36   7 2.37  25 2.37  97 2.37
   3  0.312  0.062  0.062-   6 2.36   4 2.37  12 2.37  36 2.37
   4  0.250  0.000  0.000-   3 2.37  27 2.37  99 2.37   1 2.37
   5  0.562  0.062  0.062-   8 2.37  14 2.37  38 2.37   6 2.37
   6  0.500  0.000  1.000-   3 2.36 101 2.36  29 2.37   5 2.37
   7  0.812  0.062  0.062-   2 2.37   8 2.37  16 2.37  40 2.37
   8  0.750  0.000  0.000-   5 2.37   7 2.37  31 2.37 103 2.37
   9  0.062  0.312  0.062-  10 2.37  12 2.37  18 2.37  42 2.37
  10  0.000  0.250  0.000-   9 2.37  15 2.37 105 2.37   1 2.37
  11  0.312  0.312  0.062-  12 2.37  14 2.37  20 2.37  44 2.37
  12  0.250  0.250  0.000-   3 2.37   9 2.37  11 2.37 107 2.37
  13  0.562  0.312  0.062-  14 2.37  16 2.37  22 2.37  46 2.37
  14  0.500  0.250  0.000-   5 2.37  11 2.37  13 2.37 109 2.37
  15  0.812  0.312  0.062-  10 2.37  16 2.37  24 2.37  48 2.37
  16  0.750  0.250  0.000-   7 2.37  13 2.37  15 2.37 111 2.37
  17  0.062  0.562  0.062-  18 2.37  20 2.37  26 2.37  50 2.37
  18  0.000  0.500  0.000-   9 2.37  17 2.37  23 2.37 113 2.37
  19  0.312  0.562  0.062-  20 2.37  22 2.37  28 2.37  52 2.37
  20  0.250  0.500  0.000-  11 2.37  17 2.37  19 2.37 115 2.37
  21  0.562  0.562  0.062-  22 2.37  24 2.37  30 2.37  54 2.37
  22  0.500  0.500  0.000-  13 2.37  19 2.37  21 2.37 117 2.37
  23  0.812  0.562  0.062-  18 2.37  24 2.37  32 2.37  56 2.37
  24  0.750  0.500  0.000-  15 2.37  21 2.37  23 2.37 119 2.37
  25  0.062  0.812  0.062-   2 2.37  26 2.37  28 2.37  58 2.37
  26  0.000  0.750  0.000-  17 2.37  25 2.37  31 2.37 121 2.37
  27  0.312  0.812  0.062-   4 2.37  28 2.37  30 2.37  60 2.37
  28  0.250  0.750  0.000-  19 2.37  25 2.37  27 2.37 123 2.37
  29  0.562  0.812  0.062-  30 2.37  32 2.37  62 2.37   6 2.37
  30  0.500  0.750  0.000-  21 2.37  27 2.37  29 2.37 125 2.37
  31  0.812  0.812  0.062-   8 2.37  26 2.37  32 2.37  64 2.37
  32  0.750  0.750  0.000-  23 2.37  29 2.37  31 2.37 127 2.37
  33  0.062  0.062  0.312-  34 2.37  36 2.37  42 2.37  66 2.37
  34  0.000  0.000  0.250-   1 2.36  33 2.37  39 2.37  57 2.37
  35  0.312  0.062  0.312-  36 2.37  38 2.37  44 2.37  68 2.37
  36  0.250  0.000  0.250-   3 2.37  33 2.37  35 2.37  59 2.37
  37  0.562  0.062  0.312-  38 2.37  40 2.37  46 2.37  70 2.37
  38  0.500  0.000  0.250-   5 2.37  35 2.37  37 2.37  61 2.37
  39  0.812  0.062  0.312-  34 2.37  40 2.37  48 2.37  72 2.37
  40  0.750  0.000  0.250-   7 2.37  37 2.37  39 2.37  63 2.37
  41  0.062  0.312  0.312-  42 2.37  44 2.37  50 2.37  74 2.37
  42  0.000  0.250  0.250-   9 2.37  33 2.37  41 2.37  47 2.37
  43  0.312  0.312  0.312-  44 2.37  46 2.37  52 2.37  76 2.37
  44  0.250  0.250  0.250-  11 2.37  35 2.37  41 2.37  43 2.37
  45  0.562  0.312  0.312-  46 2.37  48 2.37  54 2.37  78 2.37
  46  0.500  0.250  0.250-  13 2.37  37 2.37  43 2.37  45 2.37
  47  0.812  0.312  0.312-  42 2.37  48 2.37  56 2.37  80 2.37
  48  0.750  0.250  0.250-  15 2.37  39 2.37  45 2.37  47 2.37
  49  0.062  0.562  0.312-  50 2.37  52 2.37  58 2.37  82 2.37
  50  0.000  0.500  0.250-  17 2.37  41 2.37  49 2.37  55 2.37
  51  0.312  0.562  0.312-  52 2.37  54 2.37  60 2.37  84 2.37
  52  0.250  0.500  0.250-  19 2.37  43 2.37  49 2.37  51 2.37
  53  0.562  0.562  0.312-  54 2.37  56 2.37  62 2.37  86 2.37
  54  0.500  0.500  0.250-  21 2.37  45 2.37  51 2.37  53 2.37
  55  0.812  0.562  0.312-  50 2.37  56 2.37  64 2.37  88 2.37
  56  0.750  0.500  0.250-  23 2.37  47 2.37  53 2.37  55 2.37
  57  0.062  0.812  0.312-  34 2.37  58 2.37  60 2.37  90 2.37
  58  0.000  0.750  0.250-  25 2.37  49 2.37  57 2.37  63 2.37
  59  0.312  0.812  0.312-  36 2.37  60 2.37  62 2.37  92 2.37
  60  0.250  0.750  0.250-  27 2.37  51 2.37  57 2.37  59 2.37
  61  0.562  0.812  0.312-  38 2.37  62 2.37  64 2.37  94 2.37
  62  0.500  0.750  0.250-  29 2.37  53 2.37  59 2.37  61 2.37
  63  0.812  0.812  0.312-  40 2.37  58 2.37  64 2.37  96 2.37
  64  0.750  0.750  0.250-  31 2.37  55 2.37  61 2.37  63 2.37
  65  0.062  0.062  0.562-  66 2.37  68 2.37  74 2.37  98 2.37
  66  0.000  0.000  0.500-  33 2.37  65 2.37  71 2.37  89 2.37
  67  0.312  0.062  0.562-  68 2.37  70 2.37  76 2.37 100 2.37
  68  0.250  0.000  0.500-  35 2.37  65 2.37  67 2.37  91 2.37
  69  0.562  0.062  0.562-  70 2.37  72 2.37  78 2.37 102 2.37
  70  0.500  0.000  0.500-  37 2.37  67 2.37  69 2.37  93 2.37
  71  0.812  0.062  0.562-  66 2.37  72 2.37  80 2.37 104 2.37
  72  0.750  0.000  0.500-  39 2.37  69 2.37  71 2.37  95 2.37
  73  0.062  0.312  0.562-  74 2.37  76 2.37  82 2.37 106 2.37
  74  0.000  0.250  0.500-  41 2.37  65 2.37  73 2.37  79 2.37
  75  0.312  0.312  0.562-  76 2.37  78 2.37  84 2.37 108 2.37
  76  0.250  0.250  0.500-  43 2.37  67 2.37  73 2.37  75 2.37
  77  0.562  0.312  0.562-  78 2.37  80 2.37  86 2.37 110 2.37
  78  0.500  0.250  0.500-  45 2.37  69 2.37  75 2.37  77 2.37
  79  0.812  0.312  0.562-  74 2.37  80 2.37  88 2.37 112 2.37
  80  0.750  0.250  0.500-  47 2.37  71 2.37  77 2.37  79 2.37
  81  0.062  0.562  0.562-  82 2.37  84 2.37  90 2.37 114 2.37
  82  0.000  0.500  0.500-  49 2.37  73 2.37  81 2.37  87 2.37
  83  0.312  0.562  0.562-  84 2.37  86 2.37  92 2.37 116 2.37
  84  0.250  0.500  0.500-  51 2.37  75 2.37  81 2.37  83 2.37
  85  0.562  0.562  0.562-  86 2.37  88 2.37  94 2.37 118 2.37
  86  0.500  0.500  0.500-  53 2.37  77 2.37  83 2.37  85 2.37
  87  0.812  0.562  0.562-  82 2.37  88 2.37  96 2.37 120 2.37
  88  0.750  0.500  0.500-  55 2.37  79 2.37  85 2.37  87 2.37
  89  0.062  0.812  0.562-  66 2.37  90 2.37  92 2.37 122 2.37
  90  0.000  0.750  0.500-  57 2.37  81 2.37  89 2.37  95 2.37
  91  0.312  0.812  0.562-  68 2.37  92 2.37  94 2.37 124 2.37
  92  0.250  0.750  0.500-  59 2.37  83 2.37  89 2.37  91 2.37
  93  0.562  0.812  0.562-  70 2.37  94 2.37  96 2.37 126 2.37
  94  0.500  0.750  0.500-  61 2.37  85 2.37  91 2.37  93 2.37
  95  0.812  0.812  0.562-  72 2.37  90 2.37  96 2.37 128 2.37
  96  0.750  0.750  0.500-  63 2.37  87 2.37  93 2.37  95 2.37
  97  0.062  0.062  0.812-   2 2.37  98 2.37 100 2.37 106 2.37
  98  0.000  0.000  0.750-  65 2.37  97 2.37 103 2.37 121 2.37
  99  0.312  0.062  0.812-   4 2.37 100 2.37 102 2.37 108 2.37
 100  0.250  0.000  0.750-  67 2.37  97 2.37  99 2.37 123 2.37
 101  0.562  0.062  0.812-   6 2.36 102 2.37 104 2.37 110 2.37
 102  0.500  0.000  0.750-  69 2.37  99 2.37 101 2.37 125 2.37
 103  0.812  0.062  0.812-   8 2.37  98 2.37 104 2.37 112 2.37
 104  0.750  0.000  0.750-  71 2.37 101 2.37 103 2.37 127 2.37
 105  0.062  0.312  0.812-  10 2.37 106 2.37 108 2.37 114 2.37
 106  0.000  0.250  0.750-  73 2.37  97 2.37 105 2.37 111 2.37
 107  0.312  0.312  0.812-  12 2.37 108 2.37 110 2.37 116 2.37
 108  0.250  0.250  0.750-  75 2.37  99 2.37 105 2.37 107 2.37
 109  0.562  0.312  0.812-  14 2.37 110 2.37 112 2.37 118 2.37
 110  0.500  0.250  0.750-  77 2.37 101 2.37 107 2.37 109 2.37
 111  0.812  0.312  0.812-  16 2.37 106 2.37 112 2.37 120 2.37
 112  0.750  0.250  0.750-  79 2.37 103 2.37 109 2.37 111 2.37
 113  0.062  0.562  0.812-  18 2.37 114 2.37 116 2.37 122 2.37
 114  0.000  0.500  0.750-  81 2.37 105 2.37 113 2.37 119 2.37
 115  0.312  0.562  0.812-  20 2.37 116 2.37 118 2.37 124 2.37
 116  0.250  0.500  0.750-  83 2.37 107 2.37 113 2.37 115 2.37
 117  0.562  0.562  0.812-  22 2.37 118 2.37 120 2.37 126 2.37
 118  0.500  0.500  0.750-  85 2.37 109 2.37 115 2.37 117 2.37
 119  0.812  0.562  0.812-  24 2.37 114 2.37 120 2.37 128 2.37
 120  0.750  0.500  0.750-  87 2.37 111 2.37 117 2.37 119 2.37
 121  0.062  0.812  0.812-  26 2.37  98 2.37 122 2.37 124 2.37
 122  0.000  0.750  0.750-  89 2.37 113 2.37 121 2.37 127 2.37
 123  0.312  0.812  0.812-  28 2.37 100 2.37 124 2.37 126 2.37
 124  0.250  0.750  0.750-  91 2.37 115 2.37 121 2.37 123 2.37
 125  0.562  0.812  0.812-  30 2.37 102 2.37 126 2.37 128 2.37
 126  0.500  0.750  0.750-  93 2.37 117 2.37 123 2.37 125 2.37
 127  0.812  0.812  0.812-  32 2.37 104 2.37 122 2.37 128 2.37
 128  0.750  0.750  0.750-  95 2.37 119 2.37 125 2.37 127 2.37
 

IMPORTANT INFORMATION: All symmetrisations will be switched off!
NOSYMM: (Re-)initialisation of all symmetry stuff for point group C_1.

 
 
 KPOINTS: K-Spacing Value to Generate K-Mesh: 0.03

Automatic generation of k-mesh.
Space group operators:
 irot       det(A)        alpha          n_x          n_y          n_z        tau_x        tau_y        tau_z
    1     1.000000     0.000000     1.000000     0.000000     0.000000     0.000000     0.000000     0.000000
 
 Subroutine IBZKPT returns following result:
 ===========================================
 
 Found      1 irreducible k-points:
 
 Following reciprocal coordinates:
            Coordinates               Weight
  0.000000  0.000000  0.000000      1.000000
 
 Following cartesian coordinates:
            Coordinates               Weight
  0.000000  0.000000  0.000000      1.000000
 


--------------------------------------------------------------------------------------------------------




 Dimension of arrays:
   k-points           NKPTS =      1   k-points in BZ     NKDIM =      1   number of bands    NBANDS=    322
   number of dos      NEDOS =    301   number of ions     NIONS =    128
   non local maximal  LDIM  =      4   non local SUM 2l+1 LMDIM =      8
   total plane-waves  NPLWV = ******
   max r-space proj   IRMAX =      1   max aug-charges    IRDMAX= 176819
   dimension x,y,z NGX =   120 NGY =  120 NGZ =  120
   dimension x,y,z NGXF=   240 NGYF=  240 NGZF=  240
   support grid    NGXF=   480 NGYF=  480 NGZF=  480
   ions per type =             128
   NGX,Y,Z   is equivalent  to a cutoff of  12.90, 12.90, 12.90 a.u.
   NGXF,Y,Z  is equivalent  to a cutoff of  25.80, 25.80, 25.80 a.u.

 SYSTEM =  unknown system                          
 POSCAR =  Si                                      

 Startparameter for this run:
   NWRITE =      2    write-flag & timer
   PREC   = accura    normal or accurate (medium, high low for compatibility)
   ISTART =      0    job   : 0-new  1-cont  2-samecut
   ICHARG =      2    charge: 1-file 2-atom 10-const
   ISPIN  =      1    spin polarized calculation?
   LNONCOLLINEAR =      F non collinear calculations
   LSORBIT =      F    spin-orbit coupling
   INIWAV =      1    electr: 0-lowe 1-rand  2-diag
   LASPH  =      F    aspherical Exc in radial PAW
   METAGGA=      F    non-selfconsistent MetaGGA calc.

 Electronic Relaxation 1
   ENCUT  =  500.0 eV  36.75 Ry    6.06 a.u.  28.20 28.20 28.20*2*pi/ulx,y,z
   ENINI  =  500.0     initial cutoff
   ENAUG  =  322.1 eV  augmentation charge cutoff
   NELM   =     60;   NELMIN=  2; NELMDL= -5     # of ELM steps 
   EDIFF  = 0.1E-07   stopping-criterion for ELM
   LREAL  =      F    real-space projection
   NLSPLINE    = F    spline interpolate recip. space projectors
   LCOMPAT=      F    compatible to vasp.4.4
   GGA_COMPAT  = T    GGA compatible to vasp.4.4-vasp.4.6
   LMAXPAW     = -100 max onsite density
   LMAXMIX     =    2 max onsite mixed and CHGCAR
   VOSKOWN=      0    Vosko Wilk Nusair interpolation
   ROPT   =    0.00000
 Ionic relaxation
   EDIFFG = 0.1E-06   stopping-criterion for IOM
   NSW    =      0    number of steps for IOM
   NBLOCK =      1;   KBLOCK =      1    inner block; outer block 
   IBRION =     -1    ionic relax: 0-MD 1-quasi-New 2-CG
   NFREE  =      0    steps in history (QN), initial steepest desc. (CG)
   ISIF   =      2    stress and relaxation
   IWAVPR =     10    prediction:  0-non 1-charg 2-wave 3-comb
   ISYM   =      0    0-nonsym 1-usesym 2-fastsym
   LCORR  =      T    Harris-Foulkes like correction to forces

   POTIM  = 0.5000    time-step for ionic-motion
   TEIN   =    0.0    initial temperature
   TEBEG  =    0.0;   TEEND  =   0.0 temperature during run
   SMASS  =  -3.00    Nose mass-parameter (am)
   estimated Nose-frequenzy (Omega)   =  0.10E-29 period in steps =****** mass=  -0.547E-26a.u.
   SCALEE = 1.0000    scale energy and forces
   NPACO  =    256;   APACO  = 16.0  distance and # of slots for P.C.
   PSTRESS=    0.0 pullay stress

  Mass of Ions in am
   POMASS =  28.09
  Ionic Valenz
   ZVAL   =   4.00
  Atomic Wigner-Seitz radii
   RWIGS  =  -1.00
  virtual crystal weights 
   VCA    =   1.00
   NELECT =     512.0000    total number of electrons
   NUPDOWN=      -1.0000    fix difference up-down

 DOS related values:
   EMIN   =  10.00;   EMAX   =-10.00  energy-range for DOS
   EFERMI =   0.00
   ISMEAR =     0;   SIGMA  =   0.05  broadening in eV -4-tet -1-fermi 0-gaus

 Electronic relaxation 2 (details)
   IALGO  =     38    algorithm
   LDIAG  =      T    sub-space diagonalisation (order eigenvalues)
   LSUBROT=      F    optimize rotation matrix (better conditioning)
   TURBO    =      0    0=normal 1=particle mesh
   IRESTART =      0    0=no restart 2=restart with 2 vectors
   NREBOOT  =      0    no. of reboots
   NMIN     =      0    reboot dimension
   EREF     =   0.00    reference energy to select bands
   IMIX   =      4    mixing-type and parameters
     AMIX     =   0.40;   BMIX     =  1.00
     AMIX_MAG =   1.60;   BMIX_MAG =  1.00
     AMIN     =   0.10
     WC   =   100.;   INIMIX=   1;  MIXPRE=   1;  MAXMIX= -45

 Intra band minimization:
   WEIMIN = 0.0000     energy-eigenvalue tresh-hold
   EBREAK =  0.78E-11  absolut break condition
   DEPER  =   0.30     relativ break condition  

   TIME   =   0.40     timestep for ELM

  volume/ion in A,a.u.               =      20.44       137.95
  Fermi-wavevector in a.u.,A,eV,Ry     =   0.950423  1.796039 12.290193  0.903304
  Thomas-Fermi vector in A             =   2.078798
 
 Write flags
   LWAVE        =      F    write WAVECAR
   LDOWNSAMPLE  =      F    k-point downsampling of WAVECAR
   LCHARG       =      F    write CHGCAR
   LVTOT        =      F    write LOCPOT, total local potential
   LVHAR        =      F    write LOCPOT, Hartree potential only
   LELF         =      F    write electronic localiz. function (ELF)
   LORBIT       =      0    0 simple, 1 ext, 2 COOP (PROOUT), +10 PAW based schemes


 Dipole corrections
   LMONO  =      F    monopole corrections only (constant potential shift)
   LDIPOL =      F    correct potential (dipole corrections)
   IDIPOL =      0    1-x, 2-y, 3-z, 4-all directions 
   EPSILON=  1.0000000 bulk dielectric constant

 Exchange correlation treatment:
   GGA     =    --    GGA type
   LEXCH   =     8    internal setting for exchange type
   VOSKOWN=      0    Vosko Wilk Nusair interpolation
   LHFCALC =     F    Hartree Fock is set to
   LHFONE  =     F    Hartree Fock one center treatment
   AEXX    =    0.0000 exact exchange contribution

 Linear response parameters
   LEPSILON=     F    determine dielectric tensor
   LRPA    =     F    only Hartree local field effects (RPA)
   LNABLA  =     F    use nabla operator in PAW spheres
   LVEL    =     F    velocity operator in full k-point grid
   LINTERFAST=   F  fast interpolation
   KINTER  =     0    interpolate to denser k-point grid
   CSHIFT  =0.1000    complex shift for real part using Kramers Kronig
   OMEGAMAX=  -1.0    maximum frequency
   DEG_THRESHOLD= 0.2000000E-02 threshold for treating states as degnerate
   RTIME   =   -0.100 relaxation time in fs
  (WPLASMAI=    0.000 imaginary part of plasma frequency in eV, 0.658/RTIME)
   DFIELD  = 0.0000000 0.0000000 0.0000000 field for delta impulse in time
 
 Orbital magnetization related:
   ORBITALMAG=     F  switch on orbital magnetization
   LCHIMAG   =     F  perturbation theory with respect to B field
   DQ        =  0.001000  dq finite difference perturbation B field
   LLRAUG    =     F  two centre corrections for induced B field



--------------------------------------------------------------------------------------------------------


 Static calculation
 charge density and potential will be updated during run
 non-spin polarized calculation
 Variant of blocked Davidson
 Davidson routine will perform the subspace rotation
 perform sub-space diagonalisation
    after iterative eigenvector-optimisation
 modified Broyden-mixing scheme, WC =      100.0
 initial mixing is a Kerker type mixing with AMIX =  0.4000 and BMIX =      1.0000
 Hartree-type preconditioning will be used
 using additional bands           66
 reciprocal scheme for non local part
 use partial core corrections
 calculate Harris-corrections to forces 
   (improved forces if not selfconsistent)
 use gradient corrections 
 use of overlap-Matrix (Vanderbilt PP)
 Gauss-broadening in eV      SIGMA  =   0.05


--------------------------------------------------------------------------------------------------------


  energy-cutoff  :      500.00
  volume of cell :     2616.64
      direct lattice vectors                 reciprocal lattice vectors
     0.000000000 10.937160696 10.937160696    -0.045715704  0.045715704  0.045715704
    10.937160696  0.000000000 10.937160696     0.045715704 -0.045715704  0.045715704
    10.937160696 10.937160696  0.000000000     0.045715704  0.045715704 -0.045715704

  length of vectors
    15.467480990 15.467480990 15.467480990     0.079181922  0.079181922  0.079181922


 
 k-points in units of 2pi/SCALE and weight: K-Spacing Value to Generate K-Mesh: 0.03
   0.00000000  0.00000000  0.00000000       1.000
 
 k-points in reciprocal lattice and weights: K-Spacing Value to Generate K-Mesh: 0.03
   0.00000000  0.00000000  0.00000000       1.000
 
 position of ions in fractional coordinates (direct lattice) 
   0.06204284  0.06204284  0.06295716
   0.00000000  0.00000000  0.00000000
   0.31250000  0.06250000  0.06250000
   0.25000000  0.00000000  0.00000000
   0.56250000  0.06250000  0.06250000
   0.49954284  0.00045716  0.99954284
   0.81250000  0.06250000  0.06250000
   0.75000000  0.00000000  0.00000000
   0.06250000  0.31250000  0.06250000
   0.00000000  0.25000000  0.00000000
   0.31250000  0.31250000  0.06250000
   0.25000000  0.25000000  0.00000000
   0.56250000  0.31250000  0.06250000
   0.50000000  0.25000000  0.00000000
   0.81250000  0.31250000  0.06250000
   0.75000000  0.25000000  0.00000000
   0.06250000  0.56250000  0.06250000
   0.00000000  0.50000000  0.00000000
   0.31250000  0.56250000  0.06250000
   0.25000000  0.50000000  0.00000000
   0.56250000  0.56250000  0.06250000
   0.50000000  0.50000000  0.00000000
   0.81250000  0.56250000  0.06250000
   0.75000000  0.50000000  0.00000000
   0.06250000  0.81250000  0.06250000
   0.00000000  0.75000000  0.00000000
   0.31250000  0.81250000  0.06250000
   0.25000000  0.75000000  0.00000000
   0.56250000  0.81250000  0.06250000
   0.50000000  0.75000000  0.00000000
   0.81250000  0.81250000  0.06250000
   0.75000000  0.75000000  0.00000000
   0.06250000  0.06250000  0.31250000
   0.00000000  0.00000000  0.25000000
   0.31250000  0.06250000  0.31250000
   0.25000000  0.00000000  0.25000000
   0.56250000  0.06250000  0.31250000
   0.50000000  0.00000000  0.25000000
   0.81250000  0.06250000  0.31250000
   0.75000000  0.00000000  0.25000000
   0.06250000  0.31250000  0.31250000
   0.00000000  0.25000000  0.25000000
   0.31250000  0.31250000  0.31250000
   0.25000000  0.25000000  0.25000000
   0.56250000  0.31250000  0.31250000
   0.50000000  0.25000000  0.25000000
   0.81250000  0.31250000  0.31250000
   0.75000000  0.25000000  0.25000000
   0.06250000  0.56250000  0.31250000
   0.00000000  0.50000000  0.25000000
   0.31250000  0.56250000  0.31250000
   0.25000000  0.50000000  0.25000000
   0.56250000  0.56250000  0.31250000
   0.50000000  0.50000000  0.25000000
   0.81250000  0.56250000  0.31250000
   0.75000000  0.50000000  0.25000000
   0.06250000  0.81250000  0.31250000
   0.00000000  0.75000000  0.25000000
   0.31250000  0.81250000  0.31250000
   0.25000000  0.75000000  0.25000000
   0.56250000  0.81250000  0.31250000
   0.50000000  0.75000000  0.25000000
   0.81250000  0.81250000  0.31250000
   0.75000000  0.75000000  0.25000000
   0.06250000  0.06250000  0.56250000
   0.00000000  0.00000000  0.50000000
   0.31250000  0.06250000  0.56250000
   0.25000000  0.00000000  0.50000000
   0.56250000  0.06250000  0.56250000
   0.50000000  0.00000000  0.50000000
   0.81250000  0.06250000  0.56250000
   0.75000000  0.00000000  0.50000000
   0.06250000  0.31250000  0.56250000
   0.00000000  0.25000000  0.50000000
   0.31250000  0.31250000  0.56250000
   0.25000000  0.25000000  0.50000000
   0.56250000  0.31250000  0.56250000
   0.50000000  0.25000000  0.50000000
   0.81250000  0.31250000  0.56250000
   0.75000000  0.25000000  0.50000000
   0.06250000  0.56250000  0.56250000
   0.00000000  0.50000000  0.50000000
   0.31250000  0.56250000  0.56250000
   0.25000000  0.50000000  0.50000000
   0.56250000  0.56250000  0.56250000
   0.50000000  0.50000000  0.50000000
   0.81250000  0.56250000  0.56250000
   0.75000000  0.50000000  0.50000000
   0.06250000  0.81250000  0.56250000
   0.00000000  0.75000000  0.50000000
   0.31250000  0.81250000  0.56250000
   0.25000000  0.75000000  0.50000000
   0.56250000  0.81250000  0.56250000
   0.50000000  0.75000000  0.50000000
   0.81250000  0.81250000  0.56250000
   0.75000000  0.75000000  0.50000000
   0.06250000  0.06250000  0.81250000
   0.00000000  0.00000000  0.75000000
   0.31250000  0.06250000  0.81250000
   0.25000000  0.00000000  0.75000000
   0.56250000  0.06250000  0.81250000
   0.50000000  0.00000000  0.75000000
   0.81250000  0.06250000  0.81250000
   0.75000000  0.00000000  0.75000000
   0.06250000  0.31250000  0.81250000
   0.00000000  0.25000000  0.75000000
   0.31250000  0.31250000  0.81250000
   0.25000000  0.25000000  0.75000000
   0.56250000  0.31250000  0.81250000
   0.50000000  0.25000000  0.75000000
   0.81250000  0.31250000  0.81250000
   0.75000000  0.25000000  0.75000000
   0.06250000  0.56250000  0.81250000
   0.00000000  0.50000000  0.75000000
   0.31250000  0.56250000  0.81250000
   0.25000000  0.50000000  0.75000000
   0.56250000  0.56250000  0.81250000
   0.50000000  0.50000000  0.75000000
   0.81250000  0.56250000  0.81250000
   0.75000000  0.50000000  0.75000000
   0.06250000  0.81250000  0.81250000
   0.00000000  0.75000000  0.75000000
   0.31250000  0.81250000  0.81250000
   0.25000000  0.75000000  0.75000000
   0.56250000  0.81250000  0.81250000
   0.50000000  0.75000000  0.75000000
   0.81250000  0.81250000  0.81250000
   0.75000000  0.75000000  0.75000000
 
 position of ions in cartesian coordinates  (Angst):
   1.36714509  1.36714509  1.35714509
   0.00000000  0.00000000  0.00000000
   1.36714509  4.10143526  4.10143526
   0.00000000  2.73429017  2.73429017
   1.36714509  6.83572544  6.83572544
  10.93716070 16.39574104  5.46858035
   1.36714509  9.57001561  9.57001561
   0.00000000  8.20287052  8.20287052
   4.10143526  1.36714509  4.10143526
   2.73429017  0.00000000  2.73429017
   4.10143526  4.10143526  6.83572544
   2.73429017  2.73429017  5.46858035
   4.10143526  6.83572544  9.57001561
   2.73429017  5.46858035  8.20287052
   4.10143526  9.57001561 12.30430578
   2.73429017  8.20287052 10.93716070
   6.83572544  1.36714509  6.83572544
   5.46858035  0.00000000  5.46858035
   6.83572544  4.10143526  9.57001561
   5.46858035  2.73429017  8.20287052
   6.83572544  6.83572544 12.30430578
   5.46858035  5.46858035 10.93716070
   6.83572544  9.57001561 15.03859596
   5.46858035  8.20287052 13.67145087
   9.57001561  1.36714509  9.57001561
   8.20287052  0.00000000  8.20287052
   9.57001561  4.10143526 12.30430578
   8.20287052  2.73429017 10.93716070
   9.57001561  6.83572544 15.03859596
   8.20287052  5.46858035 13.67145087
   9.57001561  9.57001561 17.77288613
   8.20287052  8.20287052 16.40574104
   4.10143526  4.10143526  1.36714509
   2.73429017  2.73429017  0.00000000
   4.10143526  6.83572544  4.10143526
   2.73429017  5.46858035  2.73429017
   4.10143526  9.57001561  6.83572544
   2.73429017  8.20287052  5.46858035
   4.10143526 12.30430578  9.57001561
   2.73429017 10.93716070  8.20287052
   6.83572544  4.10143526  4.10143526
   5.46858035  2.73429017  2.73429017
   6.83572544  6.83572544  6.83572544
   5.46858035  5.46858035  5.46858035
   6.83572544  9.57001561  9.57001561
   5.46858035  8.20287052  8.20287052
   6.83572544 12.30430578 12.30430578
   5.46858035 10.93716070 10.93716070
   9.57001561  4.10143526  6.83572544
   8.20287052  2.73429017  5.46858035
   9.57001561  6.83572544  9.57001561
   8.20287052  5.46858035  8.20287052
   9.57001561  9.57001561 12.30430578
   8.20287052  8.20287052 10.93716070
   9.57001561 12.30430578 15.03859596
   8.20287052 10.93716070 13.67145087
  12.30430578  4.10143526  9.57001561
  10.93716070  2.73429017  8.20287052
  12.30430578  6.83572544 12.30430578
  10.93716070  5.46858035 10.93716070
  12.30430578  9.57001561 15.03859596
  10.93716070  8.20287052 13.67145087
  12.30430578 12.30430578 17.77288613
  10.93716070 10.93716070 16.40574104
   6.83572544  6.83572544  1.36714509
   5.46858035  5.46858035  0.00000000
   6.83572544  9.57001561  4.10143526
   5.46858035  8.20287052  2.73429017
   6.83572544 12.30430578  6.83572544
   5.46858035 10.93716070  5.46858035
   6.83572544 15.03859596  9.57001561
   5.46858035 13.67145087  8.20287052
   9.57001561  6.83572544  4.10143526
   8.20287052  5.46858035  2.73429017
   9.57001561  9.57001561  6.83572544
   8.20287052  8.20287052  5.46858035
   9.57001561 12.30430578  9.57001561
   8.20287052 10.93716070  8.20287052
   9.57001561 15.03859596 12.30430578
   8.20287052 13.67145087 10.93716070
  12.30430578  6.83572544  6.83572544
  10.93716070  5.46858035  5.46858035
  12.30430578  9.57001561  9.57001561
  10.93716070  8.20287052  8.20287052
  12.30430578 12.30430578 12.30430578
  10.93716070 10.93716070 10.93716070
  12.30430578 15.03859596 15.03859596
  10.93716070 13.67145087 13.67145087
  15.03859596  6.83572544  9.57001561
  13.67145087  5.46858035  8.20287052
  15.03859596  9.57001561 12.30430578
  13.67145087  8.20287052 10.93716070
  15.03859596 12.30430578 15.03859596
  13.67145087 10.93716070 13.67145087
  15.03859596 15.03859596 17.77288613
  13.67145087 13.67145087 16.40574104
   9.57001561  9.57001561  1.36714509
   8.20287052  8.20287052  0.00000000
   9.57001561 12.30430578  4.10143526
   8.20287052 10.93716070  2.73429017
   9.57001561 15.03859596  6.83572544
   8.20287052 13.67145087  5.46858035
   9.57001561 17.77288613  9.57001561
   8.20287052 16.40574104  8.20287052
  12.30430578  9.57001561  4.10143526
  10.93716070  8.20287052  2.73429017
  12.30430578 12.30430578  6.83572544
  10.93716070 10.93716070  5.46858035
  12.30430578 15.03859596  9.57001561
  10.93716070 13.67145087  8.20287052
  12.30430578 17.77288613 12.30430578
  10.93716070 16.40574104 10.93716070
  15.03859596  9.57001561  6.83572544
  13.67145087  8.20287052  5.46858035
  15.03859596 12.30430578  9.57001561
  13.67145087 10.93716070  8.20287052
  15.03859596 15.03859596 12.30430578
  13.67145087 13.67145087 10.93716070
  15.03859596 17.77288613 15.03859596
  13.67145087 16.40574104 13.67145087
  17.77288613  9.57001561  9.57001561
  16.40574104  8.20287052  8.20287052
  17.77288613 12.30430578 12.30430578
  16.40574104 10.93716070 10.93716070
  17.77288613 15.03859596 15.03859596
  16.40574104 13.67145087 13.67145087
  17.77288613 17.77288613 17.77288613
  16.40574104 16.40574104 16.40574104
 


--------------------------------------------------------------------------------------------------------


 k-point  1 :   0.0000 0.0000 0.0000  plane waves:   66299

 maximum and minimum number of plane-waves per node :      3320     3310

 maximum number of plane-waves:     66299
 maximum index in each direction: 
   IXMAX=   28   IYMAX=   28   IZMAX=   28
   IXMIN=  -28   IYMIN=  -28   IZMIN=  -28


 parallel 3D FFT for wavefunctions:
    minimum data exchange during FFTs selected (reduces bandwidth)
 parallel 3D FFT for charge:
    minimum data exchange during FFTs selected (reduces bandwidth)


 total amount of memory used by VASP MPI-rank0   118934. kBytes
=======================================================================

   base      :      30000. kBytes
   nonl-proj :       7011. kBytes
   fftplans  :      53058. kBytes
   grid      :      20148. kBytes
   one-center:         21. kBytes
   wavefun   :       8696. kBytes
 
     INWAV:  cpu time    0.0000: real time    0.0000
 Broyden mixing: mesh for mixing (old mesh)
   NGX = 57   NGY = 57   NGZ = 57
  (NGX  =240   NGY  =240   NGZ  =240)
  gives a total of 185193 points

 initial charge density was supplied:
 charge density of overlapping atoms calculated
 number of electron     512.0000000 magnetization 
 keeping initial charge density in first step


--------------------------------------------------------------------------------------------------------


 Maximum index for augmentation-charges         4439 (set IRDMAX)


--------------------------------------------------------------------------------------------------------


 First call to EWALD:  gamma=   0.129
 Maximum number of real-space cells 3x 3x 3
 Maximum number of reciprocal cells 3x 3x 3

    FEWALD:  cpu time    0.0061: real time    0.0061


--------------------------------------- Iteration      1(   1)  ---------------------------------------


    POTLOK:  cpu time    0.2303: real time    0.2356
    SETDIJ:  cpu time    0.3028: real time    0.3037
     EDDAV:  cpu time    4.8140: real time    4.8292
       DOS:  cpu time    0.0005: real time    0.0005
    --------------------------------------------
      LOOP:  cpu time    5.3477: real time    5.3691

 eigenvalue-minimisations  :   644
 total energy-change (2. order) : 0.1374884E+04  (-0.1908717E+05)
 number of electron     512.0000000 magnetization 
 augmentation part      512.0000000 magnetization 

 Free energy of the ion-electron system (eV)
  ---------------------------------------------------
  alpha Z        PSCENC =       210.78028765
  Ewald energy   TEWEN  =    -14524.86538913
  -Hartree energ DENC   =      -724.62036057
  -exchange      EXHF   =         0.00000000
  -V(xc)+E(xc)   XCENC  =     -1195.83148089
  PAW double counting   =      4221.13331941    -1969.18571412
  entropy T*S    EENTRO =        -0.01567268
  eigenvalues    EBANDS =      2165.00849517
  atomic energy  EATOM  =     13192.48085998
  Solvation  Ediel_sol  =         0.00000000
  ---------------------------------------------------
  free energy    TOTEN  =      1374.88434483 eV

  energy without entropy =     1374.90001751  energy(sigma->0) =     1374.89218117


--------------------------------------------------------------------------------------------------------




--------------------------------------- Iteration      1(   2)  ---------------------------------------


     EDDAV:  cpu time    5.4613: real time    5.4769
       DOS:  cpu time    0.0005: real time    0.0005
    --------------------------------------------
      LOOP:  cpu time    5.4618: real time    5.4773

 eigenvalue-minimisations  :   758
 total energy-change (2. order) :-0.1911903E+04  (-0.1811824E+04)
 number of electron     512.0000000 magnetization 
 augmentation part      512.0000000 magnetization 

 Free energy of the ion-electron system (eV)
  ---------------------------------------------------
  alpha Z        PSCENC =       210.78028765
  Ewald energy   TEWEN  =    -14524.86538913
  -Hartree energ DENC   =      -724.62036057
  -exchange      EXHF   =         0.00000000
  -V(xc)+E(xc)   XCENC  =     -1195.83148089
  PAW double counting   =      4221.13331941    -1969.18571412
  entropy T*S    EENTRO =        -0.00000192
  eigenvalues    EBANDS =       253.08954377
  atomic energy  EATOM  =     13192.48085998
  Solvation  Ediel_sol  =         0.00000000
  ---------------------------------------------------
  free energy    TOTEN  =      -537.01893581 eV

  energy without entropy =     -537.01893389  energy(sigma->0) =     -537.01893485


--------------------------------------------------------------------------------------------------------




--------------------------------------- Iteration      1(   3)  ---------------------------------------


     EDDAV:  cpu time    5.4795: real time    5.4980
       DOS:  cpu time    0.0003: real time    0.0003
    --------------------------------------------
      LOOP:  cpu time    5.4799: real time    5.4983

 eigenvalue-minimisations  :   768
 total energy-change (2. order) :-0.1530049E+03  (-0.1483225E+03)
 number of electron     512.0000000 magnetization 
 augmentation part      512.0000000 magnetization 

 Free energy of the ion-electron system (eV)
  ---------------------------------------------------
  alpha Z        PSCENC =       210.78028765
  Ewald energy   TEWEN  =    -14524.86538913
  -Hartree energ DENC   =      -724.62036057
  -exchange      EXHF   =         0.00000000
  -V(xc)+E(xc)   XCENC  =     -1195.83148089
  PAW double counting   =      4221.13331941    -1969.18571412
  entropy T*S    EENTRO =        -0.00000000
  eigenvalues    EBANDS =       100.08468191
  atomic energy  EATOM  =     13192.48085998
  Solvation  Ediel_sol  =         0.00000000
  ---------------------------------------------------
  free energy    TOTEN  =      -690.02379575 eV

  energy without entropy =     -690.02379575  energy(sigma->0) =     -690.02379575


--------------------------------------------------------------------------------------------------------




--------------------------------------- Iteration      1(   4)  ---------------------------------------


     EDDAV:  cpu time    5.4053: real time    5.4215
       DOS:  cpu time    0.0003: real time    0.0003
    --------------------------------------------
      LOOP:  cpu time    5.4056: real time    5.4219

 eigenvalue-minimisations  :   752
 total energy-change (2. order) :-0.4509462E+01  (-0.4453736E+01)
 number of electron     512.0000000 magnetization 
 augmentation part      512.0000000 magnetization 

 Free energy of the ion-electron system (eV)
  ---------------------------------------------------
  alpha Z        PSCENC =       210.78028765
  Ewald energy   TEWEN  =    -14524.86538913
  -Hartree energ DENC   =      -724.62036057
  -exchange      EXHF   =         0.00000000
  -V(xc)+E(xc)   XCENC  =     -1195.83148089
  PAW double counting   =      4221.13331941    -1969.18571412
  entropy T*S    EENTRO =        -0.00000000
  eigenvalues    EBANDS =        95.57521973
  atomic energy  EATOM  =     13192.48085998
  Solvation  Ediel_sol  =         0.00000000
  ---------------------------------------------------
  free energy    TOTEN  =      -694.53325793 eV

  energy without entropy =     -694.53325793  energy(sigma->0) =     -694.53325793


--------------------------------------------------------------------------------------------------------




--------------------------------------- Iteration      1(   5)  ---------------------------------------


     EDDAV:  cpu time    5.4020: real time    5.4155
       DOS:  cpu time    0.0005: real time    0.0005
    CHARGE:  cpu time    0.5134: real time    0.5146
    MIXING:  cpu time    0.0113: real time    0.0115
    --------------------------------------------
      LOOP:  cpu time    5.9272: real time    5.9421

 eigenvalue-minimisations  :   744
 total energy-change (2. order) :-0.1654916E+00  (-0.1647425E+00)
 number of electron     511.9999999 magnetization 
 augmentation part      -29.7895760 magnetization 

 Broyden mixing:
  rms(total) = 0.24757E+01    rms(broyden)= 0.24757E+01
  rms(prec ) = 0.29957E+01
  weight for this iteration     100.00

 Free energy of the ion-electron system (eV)
  ---------------------------------------------------
  alpha Z        PSCENC =       210.78028765
  Ewald energy   TEWEN  =    -14524.86538913
  -Hartree energ DENC   =      -724.62036057
  -exchange      EXHF   =         0.00000000
  -V(xc)+E(xc)   XCENC  =     -1195.83148089
  PAW double counting   =      4221.13331941    -1969.18571412
  entropy T*S    EENTRO =        -0.00000000
  eigenvalues    EBANDS =        95.40972815
  atomic energy  EATOM  =     13192.48085998
  Solvation  Ediel_sol  =         0.00000000
  ---------------------------------------------------
  free energy    TOTEN  =      -694.69874951 eV

  energy without entropy =     -694.69874951  energy(sigma->0) =     -694.69874951


--------------------------------------------------------------------------------------------------------




--------------------------------------- Iteration      1(   6)  ---------------------------------------


    POTLOK:  cpu time    0.2242: real time    0.2261
    SETDIJ:  cpu time    0.2817: real time    0.2824
     EDDAV:  cpu time    5.0550: real time    5.0672
       DOS:  cpu time    0.0004: real time    0.0004
    CHARGE:  cpu time    0.4975: real time    0.4987
    MIXING:  cpu time    0.0097: real time    0.0098
    --------------------------------------------
      LOOP:  cpu time    6.0685: real time    6.0845

 eigenvalue-minimisations  :   688
 total energy-change (2. order) : 0.8398864E+01  (-0.4784114E+00)
 number of electron     511.9999999 magnetization 
 augmentation part      -29.4083767 magnetization 

 Broyden mixing:
  rms(total) = 0.14788E+01    rms(broyden)= 0.14788E+01
  rms(prec ) = 0.17864E+01
  weight for this iteration     100.00

 eigenvalues of (default mixing * dielectric matrix)
  average eigenvalue GAMMA=   2.4618
  2.4618

 Free energy of the ion-electron system (eV)
  ---------------------------------------------------
  alpha Z        PSCENC =       210.78028765
  Ewald energy   TEWEN  =    -14524.86538913
  -Hartree energ DENC   =      -824.84904548
  -exchange      EXHF   =         0.00000000
  -V(xc)+E(xc)   XCENC  =     -1180.31915322
  PAW double counting   =      4464.76557149    -2219.65253465
  entropy T*S    EENTRO =        -0.00000000
  eigenvalues    EBANDS =       195.35951753
  atomic energy  EATOM  =     13192.48085998
  Solvation  Ediel_sol  =         0.00000000
  ---------------------------------------------------
  free energy    TOTEN  =      -686.29988582 eV

  energy without entropy =     -686.29988582  energy(sigma->0) =     -686.29988582


--------------------------------------------------------------------------------------------------------




--------------------------------------- Iteration      1(   7)  ---------------------------------------


    POTLOK:  cpu time    0.2238: real time    0.2244
    SETDIJ:  cpu time    0.2803: real time    0.2810
     EDDAV:  cpu time    4.9096: real time    4.9213
       DOS:  cpu time    0.0004: real time    0.0004
    CHARGE:  cpu time    0.4987: real time    0.4999
    MIXING:  cpu time    0.0109: real time    0.0109
    --------------------------------------------
      LOOP:  cpu time    5.9238: real time    5.9380

 eigenvalue-minimisations  :   664
 total energy-change (2. order) : 0.3872889E+01  (-0.9699164E+00)
 number of electron     511.9999999 magnetization 
 augmentation part      -28.9141043 magnetization 

 Broyden mixing:
  rms(total) = 0.13039E+00    rms(broyden)= 0.13039E+00
  rms(prec ) = 0.15182E+00
  weight for this iteration     100.00

 eigenvalues of (default mixing * dielectric matrix)
  average eigenvalue GAMMA=   2.4930
  2.4930  2.4930

 Free energy of the ion-electron system (eV)
  ---------------------------------------------------
  alpha Z        PSCENC =       210.78028765
  Ewald energy   TEWEN  =    -14524.86538913
  -Hartree energ DENC   =      -991.88375825
  -exchange      EXHF   =         0.00000000
  -V(xc)+E(xc)   XCENC  =     -1153.93881232
  PAW double counting   =      4789.67062058    -2553.36919214
  entropy T*S    EENTRO =        -0.00000000
  eigenvalues    EBANDS =       348.69838663
  atomic energy  EATOM  =     13192.48085998
  Solvation  Ediel_sol  =         0.00000000
  ---------------------------------------------------
  free energy    TOTEN  =      -682.42699699 eV

  energy without entropy =     -682.42699699  energy(sigma->0) =     -682.42699699


--------------------------------------------------------------------------------------------------------




--------------------------------------- Iteration      1(   8)  ---------------------------------------


    POTLOK:  cpu time    0.2231: real time    0.2238
    SETDIJ:  cpu time    0.2802: real time    0.2808
     EDDAV:  cpu time    5.0470: real time    5.0590
       DOS:  cpu time    0.0004: real time    0.0004
    CHARGE:  cpu time    0.5053: real time    0.5066
    MIXING:  cpu time    0.0131: real time    0.0131
    --------------------------------------------
      LOOP:  cpu time    6.0691: real time    6.0837

 eigenvalue-minimisations  :   688
 total energy-change (2. order) :-0.1320628E+00  (-0.4946873E-01)
 number of electron     511.9999999 magnetization 
 augmentation part      -28.9853266 magnetization 

 Broyden mixing:
  rms(total) = 0.28117E-01    rms(broyden)= 0.28117E-01
  rms(prec ) = 0.37984E-01
  weight for this iteration     100.00

 eigenvalues of (default mixing * dielectric matrix)
  average eigenvalue GAMMA=   2.1010
  1.4519  2.7604  2.0906

 Free energy of the ion-electron system (eV)
  ---------------------------------------------------
  alpha Z        PSCENC =       210.78028765
  Ewald energy   TEWEN  =    -14524.86538913
  -Hartree energ DENC   =      -986.33153401
  -exchange      EXHF   =         0.00000000
  -V(xc)+E(xc)   XCENC  =     -1153.99550864
  PAW double counting   =      4718.75066582    -2480.23210542
  entropy T*S    EENTRO =        -0.00000000
  eigenvalues    EBANDS =       340.85366395
  atomic energy  EATOM  =     13192.48085998
  Solvation  Ediel_sol  =         0.00000000
  ---------------------------------------------------
  free energy    TOTEN  =      -682.55905980 eV

  energy without entropy =     -682.55905980  energy(sigma->0) =     -682.55905980


--------------------------------------------------------------------------------------------------------




--------------------------------------- Iteration      1(   9)  ---------------------------------------


    POTLOK:  cpu time    0.2269: real time    0.2311
    SETDIJ:  cpu time    0.2838: real time    0.2846
     EDDAV:  cpu time    5.5497: real time    5.5632
       DOS:  cpu time    0.0004: real time    0.0004
    CHARGE:  cpu time    0.5006: real time    0.5019
    MIXING:  cpu time    0.0109: real time    0.0109
    --------------------------------------------
      LOOP:  cpu time    6.5724: real time    6.5921

 eigenvalue-minimisations  :   768
 total energy-change (2. order) :-0.6440643E-02  (-0.2455960E-02)
 number of electron     511.9999999 magnetization 
 augmentation part      -28.9800542 magnetization 

 Broyden mixing:
  rms(total) = 0.15922E-01    rms(broyden)= 0.15922E-01
  rms(prec ) = 0.18145E-01
  weight for this iteration     100.00

 eigenvalues of (default mixing * dielectric matrix)
  average eigenvalue GAMMA=   2.2876
  1.0207  3.3891  2.7010  2.0396

 Free energy of the ion-electron system (eV)
  ---------------------------------------------------
  alpha Z        PSCENC =       210.78028765
  Ewald energy   TEWEN  =    -14524.86538913
  -Hartree energ DENC   =      -991.21380400
  -exchange      EXHF   =         0.00000000
  -V(xc)+E(xc)   XCENC  =     -1153.27698826
  PAW double counting   =      4725.24099546    -2486.95992625
  entropy T*S    EENTRO =        -0.00000000
  eigenvalues    EBANDS =       345.24846409
  atomic energy  EATOM  =     13192.48085998
  Solvation  Ediel_sol  =         0.00000000
  ---------------------------------------------------
  free energy    TOTEN  =      -682.56550044 eV

  energy without entropy =     -682.56550044  energy(sigma->0) =     -682.56550044


--------------------------------------------------------------------------------------------------------




--------------------------------------- Iteration      1(  10)  ---------------------------------------


    POTLOK:  cpu time    0.2240: real time    0.2265
    SETDIJ:  cpu time    0.2804: real time    0.2811
     EDDAV:  cpu time    4.9976: real time    5.0097
       DOS:  cpu time    0.0004: real time    0.0004
    CHARGE:  cpu time    0.4992: real time    0.5004
    MIXING:  cpu time    0.0104: real time    0.0104
    --------------------------------------------
      LOOP:  cpu time    6.0121: real time    6.0285

 eigenvalue-minimisations  :   680
 total energy-change (2. order) :-0.2684278E-02  (-0.5904229E-03)
 number of electron     511.9999999 magnetization 
 augmentation part      -28.9811174 magnetization 

 Broyden mixing:
  rms(total) = 0.47957E-02    rms(broyden)= 0.47957E-02
  rms(prec ) = 0.57457E-02
  weight for this iteration     100.00

 eigenvalues of (default mixing * dielectric matrix)
  average eigenvalue GAMMA=   1.9834
  3.2364  2.6101  2.1609  1.0586  0.8511

 Free energy of the ion-electron system (eV)
  ---------------------------------------------------
  alpha Z        PSCENC =       210.78028765
  Ewald energy   TEWEN  =    -14524.86538913
  -Hartree energ DENC   =      -991.21936451
  -exchange      EXHF   =         0.00000000
  -V(xc)+E(xc)   XCENC  =     -1153.35174889
  PAW double counting   =      4721.46412758    -2483.16469184
  entropy T*S    EENTRO =        -0.00000000
  eigenvalues    EBANDS =       345.30773444
  atomic energy  EATOM  =     13192.48085998
  Solvation  Ediel_sol  =         0.00000000
  ---------------------------------------------------
  free energy    TOTEN  =      -682.56818472 eV

  energy without entropy =     -682.56818472  energy(sigma->0) =     -682.56818472


--------------------------------------------------------------------------------------------------------




--------------------------------------- Iteration      1(  11)  ---------------------------------------


    POTLOK:  cpu time    0.2237: real time    0.2255
    SETDIJ:  cpu time    0.2814: real time    0.2820
     EDDAV:  cpu time    5.4482: real time    5.4613
       DOS:  cpu time    0.0004: real time    0.0004
    CHARGE:  cpu time    0.5021: real time    0.5032
    MIXING:  cpu time    0.0113: real time    0.0113
    --------------------------------------------
      LOOP:  cpu time    6.4670: real time    6.4837

 eigenvalue-minimisations  :   752
 total energy-change (2. order) :-0.1345049E-04  (-0.2023834E-04)
 number of electron     511.9999999 magnetization 
 augmentation part      -28.9796130 magnetization 

 Broyden mixing:
  rms(total) = 0.49353E-03    rms(broyden)= 0.49344E-03
  rms(prec ) = 0.56588E-03
  weight for this iteration     100.00

 eigenvalues of (default mixing * dielectric matrix)
  average eigenvalue GAMMA=   2.0339
  3.3660  2.6900  2.2010  1.9811  0.9825  0.9825

 Free energy of the ion-electron system (eV)
  ---------------------------------------------------
  alpha Z        PSCENC =       210.78028765
  Ewald energy   TEWEN  =    -14524.86538913
  -Hartree energ DENC   =      -991.69524115
  -exchange      EXHF   =         0.00000000
  -V(xc)+E(xc)   XCENC  =     -1153.28773147
  PAW double counting   =      4723.32465706    -2485.07039511
  entropy T*S    EENTRO =        -0.00000000
  eigenvalues    EBANDS =       345.76475400
  atomic energy  EATOM  =     13192.48085998
  Solvation  Ediel_sol  =         0.00000000
  ---------------------------------------------------
  free energy    TOTEN  =      -682.56819817 eV

  energy without entropy =     -682.56819817  energy(sigma->0) =     -682.56819817


--------------------------------------------------------------------------------------------------------




--------------------------------------- Iteration      1(  12)  ---------------------------------------


    POTLOK:  cpu time    0.2237: real time    0.2244
    SETDIJ:  cpu time    0.2798: real time    0.2805
     EDDAV:  cpu time    5.4864: real time    5.4995
       DOS:  cpu time    0.0004: real time    0.0004
    CHARGE:  cpu time    0.5015: real time    0.5027
    MIXING:  cpu time    0.0118: real time    0.0118
    --------------------------------------------
      LOOP:  cpu time    6.5037: real time    6.5192

 eigenvalue-minimisations  :   768
 total energy-change (2. order) :-0.4496034E-05  (-0.1294467E-05)
 number of electron     511.9999999 magnetization 
 augmentation part      -28.9793458 magnetization 

 Broyden mixing:
  rms(total) = 0.22310E-03    rms(broyden)= 0.22289E-03
  rms(prec ) = 0.25386E-03
  weight for this iteration     100.00

 eigenvalues of (default mixing * dielectric matrix)
  average eigenvalue GAMMA=   1.9212
  3.3088  2.6908  2.2537  2.2537  1.0243  1.0243  0.8928

 Free energy of the ion-electron system (eV)
  ---------------------------------------------------
  alpha Z        PSCENC =       210.78028765
  Ewald energy   TEWEN  =    -14524.86538913
  -Hartree energ DENC   =      -991.73921774
  -exchange      EXHF   =         0.00000000
  -V(xc)+E(xc)   XCENC  =     -1153.28650248
  PAW double counting   =      4723.43696397    -2485.17896539
  entropy T*S    EENTRO =        -0.00000000
  eigenvalues    EBANDS =       345.80376047
  atomic energy  EATOM  =     13192.48085998
  Solvation  Ediel_sol  =         0.00000000
  ---------------------------------------------------
  free energy    TOTEN  =      -682.56820267 eV

  energy without entropy =     -682.56820267  energy(sigma->0) =     -682.56820267


--------------------------------------------------------------------------------------------------------




--------------------------------------- Iteration      1(  13)  ---------------------------------------


    POTLOK:  cpu time    0.2226: real time    0.2232
    SETDIJ:  cpu time    0.2811: real time    0.2818
     EDDAV:  cpu time    5.3537: real time    5.3665
       DOS:  cpu time    0.0004: real time    0.0004
    CHARGE:  cpu time    0.5022: real time    0.5033
    MIXING:  cpu time    0.0123: real time    0.0123
    --------------------------------------------
      LOOP:  cpu time    6.3722: real time    6.3875

 eigenvalue-minimisations  :   744
 total energy-change (2. order) : 0.3857380E-05  (-0.5550393E-07)
 number of electron     511.9999999 magnetization 
 augmentation part      -28.9794671 magnetization 

 Broyden mixing:
  rms(total) = 0.71368E-04    rms(broyden)= 0.70722E-04
  rms(prec ) = 0.83207E-04
  weight for this iteration     100.00

 eigenvalues of (default mixing * dielectric matrix)
  average eigenvalue GAMMA=   1.8720
  3.3093  2.7002  2.4797  2.1370  0.9620  0.9620  1.2128  1.2128

 Free energy of the ion-electron system (eV)
  ---------------------------------------------------
  alpha Z        PSCENC =       210.78028765
  Ewald energy   TEWEN  =    -14524.86538913
  -Hartree energ DENC   =      -991.72970105
  -exchange      EXHF   =         0.00000000
  -V(xc)+E(xc)   XCENC  =     -1153.28657806
  PAW double counting   =      4723.39853033    -2485.13707414
  entropy T*S    EENTRO =        -0.00000000
  eigenvalues    EBANDS =       345.79086560
  atomic energy  EATOM  =     13192.48085998
  Solvation  Ediel_sol  =         0.00000000
  ---------------------------------------------------
  free energy    TOTEN  =      -682.56819881 eV

  energy without entropy =     -682.56819881  energy(sigma->0) =     -682.56819881


--------------------------------------------------------------------------------------------------------




--------------------------------------- Iteration      1(  14)  ---------------------------------------


    POTLOK:  cpu time    0.2223: real time    0.2230
    SETDIJ:  cpu time    0.2802: real time    0.2809
     EDDAV:  cpu time    5.2641: real time    5.2767
       DOS:  cpu time    0.0004: real time    0.0004
    CHARGE:  cpu time    0.5041: real time    0.5053
    MIXING:  cpu time    0.0120: real time    0.0120
    --------------------------------------------
      LOOP:  cpu time    6.2832: real time    6.2982

 eigenvalue-minimisations  :   720
 total energy-change (2. order) :-0.5935162E-06  (-0.1114270E-07)
 number of electron     511.9999999 magnetization 
 augmentation part      -28.9794381 magnetization 

 Broyden mixing:
  rms(total) = 0.38098E-04    rms(broyden)= 0.36874E-04
  rms(prec ) = 0.47967E-04
  weight for this iteration     100.00

 eigenvalues of (default mixing * dielectric matrix)
  average eigenvalue GAMMA=   1.8137
  3.2916  2.7274  2.4327  2.2610  1.3204  1.3204  0.9337  1.0179  1.0179

 Free energy of the ion-electron system (eV)
  ---------------------------------------------------
  alpha Z        PSCENC =       210.78028765
  Ewald energy   TEWEN  =    -14524.86538913
  -Hartree energ DENC   =      -991.73861814
  -exchange      EXHF   =         0.00000000
  -V(xc)+E(xc)   XCENC  =     -1153.28546752
  PAW double counting   =      4723.42922899    -2485.16794624
  entropy T*S    EENTRO =        -0.00000000
  eigenvalues    EBANDS =       345.79884500
  atomic energy  EATOM  =     13192.48085998
  Solvation  Ediel_sol  =         0.00000000
  ---------------------------------------------------
  free energy    TOTEN  =      -682.56819941 eV

  energy without entropy =     -682.56819941  energy(sigma->0) =     -682.56819941


--------------------------------------------------------------------------------------------------------




--------------------------------------- Iteration      1(  15)  ---------------------------------------


    POTLOK:  cpu time    0.2229: real time    0.2243
    SETDIJ:  cpu time    0.2817: real time    0.2823
     EDDAV:  cpu time    3.8040: real time    3.8133
       DOS:  cpu time    0.0004: real time    0.0004
    CHARGE:  cpu time    0.5042: real time    0.5054
    MIXING:  cpu time    0.0122: real time    0.0122
    --------------------------------------------
      LOOP:  cpu time    4.8254: real time    4.8379

 eigenvalue-minimisations  :   456
 total energy-change (2. order) : 0.1036033E-05  (-0.2754422E-08)
 number of electron     511.9999999 magnetization 
 augmentation part      -28.9794661 magnetization 

 Broyden mixing:
  rms(total) = 0.11681E-04    rms(broyden)= 0.66864E-05
  rms(prec ) = 0.73570E-05
  weight for this iteration     100.00
  WARNING: grid for Broyden might be to small

 eigenvalues of (default mixing * dielectric matrix)
  average eigenvalue GAMMA=   1.8258
  3.2982  2.6627  2.5903  2.1093  2.1093  0.9419  0.9856  1.0305  1.2649  1.2649

 Free energy of the ion-electron system (eV)
  ---------------------------------------------------
  alpha Z        PSCENC =       210.78028765
  Ewald energy   TEWEN  =    -14524.86538913
  -Hartree energ DENC   =      -991.73292769
  -exchange      EXHF   =         0.00000000
  -V(xc)+E(xc)   XCENC  =     -1153.28602508
  PAW double counting   =      4723.40758793    -2485.14556490
  entropy T*S    EENTRO =        -0.00000000
  eigenvalues    EBANDS =       345.79297286
  atomic energy  EATOM  =     13192.48085998
  Solvation  Ediel_sol  =         0.00000000
  ---------------------------------------------------
  free energy    TOTEN  =      -682.56819837 eV

  energy without entropy =     -682.56819837  energy(sigma->0) =     -682.56819837


--------------------------------------------------------------------------------------------------------




--------------------------------------- Iteration      1(  16)  ---------------------------------------


    POTLOK:  cpu time    0.2249: real time    0.2270
    SETDIJ:  cpu time    0.2793: real time    0.2800
     EDDAV:  cpu time    3.3592: real time    3.3673
       DOS:  cpu time    0.0004: real time    0.0004
    CHARGE:  cpu time    0.5015: real time    0.5027
    MIXING:  cpu time    0.0127: real time    0.0128
    --------------------------------------------
      LOOP:  cpu time    4.3780: real time    4.3901

 eigenvalue-minimisations  :   376
 total energy-change (2. order) :-0.7643939E-07  (-0.2111460E-09)
 number of electron     511.9999999 magnetization 
 augmentation part      -28.9794685 magnetization 

 Broyden mixing:
  rms(total) = 0.99735E-05    rms(broyden)= 0.27806E-05
  rms(prec ) = 0.34195E-05
  weight for this iteration     100.00
  WARNING: grid for Broyden might be to small

 eigenvalues of (default mixing * dielectric matrix)
  average eigenvalue GAMMA=   1.7846
  3.2815  2.7565  2.5571  2.2397  2.2397  1.3126  1.3126  1.1254  0.9857  0.9251
  0.8944

 Free energy of the ion-electron system (eV)
  ---------------------------------------------------
  alpha Z        PSCENC =       210.78028765
  Ewald energy   TEWEN  =    -14524.86538913
  -Hartree energ DENC   =      -991.73328701
  -exchange      EXHF   =         0.00000000
  -V(xc)+E(xc)   XCENC  =     -1153.28594895
  PAW double counting   =      4723.40814742    -2485.14624315
  entropy T*S    EENTRO =        -0.00000000
  eigenvalues    EBANDS =       345.79337475
  atomic energy  EATOM  =     13192.48085998
  Solvation  Ediel_sol  =         0.00000000
  ---------------------------------------------------
  free energy    TOTEN  =      -682.56819845 eV

  energy without entropy =     -682.56819845  energy(sigma->0) =     -682.56819845


--------------------------------------------------------------------------------------------------------




--------------------------------------- Iteration      1(  17)  ---------------------------------------


    POTLOK:  cpu time    0.2224: real time    0.2231
    SETDIJ:  cpu time    0.2822: real time    0.2829
     EDDAV:  cpu time    3.3576: real time    3.3657
       DOS:  cpu time    0.0004: real time    0.0004
    CHARGE:  cpu time    0.5009: real time    0.5020
    MIXING:  cpu time    0.0122: real time    0.0122
    --------------------------------------------
      LOOP:  cpu time    4.3756: real time    4.3863

 eigenvalue-minimisations  :   376
 total energy-change (2. order) :-0.3522655E-07  (-0.3219314E-10)
 number of electron     511.9999999 magnetization 
 augmentation part      -28.9794697 magnetization 

 Broyden mixing:
  rms(total) = 0.96586E-05    rms(broyden)= 0.12450E-05
  rms(prec ) = 0.15169E-05
  weight for this iteration     100.00
  WARNING: grid for Broyden might be to small

 eigenvalues of (default mixing * dielectric matrix)
  average eigenvalue GAMMA=   1.7748
  3.2928  2.6980  2.5961  2.1053  2.0282  2.0282  1.2381  1.2381  0.9339  0.9730
  1.0832  1.0832

 Free energy of the ion-electron system (eV)
  ---------------------------------------------------
  alpha Z        PSCENC =       210.78028765
  Ewald energy   TEWEN  =    -14524.86538913
  -Hartree energ DENC   =      -991.73312141
  -exchange      EXHF   =         0.00000000
  -V(xc)+E(xc)   XCENC  =     -1153.28597584
  PAW double counting   =      4723.40845045    -2485.14658243
  entropy T*S    EENTRO =        -0.00000000
  eigenvalues    EBANDS =       345.79327225
  atomic energy  EATOM  =     13192.48085998
  Solvation  Ediel_sol  =         0.00000000
  ---------------------------------------------------
  free energy    TOTEN  =      -682.56819848 eV

  energy without entropy =     -682.56819848  energy(sigma->0) =     -682.56819848


--------------------------------------------------------------------------------------------------------




--------------------------------------- Iteration      1(  18)  ---------------------------------------


    POTLOK:  cpu time    0.2226: real time    0.2233
    SETDIJ:  cpu time    0.2803: real time    0.2809
     EDDAV:  cpu time    3.2728: real time    3.2806
       DOS:  cpu time    0.0004: real time    0.0004
    CHARGE:  cpu time    0.5007: real time    0.5019
    MIXING:  cpu time    0.0130: real time    0.0130
    --------------------------------------------
      LOOP:  cpu time    4.2898: real time    4.3001

 eigenvalue-minimisations  :   360
 total energy-change (2. order) : 0.1459193E-07  (-0.8827217E-11)
 number of electron     511.9999999 magnetization 
 augmentation part      -28.9794700 magnetization 

 Broyden mixing:
  rms(total) = 0.95991E-05    rms(broyden)= 0.63465E-06
  rms(prec ) = 0.77984E-06
  weight for this iteration     100.00
  WARNING: grid for Broyden might be to small

 eigenvalues of (default mixing * dielectric matrix)
  average eigenvalue GAMMA=   1.7888
  3.2970  2.6944  2.6944  2.3909  2.3909  2.1701  1.2922  1.2922  1.1343  1.0927
  1.0093  0.9338  0.8625

 Free energy of the ion-electron system (eV)
  ---------------------------------------------------
  alpha Z        PSCENC =       210.78028765
  Ewald energy   TEWEN  =    -14524.86538913
  -Hartree energ DENC   =      -991.73311180
  -exchange      EXHF   =         0.00000000
  -V(xc)+E(xc)   XCENC  =     -1153.28597906
  PAW double counting   =      4723.40796124    -2485.14608742
  entropy T*S    EENTRO =        -0.00000000
  eigenvalues    EBANDS =       345.79326008
  atomic energy  EATOM  =     13192.48085998
  Solvation  Ediel_sol  =         0.00000000
  ---------------------------------------------------
  free energy    TOTEN  =      -682.56819847 eV

  energy without entropy =     -682.56819847  energy(sigma->0) =     -682.56819847


--------------------------------------------------------------------------------------------------------




--------------------------------------- Iteration      1(  19)  ---------------------------------------


    POTLOK:  cpu time    0.2226: real time    0.2234
    SETDIJ:  cpu time    0.2806: real time    0.2813
     EDDAV:  cpu time    3.2506: real time    3.2583
       DOS:  cpu time    0.0003: real time    0.0003
    --------------------------------------------
      LOOP:  cpu time    3.7541: real time    3.7633

 eigenvalue-minimisations  :   352
 total energy-change (2. order) : 0.6963091E-08  (-0.1582678E-11)
 number of electron     511.9999999 magnetization 
 augmentation part      -28.9794700 magnetization 

 Free energy of the ion-electron system (eV)
  ---------------------------------------------------
  alpha Z        PSCENC =       210.78028765
  Ewald energy   TEWEN  =    -14524.86538913
  -Hartree energ DENC   =      -991.73306724
  -exchange      EXHF   =         0.00000000
  -V(xc)+E(xc)   XCENC  =     -1153.28598668
  PAW double counting   =      4723.40772195    -2485.14584869
  entropy T*S    EENTRO =        -0.00000000
  eigenvalues    EBANDS =       345.79322369
  atomic energy  EATOM  =     13192.48085998
  Solvation  Ediel_sol  =         0.00000000
  ---------------------------------------------------
  free energy    TOTEN  =      -682.56819846 eV

  energy without entropy =     -682.56819846  energy(sigma->0) =     -682.56819846


--------------------------------------------------------------------------------------------------------




 average (electrostatic) potential at core
  the test charge radii are     0.9892
  (the norm of the test charge is              1.0000)
       1 -83.4137       2 -83.4136       3 -83.4137       4 -83.4138       5 -83.4139
       6 -83.4138       7 -83.4137       8 -83.4137       9 -83.4137      10 -83.4138
      11 -83.4133      12 -83.4133      13 -83.4120      14 -83.4113      15 -83.4113
      16 -83.4131      17 -83.4135      18 -83.4138      19 -83.4132      20 -83.4133
      21 -83.4110      22 -83.4123      23 -83.4135      24 -83.4119      25 -83.4134
      26 -83.4134      27 -83.4112      28 -83.4132      29 -83.4136      30 -83.4100
      31 -83.4133      32 -83.4136      33 -83.4175      34 -83.4139      35 -83.4142
      36 -83.4162      37 -83.4140      38 -83.4140      39 -83.4138      40 -83.4142
      41 -83.4140      42 -83.4143      43 -83.4137      44 -83.4138      45 -83.4133
      46 -83.4134      47 -83.4139      48 -83.4134      49 -83.4139      50 -83.4139
      51 -83.4134      52 -83.4136      53 -83.4137      54 -83.4131      55 -83.4137
      56 -83.4138      57 -83.4137      58 -83.4140      59 -83.4140      60 -83.4134
      61 -83.4134      62 -83.4138      63 -83.4138      64 -83.4136      65 -83.4151
      66 -83.4164      67 -83.4141      68 -83.4142      69 -83.4136      70 -83.4139
      71 -83.4156      72 -83.4139      73 -83.4140      74 -83.4141      75 -83.4136
      76 -83.4138      77 -83.4136      78 -83.4134      79 -83.4139      80 -83.4141
      81 -83.4137      82 -83.4139      83 -83.4139      84 -83.4136      85 -83.4135
      86 -83.4137      87 -83.4137      88 -83.4137      89 -83.4143      90 -83.4137
      91 -83.4139      92 -83.4140      93 -83.4136      94 -83.4136      95 -83.4137
      96 -83.4137      97 -83.4161      98 -83.4155      99 -83.4141     100 -83.4142
     101 -83.4137     102 -83.4137     103 -83.4143     104 -83.4162     105 -83.4138
     106 -83.4140     107 -83.4139     108 -83.4135     109 -83.4134     110 -83.4136
     111 -83.4137     112 -83.4138     113 -83.4140     114 -83.4138     115 -83.4137
     116 -83.4139     117 -83.4134     118 -83.4135     119 -83.4133     120 -83.4136
     121 -83.4141     122 -83.4141     123 -83.4137     124 -83.4138     125 -83.4131
     126 -83.4134     127 -83.4140     128 -83.4135
 
 
 
 E-fermi :   5.9198     XC(G=0):  -9.3007     alpha+bet :-11.7327


 k-point     1 :       0.0000    0.0000    0.0000
  band No.  band energies     occupation 
      1      -6.1630      2.00000
      2      -5.3788      2.00000
      3      -5.3781      2.00000
      4      -5.3778      2.00000
      5      -5.3775      2.00000
      6      -5.3775      2.00000
      7      -5.3771      2.00000
      8      -5.3768      2.00000
      9      -5.3762      2.00000
     10      -5.1005      2.00000
     11      -5.1002      2.00000
     12      -5.0999      2.00000
     13      -5.0994      2.00000
     14      -5.0990      2.00000
     15      -5.0987      2.00000
     16      -4.1595      2.00000
     17      -4.1582      2.00000
     18      -4.1575      2.00000
     19      -4.1574      2.00000
     20      -4.1571      2.00000
     21      -4.1570      2.00000
     22      -4.1570      2.00000
     23      -4.1568      2.00000
     24      -4.1565      2.00000
     25      -4.1564      2.00000
     26      -4.1557      2.00000
     27      -4.1545      2.00000
     28      -3.8820      2.00000
     29      -3.8816      2.00000
     30      -3.8807      2.00000
     31      -3.8804      2.00000
     32      -3.5005      2.00000
     33      -3.5000      2.00000
     34      -3.4978      2.00000
     35      -3.4974      2.00000
     36      -3.4968      2.00000
     37      -3.4966      2.00000
     38      -3.4965      2.00000
     39      -3.4964      2.00000
     40      -3.4964      2.00000
     41      -3.4963      2.00000
     42      -3.4963      2.00000
     43      -3.4962      2.00000
     44      -3.4962      2.00000
     45      -3.4962      2.00000
     46      -3.4961      2.00000
     47      -3.4961      2.00000
     48      -3.4960      2.00000
     49      -3.4959      2.00000
     50      -3.4958      2.00000
     51      -3.4957      2.00000
     52      -3.4951      2.00000
     53      -3.4946      2.00000
     54      -3.4925      2.00000
     55      -3.4919      2.00000
     56      -2.0920      2.00000
     57      -2.0916      2.00000
     58      -2.0914      2.00000
     59      -2.0905      2.00000
     60      -2.0903      2.00000
     61      -2.0899      2.00000
     62      -1.9374      2.00000
     63      -1.9374      2.00000
     64      -1.9362      2.00000
     65      -1.9361      2.00000
     66      -1.9356      2.00000
     67      -1.9355      2.00000
     68      -1.9353      2.00000
     69      -1.9352      2.00000
     70      -1.9347      2.00000
     71      -1.9346      2.00000
     72      -1.9333      2.00000
     73      -1.9333      2.00000
     74      -1.2193      2.00000
     75      -1.2186      2.00000
     76      -1.2183      2.00000
     77      -1.2175      2.00000
     78      -0.6725      2.00000
     79      -0.6720      2.00000
     80      -0.6709      2.00000
     81      -0.6706      2.00000
     82      -0.6691      2.00000
     83      -0.6690      2.00000
     84      -0.6689      2.00000
     85      -0.6689      2.00000
     86      -0.6688      2.00000
     87      -0.6687      2.00000
     88      -0.6687      2.00000
     89      -0.6686      2.00000
     90      -0.6686      2.00000
     91      -0.6685      2.00000
     92      -0.6685      2.00000
     93      -0.6685      2.00000
     94      -0.6684      2.00000
     95      -0.6684      2.00000
     96      -0.6682      2.00000
     97      -0.6682      2.00000
     98      -0.6666      2.00000
     99      -0.6664      2.00000
    100      -0.6652      2.00000
    101      -0.6648      2.00000
    102       0.2147      2.00000
    103       0.2154      2.00000
    104       0.2157      2.00000
    105       0.2160      2.00000
    106       0.2166      2.00000
    107       0.2167      2.00000
    108       0.2167      2.00000
    109       0.2169      2.00000
    110       0.2175      2.00000
    111       0.2177      2.00000
    112       0.2181      2.00000
    113       0.2188      2.00000
    114       1.7665      2.00000
    115       1.7670      2.00000
    116       1.7674      2.00000
    117       1.7676      2.00000
    118       1.7680      2.00000
    119       1.7683      2.00000
    120       1.7686      2.00000
    121       1.7692      2.00000
    122       1.8846      2.00000
    123       1.8852      2.00000
    124       1.8857      2.00000
    125       1.8858      2.00000
    126       1.8859      2.00000
    127       1.8860      2.00000
    128       1.8860      2.00000
    129       1.8861      2.00000
    130       1.8862      2.00000
    131       1.8863      2.00000
    132       1.8868      2.00000
    133       1.8873      2.00000
    134       1.9776      2.00000
    135       1.9780      2.00000
    136       1.9782      2.00000
    137       1.9784      2.00000
    138       1.9788      2.00000
    139       1.9789      2.00000
    140       1.9789      2.00000
    141       1.9790      2.00000
    142       1.9794      2.00000
    143       1.9796      2.00000
    144       1.9797      2.00000
    145       1.9802      2.00000
    146       2.1396      2.00000
    147       2.1402      2.00000
    148       2.1409      2.00000
    149       2.1413      2.00000
    150       2.1419      2.00000
    151       2.1425      2.00000
    152       2.1842      2.00000
    153       2.1846      2.00000
    154       2.1856      2.00000
    155       2.1857      2.00000
    156       2.1861      2.00000
    157       2.1864      2.00000
    158       2.1866      2.00000
    159       2.1867      2.00000
    160       2.1867      2.00000
    161       2.1868      2.00000
    162       2.1868      2.00000
    163       2.1869      2.00000
    164       2.1870      2.00000
    165       2.1870      2.00000
    166       2.1871      2.00000
    167       2.1872      2.00000
    168       2.1872      2.00000
    169       2.1872      2.00000
    170       2.1874      2.00000
    171       2.1877      2.00000
    172       2.1881      2.00000
    173       2.1883      2.00000
    174       2.1893      2.00000
    175       2.1898      2.00000
    176       2.8561      2.00000
    177       2.8563      2.00000
    178       2.8566      2.00000
    179       2.8566      2.00000
    180       2.8569      2.00000
    181       2.8571      2.00000
    182       3.4893      2.00000
    183       3.4904      2.00000
    184       3.4913      2.00000
    185       3.4914      2.00000
    186       3.4921      2.00000
    187       3.4921      2.00000
    188       3.4922      2.00000
    189       3.4922      2.00000
    190       3.4923      2.00000
    191       3.4924      2.00000
    192       3.4924      2.00000
    193       3.4925      2.00000
    194       3.4926      2.00000
    195       3.4926      2.00000
    196       3.4927      2.00000
    197       3.4928      2.00000
    198       3.4928      2.00000
    199       3.4929      2.00000
    200       3.4929      2.00000
    201       3.4929      2.00000
    202       3.4936      2.00000
    203       3.4938      2.00000
    204       3.4946      2.00000
    205       3.4957      2.00000
    206       3.8016      2.00000
    207       3.8028      2.00000
    208       3.8034      2.00000
    209       3.8036      2.00000
    210       3.8038      2.00000
    211       3.8038      2.00000
    212       3.8039      2.00000
    213       3.8039      2.00000
    214       3.8040      2.00000
    215       3.8043      2.00000
    216       3.8049      2.00000
    217       3.8060      2.00000
    218       4.3505      2.00000
    219       4.3518      2.00000
    220       4.3520      2.00000
    221       4.3523      2.00000
    222       4.3526      2.00000
    223       4.3528      2.00000
    224       4.3528      2.00000
    225       4.3530      2.00000
    226       4.3534      2.00000
    227       4.3536      2.00000
    228       4.3539      2.00000
    229       4.3551      2.00000
    230       4.4763      2.00000
    231       4.4767      2.00000
    232       4.4773      2.00000
    233       4.4776      2.00000
    234       4.4778      2.00000
    235       4.4781      2.00000
    236       4.4788      2.00000
    237       4.4791      2.00000
    238       4.9086      2.00000
    239       4.9089      2.00000
    240       4.9114      2.00000
    241       4.9114      2.00000
    242       4.9115      2.00000
    243       4.9117      2.00000
    244       4.9117      2.00000
    245       4.9118      2.00000
    246       4.9118      2.00000
    247       4.9119      2.00000
    248       4.9119      2.00000
    249       4.9121      2.00000
    250       4.9122      2.00000
    251       4.9122      2.00000
    252       4.9148      2.00000
    253       4.9150      2.00000
    254       5.6594      2.00000
    255       5.6604      2.00000
    256       5.6615      2.00000
    257       6.3942      0.00000
    258       6.3944      0.00000
    259       6.3950      0.00000
    260       6.3953      0.00000
    261       6.3959      0.00000
    262       6.3960      0.00000
    263       6.7951      0.00000
    264       6.7955      0.00000
    265       6.7961      0.00000
    266       6.7964      0.00000
    267       6.7971      0.00000
    268       6.7974      0.00000
    269       7.1206      0.00000
    270       7.1208      0.00000
    271       7.1209      0.00000
    272       7.1211      0.00000
    273       7.1822      0.00000
    274       7.1835      0.00000
    275       7.1839      0.00000
    276       7.1848      0.00000
    277       7.1857      0.00000
    278       7.1857      0.00000
    279       7.1858      0.00000
    280       7.1858      0.00000
    281       7.1858      0.00000
    282       7.1859      0.00000
    283       7.1860      0.00000
    284       7.1860      0.00000
    285       7.1860      0.00000
    286       7.1860      0.00000
    287       7.1861      0.00000
    288       7.1862      0.00000
    289       7.1862      0.00000
    290       7.1862      0.00000
    291       7.1863      0.00000
    292       7.1863      0.00000
    293       7.1872      0.00000
    294       7.1881      0.00000
    295       7.1885      0.00000
    296       7.1898      0.00000
    297       7.6112      0.00000
    298       7.6117      0.00000
    299       7.6119      0.00000
    300       7.6120      0.00000
    301       7.6125      0.00000
    302       7.6126      0.00000
    303       7.6128      0.00000
    304       7.6133      0.00000
    305       8.0809      0.00000
    306       8.0818      0.00000
    307       8.0819      0.00000
    308       8.0826      0.00000
    309       8.0828      0.00000
    310       8.0829      0.00000
    311       8.0829      0.00000
    312       8.0831      0.00000
    313       8.0833      0.00000
    314       8.0839      0.00000
    315       8.0841      0.00000
    316       8.0850      0.00000
    317       8.1987      0.00000
    318       8.1993      0.00000
    319       8.2000      0.00000
    320       8.7788      0.00000
    321       8.7794      0.00000
    322       8.7867      0.00000


--------------------------------------------------------------------------------------------------------


 soft charge-density along one line, spin component           1
         0         1         2         3         4         5         6         7         8         9
 total charge-density along one line
 
 pseudopotential strength for first ion, spin component:           1
 18.431  -0.001  -0.000  -0.000   0.000  -0.000   0.000   0.000
 -0.001   0.006  -0.000   0.000  -0.000   0.000  -0.000   0.000
 -0.000  -0.000   4.180  -0.000   0.000  -0.005   0.000  -0.000
 -0.000   0.000  -0.000   4.180   0.000   0.000  -0.005  -0.000
  0.000  -0.000   0.000   0.000   4.180  -0.000  -0.000  -0.005
 -0.000   0.000  -0.005   0.000  -0.000   0.005   0.000   0.000
  0.000  -0.000   0.000  -0.005  -0.000   0.000   0.005  -0.000
  0.000   0.000  -0.000  -0.000  -0.005   0.000  -0.000   0.005
 total augmentation occupancy for first ion, spin component:           1
  1.463  -0.793   0.000  -0.003  -0.000  -0.000   0.004   0.000
 -0.793   0.732   0.000   0.003  -0.000   0.000  -0.004   0.000
  0.000   0.000   1.037   0.000   0.004  -0.551  -0.000  -0.005
 -0.003   0.003   0.000   1.037  -0.000  -0.000  -0.551   0.000
 -0.000  -0.000   0.004  -0.000   1.037  -0.005   0.000  -0.551
 -0.000   0.000  -0.551  -0.000  -0.005   0.351  -0.000   0.004
  0.004  -0.004  -0.000  -0.551   0.000  -0.000   0.351  -0.000
  0.000   0.000  -0.005   0.000  -0.551   0.004  -0.000   0.351


------------------------ aborting loop because EDIFF is reached ----------------------------------------


    CHARGE:  cpu time    0.5008: real time    0.5020
    FORLOC:  cpu time    0.2002: real time    0.2007
    FORNL :  cpu time    5.5622: real time    5.5755
    STRESS:  cpu time    8.8530: real time    8.8744
    FORCOR:  cpu time    0.4108: real time    0.4119
    FORHAR:  cpu time    0.2482: real time    0.2488
    MIXING:  cpu time    0.0101: real time    0.0101
    OFIELD:  cpu time    0.0001: real time    0.0001

  FORCE on cell =-STRESS in cart. coord.  units (eV):
  Direction    XX          YY          ZZ          XY          YZ          ZX
  --------------------------------------------------------------------------------------
  Alpha Z   210.78029   210.78029   210.78029
  Ewald   -4841.66445 -4841.67386 -4841.67386     0.77491    -0.00020    -0.77480
  Hartree   330.57887   330.57708   330.57708     0.08847    -0.00015    -0.08841
  E(xc)   -1619.14457 -1619.14448 -1619.14448    -0.00662     0.00001     0.00664
  Local   -1899.81358 -1899.80287 -1899.80286    -0.81831     0.00063     0.81868
  n-local  4936.76853  4936.76666  4936.76666     0.15915    -0.00000    -0.15914
  augment  -736.53103  -736.53093  -736.53093    -0.00729    -0.00027     0.00674
  Kinetic  3628.38857  3628.38902  3628.38902    -0.10311    -0.00002     0.10313
  Fock        0.00000     0.00000     0.00000     0.00000     0.00000     0.00000
  -------------------------------------------------------------------------------------
  Total       9.36263     9.36092     9.36092     0.08719    -0.00000    -0.08716
  in kB       5.73277     5.73172     5.73172     0.05339    -0.00000    -0.05337
  external pressure =        5.73 kB  Pullay stress =        0.00 kB


 VOLUME and BASIS-vectors are now :
 -----------------------------------------------------------------------------
  energy-cutoff  :      500.00
  volume of cell :     2616.64
      direct lattice vectors                 reciprocal lattice vectors
     0.000000000 10.937160696 10.937160696    -0.045715704  0.045715704  0.045715704
    10.937160696  0.000000000 10.937160696     0.045715704 -0.045715704  0.045715704
    10.937160696 10.937160696  0.000000000     0.045715704  0.045715704 -0.045715704

  length of vectors
    15.467480990 15.467480990 15.467480990     0.079181922  0.079181922  0.079181922


 FORCES acting on ions
    electron-ion (+dipol)            ewald-force                    non-local-force                 convergence-correction
 -----------------------------------------------------------------------------------------------
   -.569E-02 0.867E-02 -.507E+00   0.462E-02 -.837E-02 0.451E+00   0.602E-03 -.511E-03 0.185E+00   0.450E-07 0.165E-06 0.165E-05
   0.202E+00 0.210E+00 0.157E-01   -.174E+00 -.182E+00 -.156E-01   -.483E-01 -.489E-01 -.334E-01   -.538E-06 -.627E-06 0.212E-06
   -.201E+00 0.630E-01 0.227E+00   0.174E+00 -.629E-01 -.198E+00   0.485E-01 -.349E-01 -.514E-01   0.591E-06 -.421E-06 -.114E-05
   -.200E+00 0.226E+00 0.653E-01   0.173E+00 -.197E+00 -.650E-01   0.478E-01 -.508E-01 -.350E-01   0.645E-06 -.931E-06 -.434E-06
   0.201E+00 0.178E-01 0.209E+00   -.173E+00 -.173E-01 -.181E+00   -.476E-01 -.335E-01 -.483E-01   -.580E-06 0.397E-06 -.262E-06
   -.574E-02 -.506E+00 0.878E-02   0.467E-02 0.451E+00 -.848E-02   0.602E-03 0.185E+00 -.514E-03   -.127E-06 0.177E-05 0.760E-07
   0.491E-02 0.686E-01 0.433E-01   -.463E-02 -.689E-01 -.404E-01   -.761E-03 -.199E-02 -.471E-02   0.213E-06 -.542E-06 0.101E-06
   0.500E-02 0.435E-01 0.683E-01   -.465E-02 -.406E-01 -.685E-01   -.823E-03 -.470E-02 -.200E-02   0.400E-06 -.238E-07 0.127E-07
   0.412E-01 0.945E-02 0.309E-01   -.432E-01 -.841E-02 -.283E-01   0.113E-03 -.302E-03 -.371E-02   -.532E-06 0.355E-08 -.429E-06
   0.193E+00 -.191E+00 0.128E-01   -.165E+00 0.163E+00 -.126E-01   -.482E-01 0.482E-01 -.330E-01   -.592E-06 0.604E-06 0.109E-06
   -.142E-01 -.520E-02 0.528E-02   0.124E-01 0.597E-02 -.360E-02   0.125E-02 -.722E-03 -.139E-02   0.236E-06 -.204E-06 -.170E-06
   -.389E-01 0.461E-01 0.375E-01   0.400E-01 -.439E-01 -.388E-01   0.125E-02 -.337E-02 0.407E-03   0.590E-06 -.292E-06 -.284E-06
   -.455E-03 -.427E-02 0.305E-02   -.237E-02 -.227E-02 -.510E-02   0.302E-02 0.435E-02 0.242E-02   0.563E-07 0.316E-06 0.481E-06
   -.389E-02 -.154E-01 0.859E-03   -.120E-02 0.271E-01 -.643E-02   0.619E-02 -.673E-02 0.646E-02   0.477E-07 0.358E-07 0.291E-07
   -.925E-02 0.912E-02 -.211E-01   0.293E-02 -.359E-02 0.330E-01   0.688E-02 -.623E-02 -.667E-02   0.277E-07 0.193E-06 -.262E-06
   -.131E-02 0.216E-01 -.541E-02   0.424E-02 -.209E-01 0.595E-02   -.232E-02 -.404E-03 -.491E-03   -.296E-06 0.315E-07 -.231E-06
   0.300E-02 0.647E-02 0.972E-02   -.375E-02 -.632E-02 -.859E-02   0.295E-03 -.204E-03 -.111E-02   -.950E-07 0.394E-08 0.233E-06
   0.595E-02 0.229E-02 0.872E-02   -.417E-02 -.287E-02 -.843E-02   -.160E-02 -.321E-04 -.501E-03   0.101E-06 -.350E-07 0.166E-07
   0.593E-02 -.359E-02 0.286E-02   -.694E-02 0.389E-02 -.154E-02   0.708E-03 -.497E-03 -.127E-02   0.541E-07 -.217E-06 0.174E-06
   0.152E-02 0.269E-02 0.394E-02   -.955E-03 -.153E-02 -.403E-02   -.336E-03 -.111E-02 -.233E-03   0.858E-07 -.188E-06 -.987E-07
   -.208E-02 -.121E-01 -.122E-02   0.465E-02 0.576E-02 0.860E-02   -.305E-02 0.428E-02 -.618E-02   -.283E-06 0.360E-06 -.917E-07
   0.189E-02 0.274E-02 -.105E-02   -.109E-02 0.286E-02 0.160E-02   -.640E-03 -.377E-02 -.471E-03   -.136E-06 0.216E-06 0.192E-06
   -.111E-01 0.550E-02 -.571E-02   0.886E-02 -.614E-02 0.415E-02   0.226E-02 0.164E-03 0.983E-03   -.614E-07 0.176E-06 -.479E-06
   -.507E-02 -.208E-02 -.153E-01   0.338E-02 0.417E-02 0.805E-02   0.237E-02 -.267E-02 0.495E-02   0.203E-06 -.127E-06 -.113E-06
   0.582E-01 0.567E-02 0.344E-01   -.593E-01 -.632E-02 -.325E-01   -.101E-02 -.373E-03 -.340E-02   -.706E-06 -.187E-06 0.125E-06
   0.110E-01 0.155E-01 0.161E-01   -.893E-02 -.148E-01 -.164E-01   -.205E-02 -.342E-03 -.629E-04   -.793E-07 0.247E-06 0.529E-06
   0.101E-01 -.182E-01 -.311E-02   -.642E-02 0.139E-01 0.156E-01   -.501E-02 0.548E-02 -.724E-02   0.396E-06 -.442E-06 -.367E-06
   0.241E-01 -.356E-02 -.474E-02   -.227E-01 0.608E-02 0.596E-02   -.762E-03 -.228E-02 -.111E-02   0.653E-08 -.384E-06 -.247E-06
   -.204E+00 0.126E-01 -.201E+00   0.175E+00 -.126E-01 0.173E+00   0.483E-01 -.328E-01 0.480E-01   0.350E-06 0.378E-06 0.396E-06
   0.354E-02 -.226E-01 -.647E-02   0.476E-02 0.314E-01 0.587E-02   -.972E-02 -.340E-02 -.238E-02   -.304E-06 0.322E-06 0.141E-06
   -.136E-01 0.457E-01 0.305E-01   0.124E-01 -.469E-01 -.306E-01   0.755E-03 0.109E-02 0.358E-03   0.177E-06 -.922E-07 0.173E-06
   -.559E-01 0.288E-01 0.424E-02   0.571E-01 -.267E-01 -.370E-02   0.127E-02 -.332E-02 0.655E-03   0.354E-06 -.255E-06 -.264E-06
   0.381E-02 -.624E-02 -.226E-01   0.452E-02 0.569E-02 0.314E-01   -.977E-02 -.246E-02 -.343E-02   -.718E-07 0.794E-07 -.209E-06
   -.205E+00 -.202E+00 0.106E-01   0.176E+00 0.174E+00 -.109E-01   0.489E-01 0.487E-01 -.328E-01   0.802E-06 0.469E-06 0.232E-06
   0.242E-01 -.460E-02 -.355E-02   -.228E-01 0.582E-02 0.607E-02   -.775E-03 -.112E-02 -.228E-02   0.237E-06 -.224E-06 -.422E-06
   0.104E-01 -.302E-02 -.183E-01   -.666E-02 0.155E-01 0.140E-01   -.509E-02 -.726E-02 0.556E-02   0.327E-06 -.251E-06 -.562E-06
   0.109E-01 0.161E-01 0.155E-01   -.885E-02 -.165E-01 -.148E-01   -.204E-02 -.465E-04 -.329E-03   0.898E-07 0.194E-06 0.330E-06
   0.578E-01 0.345E-01 0.576E-02   -.590E-01 -.326E-01 -.634E-02   -.100E-02 -.338E-02 -.423E-03   -.472E-06 -.303E-06 -.134E-07
   -.563E-01 0.429E-02 0.287E-01   0.574E-01 -.368E-02 -.265E-01   0.127E-02 0.604E-03 -.334E-02   0.685E-06 -.915E-08 0.115E-06
   -.138E-01 0.306E-01 0.459E-01   0.125E-01 -.307E-01 -.470E-01   0.754E-03 0.357E-03 0.108E-02   0.166E-06 0.119E-06 0.395E-06
   0.387E-02 0.235E-02 0.144E-02   -.401E-02 -.162E-02 -.505E-03   0.672E-05 -.299E-03 -.105E-02   -.965E-07 0.168E-06 -.273E-06
   0.145E-01 0.452E-02 -.919E-02   -.125E-01 -.700E-02 0.116E-01   -.148E-02 0.203E-02 -.185E-02   -.809E-07 0.620E-07 -.499E-06
   0.398E-02 -.170E-03 0.420E-02   -.406E-02 0.649E-03 -.371E-02   0.561E-04 -.323E-03 -.603E-03   -.559E-07 0.876E-07 -.128E-06
   0.556E-02 -.479E-02 0.464E-02   -.564E-02 0.396E-02 -.370E-02   0.608E-04 0.557E-03 -.843E-03   -.818E-08 -.148E-06 -.245E-06
   -.418E-02 0.604E-02 -.266E-02   0.499E-02 -.599E-02 0.259E-02   -.279E-03 0.465E-03 -.419E-03   -.162E-06 0.255E-06 0.411E-06
   0.161E-02 0.552E-02 0.738E-02   -.243E-02 -.609E-02 -.597E-02   0.627E-03 0.445E-03 -.105E-02   0.264E-07 0.551E-07 0.336E-06
   -.358E-02 0.303E-02 -.139E-01   0.299E-02 -.368E-02 0.126E-01   0.208E-03 0.904E-03 0.704E-03   -.207E-06 -.212E-06 -.398E-06
   -.216E-01 0.759E-02 -.126E-01   0.204E-01 -.102E-01 0.140E-01   0.789E-03 0.218E-02 -.118E-02   0.157E-06 0.563E-06 -.148E-06
   0.626E-02 -.338E-02 0.110E-01   -.703E-02 0.437E-02 -.112E-01   0.540E-03 -.676E-03 0.189E-03   -.168E-06 0.104E-06 0.789E-07
   0.473E-02 0.348E-02 0.663E-02   -.425E-02 -.441E-02 -.634E-02   -.396E-03 0.678E-03 -.358E-03   -.335E-06 -.187E-06 -.199E-06
   0.210E-02 -.798E-02 -.301E-02   -.227E-02 0.868E-02 0.361E-02   0.446E-03 -.392E-03 -.686E-03   0.166E-06 0.505E-07 0.186E-06
   0.533E-02 -.600E-02 0.435E-02   -.561E-02 0.559E-02 -.367E-02   0.247E-03 0.307E-03 -.568E-03   0.576E-07 0.172E-06 0.325E-06
   -.590E-02 0.854E-02 -.188E-01   0.463E-02 -.844E-02 0.169E-01   0.786E-03 -.319E-03 0.195E-02   -.407E-06 0.111E-06 -.904E-07
   -.511E-02 -.189E-02 -.820E-02   0.338E-02 0.607E-03 0.964E-02   0.131E-02 0.102E-02 -.116E-02   -.414E-07 0.124E-06 0.105E-06
   0.663E-03 0.123E-01 0.126E-02   -.736E-03 -.124E-01 -.150E-02   0.937E-04 0.117E-03 0.170E-03   -.576E-07 -.910E-07 -.317E-06
   -.337E-02 0.905E-02 -.752E-02   0.396E-02 -.101E-01 0.867E-02   -.462E-03 0.101E-02 -.841E-03   -.268E-06 -.206E-07 -.364E-06
   0.364E-03 -.601E-01 0.290E-01   0.241E-04 0.611E-01 -.275E-01   0.582E-03 0.117E-02 -.308E-02   0.251E-06 0.587E-06 0.242E-06
   0.210E-01 -.159E-01 0.431E-01   -.206E-01 0.151E-01 -.437E-01   -.880E-04 0.436E-03 0.690E-03   0.733E-07 -.126E-06 0.300E-06
   0.410E-02 -.124E-01 -.320E-01   -.655E-02 0.138E-01 0.301E-01   0.211E-02 -.118E-02 0.129E-02   0.337E-06 -.259E-06 -.324E-06
   0.408E-02 -.319E-01 -.126E-01   -.653E-02 0.300E-01 0.140E-01   0.211E-02 0.128E-02 -.118E-02   0.314E-06 0.125E-06 -.297E-06
   0.209E-01 0.430E-01 -.158E-01   -.204E-01 -.436E-01 0.149E-01   -.851E-04 0.696E-03 0.435E-03   -.798E-07 0.118E-07 -.144E-06
   0.300E-03 0.291E-01 -.597E-01   0.233E-04 -.277E-01 0.608E-01   0.634E-03 -.305E-02 0.116E-02   -.195E-06 -.126E-06 0.245E-06
   0.398E-02 0.125E-01 0.338E-01   -.403E-02 -.124E-01 -.343E-01   0.307E-04 -.325E-04 0.342E-03   0.328E-06 -.974E-07 -.136E-07
   0.400E-02 0.336E-01 0.125E-01   -.405E-02 -.341E-01 -.124E-01   0.339E-04 0.342E-03 -.342E-04   0.405E-07 0.199E-07 -.103E-06
   0.189E-02 -.104E-02 0.275E-02   -.110E-02 0.159E-02 0.285E-02   -.639E-03 -.471E-03 -.376E-02   0.197E-07 0.180E-06 0.356E-07
   -.207E-02 -.121E-02 -.121E-01   0.463E-02 0.857E-02 0.580E-02   -.304E-02 -.616E-02 0.428E-02   -.220E-06 -.390E-07 0.838E-07
   0.153E-02 0.396E-02 0.274E-02   -.962E-03 -.405E-02 -.158E-02   -.334E-03 -.233E-03 -.111E-02   -.312E-07 -.304E-06 -.301E-06
   0.593E-02 0.291E-02 -.357E-02   -.694E-02 -.158E-02 0.387E-02   0.703E-03 -.127E-02 -.494E-03   0.323E-06 -.139E-06 -.336E-06
   0.601E-02 0.873E-02 0.227E-02   -.421E-02 -.841E-02 -.285E-02   -.162E-02 -.524E-03 -.295E-04   0.399E-07 0.268E-06 0.116E-06
   0.298E-02 0.973E-02 0.650E-02   -.373E-02 -.860E-02 -.634E-02   0.298E-03 -.111E-02 -.213E-03   0.106E-06 0.160E-06 -.150E-06
   -.506E-02 -.154E-01 -.212E-02   0.340E-02 0.808E-02 0.418E-02   0.235E-02 0.495E-02 -.265E-02   0.576E-07 -.188E-07 -.271E-07
   -.112E-01 -.578E-02 0.549E-02   0.892E-02 0.420E-02 -.612E-02   0.228E-02 0.994E-03 0.150E-03   -.632E-07 -.186E-06 0.602E-06
   -.141E-02 -.381E-02 0.214E-02   0.126E-02 0.434E-02 -.150E-02   -.103E-03 -.281E-03 -.713E-03   -.248E-06 0.132E-06 -.222E-06
   0.210E-02 -.237E-02 -.829E-03   -.110E-02 0.108E-02 0.158E-02   -.830E-03 0.101E-02 -.661E-03   -.269E-06 0.274E-06 -.170E-06
   -.336E-02 0.515E-02 0.582E-02   0.397E-02 -.439E-02 -.608E-02   -.423E-03 -.491E-03 0.229E-03   0.537E-07 -.337E-07 -.638E-07
   -.874E-03 -.275E-03 0.431E-02   0.828E-03 0.600E-04 -.370E-02   0.637E-04 0.139E-03 -.529E-03   0.922E-07 0.279E-07 -.247E-06
   0.111E-02 0.858E-02 -.131E-01   0.100E-03 -.841E-02 0.114E-01   -.732E-03 -.370E-03 0.179E-02   -.170E-06 0.185E-06 0.123E-06
   -.195E-02 0.779E-02 -.911E-03   0.935E-03 -.906E-02 0.173E-02   0.788E-03 0.107E-02 -.726E-03   -.106E-06 0.527E-07 0.106E-06
   0.640E-03 -.398E-03 -.443E-02   -.295E-04 0.674E-03 0.401E-02   -.606E-03 -.133E-03 0.312E-03   -.146E-06 0.999E-07 -.149E-06
   -.719E-03 -.478E-03 -.733E-02   0.174E-02 -.423E-03 0.870E-02   -.727E-03 0.805E-03 -.101E-02   -.416E-06 -.869E-07 -.714E-07
   -.112E-02 -.832E-02 0.687E-02   0.102E-02 0.904E-02 -.648E-02   0.776E-04 -.245E-03 -.553E-03   0.108E-07 0.212E-06 0.166E-06
   0.173E-02 -.603E-02 0.650E-02   -.110E-02 0.531E-02 -.634E-02   -.478E-03 0.521E-03 -.210E-03   0.480E-07 0.465E-06 -.120E-06
   -.187E-02 0.187E-02 -.414E-02   0.110E-02 -.159E-02 0.349E-02   0.626E-03 -.336E-03 0.471E-03   0.140E-06 -.212E-06 0.168E-06
   -.186E-02 -.409E-02 0.183E-02   0.109E-02 0.345E-02 -.155E-02   0.625E-03 0.469E-03 -.332E-03   0.102E-07 -.116E-06 0.706E-07
   0.172E-02 0.647E-02 -.601E-02   -.109E-02 -.632E-02 0.530E-02   -.476E-03 -.207E-03 0.519E-03   0.335E-07 -.118E-06 0.180E-06
   -.113E-02 0.687E-02 -.833E-02   0.102E-02 -.649E-02 0.905E-02   0.843E-04 -.551E-03 -.245E-03   -.326E-07 -.338E-07 0.933E-07
   0.126E-02 -.641E-03 0.412E-02   -.102E-02 0.109E-02 -.452E-02   -.231E-03 -.342E-03 0.283E-03   0.190E-06 -.108E-06 -.174E-06
   0.126E-02 0.409E-02 -.604E-03   -.102E-02 -.449E-02 0.106E-02   -.229E-03 0.280E-03 -.344E-03   -.132E-07 -.237E-06 -.204E-06
   -.513E-02 -.817E-02 -.194E-02   0.339E-02 0.962E-02 0.648E-03   0.131E-02 -.116E-02 0.103E-02   0.100E-06 0.985E-07 0.296E-06
   -.594E-02 -.188E-01 0.851E-02   0.466E-02 0.169E-01 -.841E-02   0.794E-03 0.196E-02 -.330E-03   0.468E-07 0.688E-07 0.511E-06
   0.531E-02 0.438E-02 -.599E-02   -.559E-02 -.370E-02 0.558E-02   0.250E-03 -.569E-03 0.307E-03   0.643E-07 -.130E-06 -.229E-06
   0.210E-02 -.294E-02 -.802E-02   -.226E-02 0.355E-02 0.871E-02   0.440E-03 -.689E-03 -.384E-03   0.333E-06 -.123E-06 -.101E-06
   0.469E-02 0.661E-02 0.352E-02   -.421E-02 -.632E-02 -.445E-02   -.393E-03 -.356E-03 0.677E-03   -.764E-07 -.333E-08 -.172E-06
   0.623E-02 0.109E-01 -.333E-02   -.700E-02 -.112E-01 0.432E-02   0.538E-03 0.183E-03 -.675E-03   0.821E-07 0.140E-06 -.260E-06
   -.343E-02 -.757E-02 0.907E-02   0.402E-02 0.872E-02 -.101E-01   -.463E-03 -.841E-03 0.101E-02   0.930E-07 -.149E-06 0.299E-06
   0.628E-03 0.122E-02 0.124E-01   -.700E-03 -.146E-02 -.124E-01   0.922E-04 0.166E-03 0.114E-03   0.844E-07 -.175E-06 -.929E-08
   -.415E-02 0.619E-03 -.153E-01   -.987E-03 -.623E-02 0.271E-01   0.626E-02 0.652E-02 -.673E-02   -.240E-06 -.298E-06 -.359E-06
   -.470E-03 0.308E-02 -.430E-02   -.234E-02 -.511E-02 -.224E-02   0.302E-02 0.240E-02 0.434E-02   0.495E-07 0.229E-06 0.411E-06
   -.384E-01 0.378E-01 0.463E-01   0.395E-01 -.390E-01 -.442E-01   0.124E-02 0.350E-03 -.335E-02   0.455E-06 -.158E-06 -.455E-06
   -.143E-01 0.527E-02 -.504E-02   0.125E-01 -.359E-02 0.581E-02   0.126E-02 -.138E-02 -.724E-03   0.122E-06 -.220E-06 -.403E-06
   0.194E+00 0.108E-01 -.192E+00   -.166E+00 -.109E-01 0.164E+00   -.488E-01 -.329E-01 0.489E-01   -.928E-06 0.306E-06 0.838E-06
   0.416E-01 0.308E-01 0.953E-02   -.435E-01 -.281E-01 -.843E-02   0.920E-04 -.373E-02 -.345E-03   -.753E-06 -.155E-06 0.250E-07
   -.133E-02 -.529E-02 0.216E-01   0.426E-02 0.583E-02 -.210E-01   -.232E-02 -.498E-03 -.409E-03   -.240E-06 -.123E-06 0.260E-06
   -.950E-02 -.211E-01 0.937E-02   0.314E-02 0.330E-01 -.379E-02   0.694E-02 -.667E-02 -.629E-02   -.258E-06 -.197E-06 0.313E-06
   -.473E-02 -.471E-01 0.292E-01   0.405E-02 0.477E-01 -.277E-01   -.248E-03 0.144E-02 -.308E-02   0.832E-07 0.551E-06 -.332E-06
   -.442E-02 -.164E-01 -.778E-02   0.655E-02 0.150E-01 0.909E-02   -.180E-02 0.998E-03 -.106E-02   -.198E-06 0.131E-06 -.405E-06
   -.211E-01 0.385E-01 0.848E-02   0.206E-01 -.390E-01 -.953E-02   0.237E-03 0.564E-03 0.545E-03   0.118E-06 -.324E-06 -.504E-07
   -.210E-01 0.879E-02 0.383E-01   0.204E-01 -.984E-02 -.388E-01   0.234E-03 0.545E-03 0.571E-03   0.110E-07 -.182E-06 -.359E-06
   -.440E-02 -.793E-02 -.164E-01   0.653E-02 0.923E-02 0.149E-01   -.180E-02 -.105E-02 0.988E-03   -.254E-06 -.115E-06 0.301E-06
   -.478E-02 0.290E-01 -.474E-01   0.403E-02 -.275E-01 0.481E-01   -.195E-03 -.310E-02 0.146E-02   -.155E-06 -.147E-06 0.759E-06
   0.898E-03 -.211E-03 -.632E-02   -.233E-04 0.689E-03 0.550E-02   -.882E-03 -.323E-03 0.551E-03   0.153E-07 0.189E-06 -.273E-06
   0.897E-03 -.635E-02 -.150E-03   -.241E-04 0.553E-02 0.628E-03   -.880E-03 0.551E-03 -.322E-03   -.104E-06 0.163E-06 0.942E-07
   -.200E-02 -.854E-03 0.775E-02   0.982E-03 0.168E-02 -.903E-02   0.789E-03 -.728E-03 0.107E-02   0.959E-07 -.162E-06 0.168E-06
   0.106E-02 -.130E-01 0.859E-02   0.136E-03 0.114E-01 -.843E-02   -.723E-03 0.178E-02 -.357E-03   0.480E-07 -.514E-07 -.128E-07
   -.903E-03 0.430E-02 -.313E-03   0.855E-03 -.368E-02 0.979E-04   0.651E-04 -.529E-03 0.140E-03   0.238E-06 -.171E-06 0.491E-07
   -.340E-02 0.585E-02 0.507E-02   0.402E-02 -.611E-02 -.431E-02   -.429E-03 0.240E-03 -.492E-03   0.115E-06 -.181E-06 0.152E-06
   0.208E-02 -.862E-03 -.236E-02   -.108E-02 0.161E-02 0.107E-02   -.825E-03 -.656E-03 0.101E-02   0.624E-07 0.248E-06 0.291E-07
   -.141E-02 0.209E-02 -.381E-02   0.127E-02 -.146E-02 0.435E-02   -.108E-03 -.711E-03 -.285E-03   -.899E-07 -.229E-07 0.952E-07
   -.751E-03 -.731E-02 -.444E-03   0.177E-02 0.869E-02 -.457E-03   -.725E-03 -.101E-02 0.805E-03   -.685E-07 0.165E-06 -.246E-06
   0.629E-03 -.445E-02 -.363E-03   -.179E-04 0.404E-02 0.644E-03   -.607E-03 0.311E-03 -.136E-03   0.138E-06 0.209E-06 -.233E-06
   0.162E-02 0.741E-02 0.547E-02   -.243E-02 -.599E-02 -.604E-02   0.625E-03 -.105E-02 0.449E-03   -.730E-08 -.775E-07 0.315E-06
   -.420E-02 -.262E-02 0.603E-02   0.501E-02 0.255E-02 -.597E-02   -.272E-03 -.424E-03 0.464E-03   -.116E-06 -.933E-07 0.462E-06
   0.549E-02 0.462E-02 -.477E-02   -.557E-02 -.368E-02 0.395E-02   0.609E-04 -.843E-03 0.555E-03   0.104E-06 -.200E-06 -.269E-06
   0.395E-02 0.420E-02 -.192E-03   -.403E-02 -.371E-02 0.669E-03   0.561E-04 -.601E-03 -.321E-03   0.117E-06 -.265E-06 -.211E-08
   0.144E-01 -.933E-02 0.453E-02   -.124E-01 0.117E-01 -.701E-02   -.148E-02 -.185E-02 0.204E-02   -.126E-06 -.241E-06 0.229E-06
   0.383E-02 0.141E-02 0.236E-02   -.397E-02 -.471E-03 -.164E-02   0.121E-04 -.105E-02 -.297E-03   -.404E-07 -.410E-07 0.524E-07
   -.217E-01 -.124E-01 0.762E-02   0.205E-01 0.139E-01 -.102E-01   0.797E-03 -.118E-02 0.218E-02   0.180E-08 -.298E-06 0.531E-06
   -.368E-02 -.139E-01 0.305E-02   0.308E-02 0.126E-01 -.370E-02   0.211E-03 0.706E-03 0.901E-03   0.120E-06 -.795E-07 0.531E-07
 -----------------------------------------------------------------------------------------------
   -.106E-05 0.991E-05 -.157E-04   0.192E-12 -.370E-12 0.206E-13   0.116E-05 -.975E-05 0.170E-04   0.605E-07 0.992E-07 -.100E-06
 
 
 POSITION                                       TOTAL-FORCE (eV/Angst)
 -----------------------------------------------------------------------------------
      1.36715      1.36715      1.35715        -0.000473     -0.000207      0.130112
      0.00000      0.00000      0.00000        -0.020521     -0.020661     -0.033228
      1.36715      4.10144      4.10144         0.021473     -0.034879     -0.022095
      0.00000      2.73429      2.73429         0.020909     -0.021531     -0.034592
      1.36715      6.83573      6.83573        -0.019949     -0.032933     -0.020093
     10.93716     16.39574      5.46858        -0.000475      0.130111     -0.000209
      1.36715      9.57002      9.57002        -0.000488     -0.002241     -0.001781
      0.00000      8.20287      8.20287        -0.000477     -0.001769     -0.002228
      4.10144      1.36715      4.10144        -0.001821      0.000739     -0.001099
      2.73429      0.00000      2.73429        -0.019800      0.019905     -0.032708
      4.10144      4.10144      6.83573        -0.000552      0.000043      0.000292
      2.73429      2.73429      5.46858         0.002378     -0.001240     -0.000883
      4.10144      6.83573      9.57002         0.000203     -0.002185      0.000370
      2.73429      5.46858      8.20287         0.001105      0.004995      0.000892
      4.10144      9.57002     12.30431         0.000561     -0.000697      0.005302
      2.73429      8.20287     10.93716         0.000609      0.000240      0.000043
      6.83573      1.36715      6.83573        -0.000451     -0.000056      0.000016
      5.46858      0.00000      5.46858         0.000174     -0.000616     -0.000209
      6.83573      4.10144      9.57002        -0.000307     -0.000193      0.000054
      5.46858      2.73429      8.20287         0.000230      0.000054     -0.000325
      6.83573      6.83573     12.30431        -0.000473     -0.002037      0.001195
      5.46858      5.46858     10.93716         0.000157      0.001828      0.000078
      6.83573      9.57002     15.03860        -0.000013     -0.000477     -0.000578
      5.46858      8.20287     13.67145         0.000682     -0.000577     -0.002306
      9.57002      1.36715      9.57002        -0.002192     -0.001017     -0.001505
      8.20287      0.00000      8.20287         0.000011      0.000428     -0.000418
      9.57002      4.10144     12.30431        -0.001284      0.001200      0.005259
      8.20287      2.73429     10.93716         0.000614      0.000233      0.000103
      9.57002      6.83573     15.03860         0.019677     -0.032769      0.019845
      8.20287      5.46858     13.67145        -0.001421      0.005388     -0.002985
      9.57002      9.57002     17.77289        -0.000493     -0.000073      0.000298
      8.20287      8.20287     16.40574         0.002405     -0.001185      0.001201
      4.10144      4.10144      1.36715        -0.001439     -0.003018      0.005395
      2.73429      2.73429      0.00000         0.020250      0.020416     -0.033067
      4.10144      6.83573      4.10144         0.000612      0.000100      0.000239
      2.73429      5.46858      2.73429        -0.001310      0.005260      0.001214
      4.10144      9.57002      6.83573         0.000012     -0.000415      0.000427
      2.73429      8.20287      5.46858        -0.002177     -0.001491     -0.001006
      4.10144     12.30431      9.57002         0.002420      0.001214     -0.001198
      2.73429     10.93716      8.20287        -0.000491      0.000293     -0.000073
      6.83573      4.10144      4.10144        -0.000128      0.000427     -0.000112
      5.46858      2.73429      2.73429         0.000548     -0.000447      0.000521
      6.83573      6.83573      6.83573        -0.000022      0.000156     -0.000111
      5.46858      5.46858      5.46858        -0.000018     -0.000271      0.000099
      6.83573      9.57002      9.57002         0.000536      0.000521     -0.000491
      5.46858      8.20287      8.20287        -0.000190     -0.000123      0.000370
      6.83573     12.30431     12.30431        -0.000385      0.000250     -0.000637
      5.46858     10.93716     10.93716        -0.000344     -0.000441      0.000252
      9.57002      4.10144      6.83573        -0.000232      0.000314     -0.000023
      8.20287      2.73429      5.46858         0.000082     -0.000253     -0.000067
      9.57002      6.83573      9.57002         0.000277      0.000305     -0.000082
      8.20287      5.46858      8.20287        -0.000031     -0.000108      0.000111
      9.57002      9.57002     12.30431        -0.000485     -0.000219      0.000070
      8.20287      8.20287     10.93716        -0.000428     -0.000262      0.000286
      9.57002     12.30431     15.03860         0.000021      0.000077     -0.000073
      8.20287     10.93716     13.67145         0.000128     -0.000041      0.000305
     12.30431      4.10144      9.57002         0.000970      0.002190     -0.001607
     10.93716      2.73429      8.20287         0.000353     -0.000435      0.000075
     12.30431      6.83573     12.30431        -0.000344      0.000250     -0.000592
     10.93716      5.46858     10.93716        -0.000337     -0.000596      0.000251
     12.30431      9.57002     15.03860         0.000356      0.000076     -0.000438
     10.93716      8.20287     13.67145         0.000958     -0.001594      0.002174
     12.30431     12.30431     17.77289        -0.000022      0.000064     -0.000189
     10.93716     10.93716     16.40574        -0.000022     -0.000187      0.000065
      6.83573      6.83573      1.36715         0.000159      0.000078      0.001838
      5.46858      5.46858      0.00000        -0.000475      0.001206     -0.002053
      6.83573      9.57002      4.10144         0.000230     -0.000327      0.000055
      5.46858      8.20287      2.73429        -0.000309      0.000055     -0.000194
      6.83573     12.30431      6.83573         0.000173     -0.000208     -0.000615
      5.46858     10.93716      5.46858        -0.000450      0.000016     -0.000054
      6.83573     15.03860      9.57002         0.000683     -0.002326     -0.000579
      5.46858     13.67145      8.20287        -0.000010     -0.000578     -0.000482
      9.57002      6.83573      4.10144        -0.000248      0.000256     -0.000081
      8.20287      5.46858      2.73429         0.000171     -0.000285      0.000091
      9.57002      9.57002      6.83573         0.000186      0.000273     -0.000024
      8.20287      8.20287      5.46858         0.000018     -0.000076      0.000086
      9.57002     12.30431      9.57002         0.000476     -0.000198      0.000104
      8.20287     10.93716      8.20287        -0.000230     -0.000203      0.000094
      9.57002     15.03860     12.30431         0.000004      0.000143     -0.000105
      8.20287     13.67145     10.93716         0.000294     -0.000096      0.000363
     12.30431      6.83573      6.83573        -0.000022      0.000477     -0.000166
     10.93716      5.46858      5.46858         0.000159     -0.000193     -0.000055
     12.30431      9.57002      9.57002        -0.000147     -0.000053     -0.000174
     10.93716      8.20287      8.20287        -0.000145     -0.000175     -0.000054
     12.30431     12.30431     12.30431         0.000158     -0.000055     -0.000194
     10.93716     10.93716     10.93716        -0.000026     -0.000166      0.000476
     12.30431     15.03860     15.03860         0.000012      0.000107     -0.000119
     10.93716     13.67145     13.67145         0.000012     -0.000118      0.000108
     15.03860      6.83573      9.57002        -0.000431      0.000286     -0.000263
     13.67145      5.46858      8.20287        -0.000487      0.000071     -0.000222
     15.03860      9.57002     12.30431        -0.000031      0.000111     -0.000108
     13.67145      8.20287     10.93716         0.000280     -0.000082      0.000306
     15.03860     12.30431     15.03860         0.000082     -0.000068     -0.000252
     13.67145     10.93716     13.67145        -0.000232     -0.000023      0.000314
     15.03860     15.03860     17.77289         0.000128      0.000305     -0.000037
     13.67145     13.67145     16.40574         0.000020     -0.000072      0.000077
      9.57002      9.57002      1.36715         0.001124      0.000910      0.005000
      8.20287      8.20287      0.00000         0.000203      0.000370     -0.002204
      9.57002     12.30431      4.10144         0.002358     -0.000876     -0.001232
      8.20287     10.93716      2.73429        -0.000549      0.000296      0.000041
      9.57002     15.03860      6.83573        -0.020371     -0.033011      0.020472
      8.20287     13.67145      5.46858        -0.001837     -0.001109      0.000757
      9.57002     17.77289      9.57002         0.000614      0.000042      0.000236
      8.20287     16.40574      8.20287         0.000579      0.005306     -0.000714
     12.30431      9.57002      4.10144        -0.000929      0.002083     -0.001594
     10.93716      8.20287      2.73429         0.000331     -0.000435      0.000249
     12.30431     12.30431      6.83573        -0.000341      0.000077     -0.000506
     10.93716     10.93716      5.46858        -0.000343     -0.000511      0.000077
     12.30431     15.03860      9.57002         0.000325      0.000250     -0.000438
     10.93716     13.67145      8.20287        -0.000940     -0.001607      0.002098
     12.30431     17.77289     12.30431        -0.000007      0.000155     -0.000274
     10.93716     16.40574     10.93716        -0.000008     -0.000274      0.000156
     15.03860      9.57002      6.83573        -0.000230      0.000095     -0.000207
     13.67145      8.20287      5.46858         0.000475      0.000102     -0.000194
     15.03860     12.30431      9.57002         0.000017      0.000087     -0.000076
     13.67145     10.93716      8.20287         0.000187     -0.000025      0.000272
     15.03860     15.03860     12.30431         0.000170      0.000090     -0.000284
     13.67145     13.67145     10.93716        -0.000246     -0.000080      0.000255
     15.03860     17.77289     15.03860         0.000292      0.000365     -0.000097
     13.67145     16.40574     13.67145         0.000005     -0.000104      0.000144
     17.77289      9.57002      9.57002        -0.000189      0.000370     -0.000123
     16.40574      8.20287      8.20287         0.000535     -0.000490      0.000523
     17.77289     12.30431     12.30431        -0.000019      0.000099     -0.000270
     16.40574     10.93716     10.93716        -0.000022     -0.000112      0.000155
     17.77289     15.03860     15.03860         0.000553      0.000523     -0.000442
     16.40574     13.67145     13.67145        -0.000127     -0.000111      0.000426
     17.77289     17.77289     17.77289        -0.000340      0.000250     -0.000447
     16.40574     16.40574     16.40574        -0.000388     -0.000639      0.000251
 -----------------------------------------------------------------------------------
    total drift:                                0.000000      0.000000      0.000001


--------------------------------------------------------------------------------------------------------



  FREE ENERGIE OF THE ION-ELECTRON SYSTEM (eV)
  ---------------------------------------------------
  free  energy   TOTEN  =      -682.56819846 eV

  energy  without entropy=     -682.56819846  energy(sigma->0) =     -682.56819846
 


--------------------------------------------------------------------------------------------------------


    POTLOK:  cpu time    0.5042: real time    0.5055


--------------------------------------------------------------------------------------------------------


     LOOP+:  cpu time  122.2356: real time  122.5713
    4ORBIT:  cpu time    0.0000: real time    0.0000

 total amount of memory used by VASP MPI-rank0   118934. kBytes
=======================================================================

   base      :      30000. kBytes
   nonl-proj :       7011. kBytes
   fftplans  :      53058. kBytes
   grid      :      20148. kBytes
   one-center:         21. kBytes
   wavefun   :       8696. kBytes
 
  
  
 General timing and accounting informations for this job:
 ========================================================
  
                  Total CPU time used (sec):      130.149
                            User time (sec):      127.461
                          System time (sec):        2.688
                         Elapsed time (sec):      130.565
  
                   Maximum memory used (kb):      235240.
                   Average memory used (kb):           0.
  
                          Minor page faults:       216282
                          Major page faults:            0
                 Voluntary context switches:          440
