 vasp.5.4.4.18Apr17-6-g9f103f2a35 (build Aug 16 2020 16:33:06) complex          
  
 executed on             LinuxIFC date 2026.08.15  14:38:32
 running on   40 total cores
 distrk:  each k-point on   40 cores,    1 groups
 distr:  one band on NCORES_PER_BAND=  20 cores,    2 groups


--------------------------------------------------------------------------------------------------------


 INCAR:
 POTCAR:   PAW_PBE Si 05Jan2001                   

 ----------------------------------------------------------------------------- 
|                                                                             |
|           W    W    AA    RRRRR   N    N  II  N    N   GGGG   !!!           |
|           W    W   A  A   R    R  NN   N  II  NN   N  G    G  !!!           |
|           W    W  A    A  R    R  N N  N  II  N N  N  G       !!!           |
|           W WW W  AAAAAA  RRRRR   N  N N  II  N  N N  G  GGG   !            |
|           WW  WW  A    A  R   R   N   NN  II  N   NN  G    G                |
|           W    W  A    A  R    R  N    N  II  N    N   GGGG   !!!           |
|                                                                             |
|      For optimal performance we recommend to set                            |
|        NCORE= 4 - approx SQRT( number of cores)                             |
|      NCORE specifies how many cores store one orbital (NPAR=cpu/NCORE).     |
|      This setting can  greatly improve the performance of VASP for DFT.     |
|      The default,   NCORE=1            might be grossly inefficient         |
|      on modern multi-core architectures or massively parallel machines.     |
|      Do your own testing !!!!                                               |
|      Unfortunately you need to use the default for GW and RPA calculations. |
|      (for HF NCORE is supported but not extensively tested yet)             |
|                                                                             |
 ----------------------------------------------------------------------------- 

 POTCAR:   PAW_PBE Si 05Jan2001                   
   VRHFIN =Si: s2p2                                                             
   LEXCH  = PE                                                                  
   EATOM  =   103.0669 eV,    7.5752 Ry                                         
                                                                                
   TITEL  = PAW_PBE Si 05Jan2001                                                
   LULTRA =        F    use ultrasoft PP ?                                      
   IUNSCR =        1    unscreen: 0-lin 1-nonlin 2-no                           
   RPACOR =    1.500    partial core radius                                     
   POMASS =   28.085; ZVAL   =    4.000    mass and valenz                      
   RCORE  =    1.900    outmost cutoff radius                                   
   RWIGS  =    2.480; RWIGS  =    1.312    wigner-seitz radius (au A)           
   ENMAX  =  245.345; ENMIN  =  184.009 eV                                      
   ICORE  =        2    local potential                                         
   LCOR   =        T    correct aug charges                                     
   LPAW   =        T    paw PP                                                  
   EAUG   =  322.069                                                            
   DEXC   =    -.007                                                            
   RMAX   =    2.944    core radius for proj-oper                               
   RAUG   =    1.300    factor for augmentation sphere                          
   RDEP   =    1.993    radius for radial grids                                 
   QCUT   =   -4.246; QGAM   =    8.493    optimization parameters              
                                                                                
   Description                                                                  
     l     E      TYP  RCUT    TYP  RCUT                                        
     0   .000     23  1.900                                                     
     0   .000     23  1.900                                                     
     1   .000     23  1.900                                                     
     1   .000     23  1.900                                                     
     2   .000      7  1.900                                                     
  local pseudopotential read in
  partial core-charges read in
  atomic valenz-charges read in
  non local Contribution for L=           0  read in
    real space projection operators read in
  non local Contribution for L=           0  read in
    real space projection operators read in
  non local Contribution for L=           1  read in
    real space projection operators read in
  non local Contribution for L=           1  read in
    real space projection operators read in
    PAW grid and wavefunctions read in
 
   number of l-projection  operators is LMAX  =           4
   number of lm-projection operators is LMMAX =           8
 

 ----------------------------------------------------------------------------- 
|                                                                             |
|  ADVICE TO THIS USER RUNNING 'VASP/VAMP'   (HEAR YOUR MASTER'S VOICE ...):  |
|                                                                             |
|      You have a (more or less) 'large supercell' and for larger cells       |
|      it might be more efficient to use real space projection operators      |
|      So try LREAL= Auto  in the INCAR   file.                               |
|      Mind: If you want to do a very accurate calculations keep the          |
|      reciprocal projection scheme          (i.e. LREAL=.FALSE.)             |
|                                                                             |
 ----------------------------------------------------------------------------- 

 PAW_PBE Si 05Jan2001                   :
 energy of atom  1       EATOM= -103.0669
 kinetic energy error for atom=    0.0006 (will be added to EATOM!!)
 
 
 POSCAR: Si                                      
  positions in direct lattice
  No initial velocities read in
 exchange correlation table for  LEXCH =        8
   RHO(1)=    0.500       N(1)  =     2000
   RHO(2)=  100.500       N(2)  =     4000
 


--------------------------------------------------------------------------------------------------------


 ion  position               nearest neighbor table
   1  0.062  0.063  0.063-  10 2.36  34 2.36   2 2.37   4 2.37
   2  0.000  0.000  0.000-   7 2.37  25 2.37  97 2.37   1 2.37
   3  0.312  0.062  0.062-   4 2.37  12 2.37  36 2.37   6 2.37
   4  0.250  0.000  0.000-   3 2.37  27 2.37  99 2.37   1 2.37
   5  0.562  0.062  0.062-   6 2.36   8 2.37  14 2.37  38 2.37
   6  0.500  0.000  1.000- 101 2.36   5 2.36  29 2.37   3 2.37
   7  0.812  0.062  0.062-   2 2.37   8 2.37  16 2.37  40 2.37
   8  0.750  0.000  0.000-   5 2.37   7 2.37  31 2.37 103 2.37
   9  0.062  0.312  0.062-  10 2.37  12 2.37  18 2.37  42 2.37
  10  0.000  0.250  0.000-   1 2.36   9 2.37  15 2.37 105 2.37
  11  0.312  0.312  0.062-  12 2.37  14 2.37  20 2.37  44 2.37
  12  0.250  0.250  0.000-   3 2.37   9 2.37  11 2.37 107 2.37
  13  0.562  0.312  0.062-  14 2.37  16 2.37  22 2.37  46 2.37
  14  0.500  0.250  0.000-   5 2.37  11 2.37  13 2.37 109 2.37
  15  0.812  0.312  0.062-  10 2.37  16 2.37  24 2.37  48 2.37
  16  0.750  0.250  0.000-   7 2.37  13 2.37  15 2.37 111 2.37
  17  0.062  0.562  0.062-  18 2.37  20 2.37  26 2.37  50 2.37
  18  0.000  0.500  0.000-   9 2.37  17 2.37  23 2.37 113 2.37
  19  0.312  0.562  0.062-  20 2.37  22 2.37  28 2.37  52 2.37
  20  0.250  0.500  0.000-  11 2.37  17 2.37  19 2.37 115 2.37
  21  0.562  0.562  0.062-  22 2.37  24 2.37  30 2.37  54 2.37
  22  0.500  0.500  0.000-  13 2.37  19 2.37  21 2.37 117 2.37
  23  0.812  0.562  0.062-  18 2.37  24 2.37  32 2.37  56 2.37
  24  0.750  0.500  0.000-  15 2.37  21 2.37  23 2.37 119 2.37
  25  0.062  0.812  0.062-   2 2.37  26 2.37  28 2.37  58 2.37
  26  0.000  0.750  0.000-  17 2.37  25 2.37  31 2.37 121 2.37
  27  0.312  0.812  0.062-   4 2.37  28 2.37  30 2.37  60 2.37
  28  0.250  0.750  0.000-  19 2.37  25 2.37  27 2.37 123 2.37
  29  0.562  0.812  0.062-  30 2.37  32 2.37  62 2.37   6 2.37
  30  0.500  0.750  0.000-  21 2.37  27 2.37  29 2.37 125 2.37
  31  0.812  0.812  0.062-   8 2.37  26 2.37  32 2.37  64 2.37
  32  0.750  0.750  0.000-  23 2.37  29 2.37  31 2.37 127 2.37
  33  0.062  0.062  0.312-  34 2.37  36 2.37  42 2.37  66 2.37
  34  0.000  0.000  0.250-   1 2.36  33 2.37  39 2.37  57 2.37
  35  0.312  0.062  0.312-  36 2.37  38 2.37  44 2.37  68 2.37
  36  0.250  0.000  0.250-   3 2.37  33 2.37  35 2.37  59 2.37
  37  0.562  0.062  0.312-  38 2.37  40 2.37  46 2.37  70 2.37
  38  0.500  0.000  0.250-   5 2.37  35 2.37  37 2.37  61 2.37
  39  0.812  0.062  0.312-  34 2.37  40 2.37  48 2.37  72 2.37
  40  0.750  0.000  0.250-   7 2.37  37 2.37  39 2.37  63 2.37
  41  0.062  0.312  0.312-  42 2.37  44 2.37  50 2.37  74 2.37
  42  0.000  0.250  0.250-   9 2.37  33 2.37  41 2.37  47 2.37
  43  0.312  0.312  0.312-  44 2.37  46 2.37  52 2.37  76 2.37
  44  0.250  0.250  0.250-  11 2.37  35 2.37  41 2.37  43 2.37
  45  0.562  0.312  0.312-  46 2.37  48 2.37  54 2.37  78 2.37
  46  0.500  0.250  0.250-  13 2.37  37 2.37  43 2.37  45 2.37
  47  0.812  0.312  0.312-  42 2.37  48 2.37  56 2.37  80 2.37
  48  0.750  0.250  0.250-  15 2.37  39 2.37  45 2.37  47 2.37
  49  0.062  0.562  0.312-  50 2.37  52 2.37  58 2.37  82 2.37
  50  0.000  0.500  0.250-  17 2.37  41 2.37  49 2.37  55 2.37
  51  0.312  0.562  0.312-  52 2.37  54 2.37  60 2.37  84 2.37
  52  0.250  0.500  0.250-  19 2.37  43 2.37  49 2.37  51 2.37
  53  0.562  0.562  0.312-  54 2.37  56 2.37  62 2.37  86 2.37
  54  0.500  0.500  0.250-  21 2.37  45 2.37  51 2.37  53 2.37
  55  0.812  0.562  0.312-  50 2.37  56 2.37  64 2.37  88 2.37
  56  0.750  0.500  0.250-  23 2.37  47 2.37  53 2.37  55 2.37
  57  0.062  0.812  0.312-  34 2.37  58 2.37  60 2.37  90 2.37
  58  0.000  0.750  0.250-  25 2.37  49 2.37  57 2.37  63 2.37
  59  0.312  0.812  0.312-  36 2.37  60 2.37  62 2.37  92 2.37
  60  0.250  0.750  0.250-  27 2.37  51 2.37  57 2.37  59 2.37
  61  0.562  0.812  0.312-  38 2.37  62 2.37  64 2.37  94 2.37
  62  0.500  0.750  0.250-  29 2.37  53 2.37  59 2.37  61 2.37
  63  0.812  0.812  0.312-  40 2.37  58 2.37  64 2.37  96 2.37
  64  0.750  0.750  0.250-  31 2.37  55 2.37  61 2.37  63 2.37
  65  0.062  0.062  0.562-  66 2.37  68 2.37  74 2.37  98 2.37
  66  0.000  0.000  0.500-  33 2.37  65 2.37  71 2.37  89 2.37
  67  0.312  0.062  0.562-  68 2.37  70 2.37  76 2.37 100 2.37
  68  0.250  0.000  0.500-  35 2.37  65 2.37  67 2.37  91 2.37
  69  0.562  0.062  0.562-  70 2.37  72 2.37  78 2.37 102 2.37
  70  0.500  0.000  0.500-  37 2.37  67 2.37  69 2.37  93 2.37
  71  0.812  0.062  0.562-  66 2.37  72 2.37  80 2.37 104 2.37
  72  0.750  0.000  0.500-  39 2.37  69 2.37  71 2.37  95 2.37
  73  0.062  0.312  0.562-  74 2.37  76 2.37  82 2.37 106 2.37
  74  0.000  0.250  0.500-  41 2.37  65 2.37  73 2.37  79 2.37
  75  0.312  0.312  0.562-  76 2.37  78 2.37  84 2.37 108 2.37
  76  0.250  0.250  0.500-  43 2.37  67 2.37  73 2.37  75 2.37
  77  0.562  0.312  0.562-  78 2.37  80 2.37  86 2.37 110 2.37
  78  0.500  0.250  0.500-  45 2.37  69 2.37  75 2.37  77 2.37
  79  0.812  0.312  0.562-  74 2.37  80 2.37  88 2.37 112 2.37
  80  0.750  0.250  0.500-  47 2.37  71 2.37  77 2.37  79 2.37
  81  0.062  0.562  0.562-  82 2.37  84 2.37  90 2.37 114 2.37
  82  0.000  0.500  0.500-  49 2.37  73 2.37  81 2.37  87 2.37
  83  0.312  0.562  0.562-  84 2.37  86 2.37  92 2.37 116 2.37
  84  0.250  0.500  0.500-  51 2.37  75 2.37  81 2.37  83 2.37
  85  0.562  0.562  0.562-  86 2.37  88 2.37  94 2.37 118 2.37
  86  0.500  0.500  0.500-  53 2.37  77 2.37  83 2.37  85 2.37
  87  0.812  0.562  0.562-  82 2.37  88 2.37  96 2.37 120 2.37
  88  0.750  0.500  0.500-  55 2.37  79 2.37  85 2.37  87 2.37
  89  0.062  0.812  0.562-  66 2.37  90 2.37  92 2.37 122 2.37
  90  0.000  0.750  0.500-  57 2.37  81 2.37  89 2.37  95 2.37
  91  0.312  0.812  0.562-  68 2.37  92 2.37  94 2.37 124 2.37
  92  0.250  0.750  0.500-  59 2.37  83 2.37  89 2.37  91 2.37
  93  0.562  0.812  0.562-  70 2.37  94 2.37  96 2.37 126 2.37
  94  0.500  0.750  0.500-  61 2.37  85 2.37  91 2.37  93 2.37
  95  0.812  0.812  0.562-  72 2.37  90 2.37  96 2.37 128 2.37
  96  0.750  0.750  0.500-  63 2.37  87 2.37  93 2.37  95 2.37
  97  0.062  0.062  0.812-   2 2.37  98 2.37 100 2.37 106 2.37
  98  0.000  0.000  0.750-  65 2.37  97 2.37 103 2.37 121 2.37
  99  0.312  0.062  0.812-   4 2.37 100 2.37 102 2.37 108 2.37
 100  0.250  0.000  0.750-  67 2.37  97 2.37  99 2.37 123 2.37
 101  0.562  0.062  0.812-   6 2.36 102 2.37 104 2.37 110 2.37
 102  0.500  0.000  0.750-  69 2.37  99 2.37 101 2.37 125 2.37
 103  0.812  0.062  0.812-   8 2.37  98 2.37 104 2.37 112 2.37
 104  0.750  0.000  0.750-  71 2.37 101 2.37 103 2.37 127 2.37
 105  0.062  0.312  0.812-  10 2.37 106 2.37 108 2.37 114 2.37
 106  0.000  0.250  0.750-  73 2.37  97 2.37 105 2.37 111 2.37
 107  0.312  0.312  0.812-  12 2.37 108 2.37 110 2.37 116 2.37
 108  0.250  0.250  0.750-  75 2.37  99 2.37 105 2.37 107 2.37
 109  0.562  0.312  0.812-  14 2.37 110 2.37 112 2.37 118 2.37
 110  0.500  0.250  0.750-  77 2.37 101 2.37 107 2.37 109 2.37
 111  0.812  0.312  0.812-  16 2.37 106 2.37 112 2.37 120 2.37
 112  0.750  0.250  0.750-  79 2.37 103 2.37 109 2.37 111 2.37
 113  0.062  0.562  0.812-  18 2.37 114 2.37 116 2.37 122 2.37
 114  0.000  0.500  0.750-  81 2.37 105 2.37 113 2.37 119 2.37
 115  0.312  0.562  0.812-  20 2.37 116 2.37 118 2.37 124 2.37
 116  0.250  0.500  0.750-  83 2.37 107 2.37 113 2.37 115 2.37
 117  0.562  0.562  0.812-  22 2.37 118 2.37 120 2.37 126 2.37
 118  0.500  0.500  0.750-  85 2.37 109 2.37 115 2.37 117 2.37
 119  0.812  0.562  0.812-  24 2.37 114 2.37 120 2.37 128 2.37
 120  0.750  0.500  0.750-  87 2.37 111 2.37 117 2.37 119 2.37
 121  0.062  0.812  0.812-  26 2.37  98 2.37 122 2.37 124 2.37
 122  0.000  0.750  0.750-  89 2.37 113 2.37 121 2.37 127 2.37
 123  0.312  0.812  0.812-  28 2.37 100 2.37 124 2.37 126 2.37
 124  0.250  0.750  0.750-  91 2.37 115 2.37 121 2.37 123 2.37
 125  0.562  0.812  0.812-  30 2.37 102 2.37 126 2.37 128 2.37
 126  0.500  0.750  0.750-  93 2.37 117 2.37 123 2.37 125 2.37
 127  0.812  0.812  0.812-  32 2.37 104 2.37 122 2.37 128 2.37
 128  0.750  0.750  0.750-  95 2.37 119 2.37 125 2.37 127 2.37
 

IMPORTANT INFORMATION: All symmetrisations will be switched off!
NOSYMM: (Re-)initialisation of all symmetry stuff for point group C_1.

 
 
 KPOINTS: K-Spacing Value to Generate K-Mesh: 0.03

Automatic generation of k-mesh.
Space group operators:
 irot       det(A)        alpha          n_x          n_y          n_z        tau_x        tau_y        tau_z
    1     1.000000     0.000000     1.000000     0.000000     0.000000     0.000000     0.000000     0.000000
 
 Subroutine IBZKPT returns following result:
 ===========================================
 
 Found      1 irreducible k-points:
 
 Following reciprocal coordinates:
            Coordinates               Weight
  0.000000  0.000000  0.000000      1.000000
 
 Following cartesian coordinates:
            Coordinates               Weight
  0.000000  0.000000  0.000000      1.000000
 


--------------------------------------------------------------------------------------------------------




 Dimension of arrays:
   k-points           NKPTS =      1   k-points in BZ     NKDIM =      1   number of bands    NBANDS=    322
   number of dos      NEDOS =    301   number of ions     NIONS =    128
   non local maximal  LDIM  =      4   non local SUM 2l+1 LMDIM =      8
   total plane-waves  NPLWV = ******
   max r-space proj   IRMAX =      1   max aug-charges    IRDMAX= 176819
   dimension x,y,z NGX =   120 NGY =  120 NGZ =  120
   dimension x,y,z NGXF=   240 NGYF=  240 NGZF=  240
   support grid    NGXF=   480 NGYF=  480 NGZF=  480
   ions per type =             128
   NGX,Y,Z   is equivalent  to a cutoff of  12.90, 12.90, 12.90 a.u.
   NGXF,Y,Z  is equivalent  to a cutoff of  25.80, 25.80, 25.80 a.u.

 SYSTEM =  unknown system                          
 POSCAR =  Si                                      

 Startparameter for this run:
   NWRITE =      2    write-flag & timer
   PREC   = accura    normal or accurate (medium, high low for compatibility)
   ISTART =      0    job   : 0-new  1-cont  2-samecut
   ICHARG =      2    charge: 1-file 2-atom 10-const
   ISPIN  =      1    spin polarized calculation?
   LNONCOLLINEAR =      F non collinear calculations
   LSORBIT =      F    spin-orbit coupling
   INIWAV =      1    electr: 0-lowe 1-rand  2-diag
   LASPH  =      F    aspherical Exc in radial PAW
   METAGGA=      F    non-selfconsistent MetaGGA calc.

 Electronic Relaxation 1
   ENCUT  =  500.0 eV  36.75 Ry    6.06 a.u.  28.20 28.20 28.20*2*pi/ulx,y,z
   ENINI  =  500.0     initial cutoff
   ENAUG  =  322.1 eV  augmentation charge cutoff
   NELM   =     60;   NELMIN=  2; NELMDL= -5     # of ELM steps 
   EDIFF  = 0.1E-07   stopping-criterion for ELM
   LREAL  =      F    real-space projection
   NLSPLINE    = F    spline interpolate recip. space projectors
   LCOMPAT=      F    compatible to vasp.4.4
   GGA_COMPAT  = T    GGA compatible to vasp.4.4-vasp.4.6
   LMAXPAW     = -100 max onsite density
   LMAXMIX     =    2 max onsite mixed and CHGCAR
   VOSKOWN=      0    Vosko Wilk Nusair interpolation
   ROPT   =    0.00000
 Ionic relaxation
   EDIFFG = 0.1E-06   stopping-criterion for IOM
   NSW    =      0    number of steps for IOM
   NBLOCK =      1;   KBLOCK =      1    inner block; outer block 
   IBRION =     -1    ionic relax: 0-MD 1-quasi-New 2-CG
   NFREE  =      0    steps in history (QN), initial steepest desc. (CG)
   ISIF   =      2    stress and relaxation
   IWAVPR =     10    prediction:  0-non 1-charg 2-wave 3-comb
   ISYM   =      0    0-nonsym 1-usesym 2-fastsym
   LCORR  =      T    Harris-Foulkes like correction to forces

   POTIM  = 0.5000    time-step for ionic-motion
   TEIN   =    0.0    initial temperature
   TEBEG  =    0.0;   TEEND  =   0.0 temperature during run
   SMASS  =  -3.00    Nose mass-parameter (am)
   estimated Nose-frequenzy (Omega)   =  0.10E-29 period in steps =****** mass=  -0.547E-26a.u.
   SCALEE = 1.0000    scale energy and forces
   NPACO  =    256;   APACO  = 16.0  distance and # of slots for P.C.
   PSTRESS=    0.0 pullay stress

  Mass of Ions in am
   POMASS =  28.09
  Ionic Valenz
   ZVAL   =   4.00
  Atomic Wigner-Seitz radii
   RWIGS  =  -1.00
  virtual crystal weights 
   VCA    =   1.00
   NELECT =     512.0000    total number of electrons
   NUPDOWN=      -1.0000    fix difference up-down

 DOS related values:
   EMIN   =  10.00;   EMAX   =-10.00  energy-range for DOS
   EFERMI =   0.00
   ISMEAR =     0;   SIGMA  =   0.05  broadening in eV -4-tet -1-fermi 0-gaus

 Electronic relaxation 2 (details)
   IALGO  =     38    algorithm
   LDIAG  =      T    sub-space diagonalisation (order eigenvalues)
   LSUBROT=      F    optimize rotation matrix (better conditioning)
   TURBO    =      0    0=normal 1=particle mesh
   IRESTART =      0    0=no restart 2=restart with 2 vectors
   NREBOOT  =      0    no. of reboots
   NMIN     =      0    reboot dimension
   EREF     =   0.00    reference energy to select bands
   IMIX   =      4    mixing-type and parameters
     AMIX     =   0.40;   BMIX     =  1.00
     AMIX_MAG =   1.60;   BMIX_MAG =  1.00
     AMIN     =   0.10
     WC   =   100.;   INIMIX=   1;  MIXPRE=   1;  MAXMIX= -45

 Intra band minimization:
   WEIMIN = 0.0000     energy-eigenvalue tresh-hold
   EBREAK =  0.78E-11  absolut break condition
   DEPER  =   0.30     relativ break condition  

   TIME   =   0.40     timestep for ELM

  volume/ion in A,a.u.               =      20.44       137.95
  Fermi-wavevector in a.u.,A,eV,Ry     =   0.950423  1.796039 12.290193  0.903304
  Thomas-Fermi vector in A             =   2.078798
 
 Write flags
   LWAVE        =      F    write WAVECAR
   LDOWNSAMPLE  =      F    k-point downsampling of WAVECAR
   LCHARG       =      F    write CHGCAR
   LVTOT        =      F    write LOCPOT, total local potential
   LVHAR        =      F    write LOCPOT, Hartree potential only
   LELF         =      F    write electronic localiz. function (ELF)
   LORBIT       =      0    0 simple, 1 ext, 2 COOP (PROOUT), +10 PAW based schemes


 Dipole corrections
   LMONO  =      F    monopole corrections only (constant potential shift)
   LDIPOL =      F    correct potential (dipole corrections)
   IDIPOL =      0    1-x, 2-y, 3-z, 4-all directions 
   EPSILON=  1.0000000 bulk dielectric constant

 Exchange correlation treatment:
   GGA     =    --    GGA type
   LEXCH   =     8    internal setting for exchange type
   VOSKOWN=      0    Vosko Wilk Nusair interpolation
   LHFCALC =     F    Hartree Fock is set to
   LHFONE  =     F    Hartree Fock one center treatment
   AEXX    =    0.0000 exact exchange contribution

 Linear response parameters
   LEPSILON=     F    determine dielectric tensor
   LRPA    =     F    only Hartree local field effects (RPA)
   LNABLA  =     F    use nabla operator in PAW spheres
   LVEL    =     F    velocity operator in full k-point grid
   LINTERFAST=   F  fast interpolation
   KINTER  =     0    interpolate to denser k-point grid
   CSHIFT  =0.1000    complex shift for real part using Kramers Kronig
   OMEGAMAX=  -1.0    maximum frequency
   DEG_THRESHOLD= 0.2000000E-02 threshold for treating states as degnerate
   RTIME   =   -0.100 relaxation time in fs
  (WPLASMAI=    0.000 imaginary part of plasma frequency in eV, 0.658/RTIME)
   DFIELD  = 0.0000000 0.0000000 0.0000000 field for delta impulse in time
 
 Orbital magnetization related:
   ORBITALMAG=     F  switch on orbital magnetization
   LCHIMAG   =     F  perturbation theory with respect to B field
   DQ        =  0.001000  dq finite difference perturbation B field
   LLRAUG    =     F  two centre corrections for induced B field



--------------------------------------------------------------------------------------------------------


 Static calculation
 charge density and potential will be updated during run
 non-spin polarized calculation
 Variant of blocked Davidson
 Davidson routine will perform the subspace rotation
 perform sub-space diagonalisation
    after iterative eigenvector-optimisation
 modified Broyden-mixing scheme, WC =      100.0
 initial mixing is a Kerker type mixing with AMIX =  0.4000 and BMIX =      1.0000
 Hartree-type preconditioning will be used
 using additional bands           66
 reciprocal scheme for non local part
 use partial core corrections
 calculate Harris-corrections to forces 
   (improved forces if not selfconsistent)
 use gradient corrections 
 use of overlap-Matrix (Vanderbilt PP)
 Gauss-broadening in eV      SIGMA  =   0.05


--------------------------------------------------------------------------------------------------------


  energy-cutoff  :      500.00
  volume of cell :     2616.64
      direct lattice vectors                 reciprocal lattice vectors
     0.000000000 10.937160696 10.937160696    -0.045715704  0.045715704  0.045715704
    10.937160696  0.000000000 10.937160696     0.045715704 -0.045715704  0.045715704
    10.937160696 10.937160696  0.000000000     0.045715704  0.045715704 -0.045715704

  length of vectors
    15.467480990 15.467480990 15.467480990     0.079181922  0.079181922  0.079181922


 
 k-points in units of 2pi/SCALE and weight: K-Spacing Value to Generate K-Mesh: 0.03
   0.00000000  0.00000000  0.00000000       1.000
 
 k-points in reciprocal lattice and weights: K-Spacing Value to Generate K-Mesh: 0.03
   0.00000000  0.00000000  0.00000000       1.000
 
 position of ions in fractional coordinates (direct lattice) 
   0.06204284  0.06295716  0.06295716
   0.00000000  0.00000000  0.00000000
   0.31250000  0.06250000  0.06250000
   0.25000000  0.00000000  0.00000000
   0.56250000  0.06250000  0.06250000
   0.50045716  0.00045716  0.99954284
   0.81250000  0.06250000  0.06250000
   0.75000000  0.00000000  0.00000000
   0.06250000  0.31250000  0.06250000
   0.00000000  0.25000000  0.00000000
   0.31250000  0.31250000  0.06250000
   0.25000000  0.25000000  0.00000000
   0.56250000  0.31250000  0.06250000
   0.50000000  0.25000000  0.00000000
   0.81250000  0.31250000  0.06250000
   0.75000000  0.25000000  0.00000000
   0.06250000  0.56250000  0.06250000
   0.00000000  0.50000000  0.00000000
   0.31250000  0.56250000  0.06250000
   0.25000000  0.50000000  0.00000000
   0.56250000  0.56250000  0.06250000
   0.50000000  0.50000000  0.00000000
   0.81250000  0.56250000  0.06250000
   0.75000000  0.50000000  0.00000000
   0.06250000  0.81250000  0.06250000
   0.00000000  0.75000000  0.00000000
   0.31250000  0.81250000  0.06250000
   0.25000000  0.75000000  0.00000000
   0.56250000  0.81250000  0.06250000
   0.50000000  0.75000000  0.00000000
   0.81250000  0.81250000  0.06250000
   0.75000000  0.75000000  0.00000000
   0.06250000  0.06250000  0.31250000
   0.00000000  0.00000000  0.25000000
   0.31250000  0.06250000  0.31250000
   0.25000000  0.00000000  0.25000000
   0.56250000  0.06250000  0.31250000
   0.50000000  0.00000000  0.25000000
   0.81250000  0.06250000  0.31250000
   0.75000000  0.00000000  0.25000000
   0.06250000  0.31250000  0.31250000
   0.00000000  0.25000000  0.25000000
   0.31250000  0.31250000  0.31250000
   0.25000000  0.25000000  0.25000000
   0.56250000  0.31250000  0.31250000
   0.50000000  0.25000000  0.25000000
   0.81250000  0.31250000  0.31250000
   0.75000000  0.25000000  0.25000000
   0.06250000  0.56250000  0.31250000
   0.00000000  0.50000000  0.25000000
   0.31250000  0.56250000  0.31250000
   0.25000000  0.50000000  0.25000000
   0.56250000  0.56250000  0.31250000
   0.50000000  0.50000000  0.25000000
   0.81250000  0.56250000  0.31250000
   0.75000000  0.50000000  0.25000000
   0.06250000  0.81250000  0.31250000
   0.00000000  0.75000000  0.25000000
   0.31250000  0.81250000  0.31250000
   0.25000000  0.75000000  0.25000000
   0.56250000  0.81250000  0.31250000
   0.50000000  0.75000000  0.25000000
   0.81250000  0.81250000  0.31250000
   0.75000000  0.75000000  0.25000000
   0.06250000  0.06250000  0.56250000
   0.00000000  0.00000000  0.50000000
   0.31250000  0.06250000  0.56250000
   0.25000000  0.00000000  0.50000000
   0.56250000  0.06250000  0.56250000
   0.50000000  0.00000000  0.50000000
   0.81250000  0.06250000  0.56250000
   0.75000000  0.00000000  0.50000000
   0.06250000  0.31250000  0.56250000
   0.00000000  0.25000000  0.50000000
   0.31250000  0.31250000  0.56250000
   0.25000000  0.25000000  0.50000000
   0.56250000  0.31250000  0.56250000
   0.50000000  0.25000000  0.50000000
   0.81250000  0.31250000  0.56250000
   0.75000000  0.25000000  0.50000000
   0.06250000  0.56250000  0.56250000
   0.00000000  0.50000000  0.50000000
   0.31250000  0.56250000  0.56250000
   0.25000000  0.50000000  0.50000000
   0.56250000  0.56250000  0.56250000
   0.50000000  0.50000000  0.50000000
   0.81250000  0.56250000  0.56250000
   0.75000000  0.50000000  0.50000000
   0.06250000  0.81250000  0.56250000
   0.00000000  0.75000000  0.50000000
   0.31250000  0.81250000  0.56250000
   0.25000000  0.75000000  0.50000000
   0.56250000  0.81250000  0.56250000
   0.50000000  0.75000000  0.50000000
   0.81250000  0.81250000  0.56250000
   0.75000000  0.75000000  0.50000000
   0.06250000  0.06250000  0.81250000
   0.00000000  0.00000000  0.75000000
   0.31250000  0.06250000  0.81250000
   0.25000000  0.00000000  0.75000000
   0.56250000  0.06250000  0.81250000
   0.50000000  0.00000000  0.75000000
   0.81250000  0.06250000  0.81250000
   0.75000000  0.00000000  0.75000000
   0.06250000  0.31250000  0.81250000
   0.00000000  0.25000000  0.75000000
   0.31250000  0.31250000  0.81250000
   0.25000000  0.25000000  0.75000000
   0.56250000  0.31250000  0.81250000
   0.50000000  0.25000000  0.75000000
   0.81250000  0.31250000  0.81250000
   0.75000000  0.25000000  0.75000000
   0.06250000  0.56250000  0.81250000
   0.00000000  0.50000000  0.75000000
   0.31250000  0.56250000  0.81250000
   0.25000000  0.50000000  0.75000000
   0.56250000  0.56250000  0.81250000
   0.50000000  0.50000000  0.75000000
   0.81250000  0.56250000  0.81250000
   0.75000000  0.50000000  0.75000000
   0.06250000  0.81250000  0.81250000
   0.00000000  0.75000000  0.75000000
   0.31250000  0.81250000  0.81250000
   0.25000000  0.75000000  0.75000000
   0.56250000  0.81250000  0.81250000
   0.50000000  0.75000000  0.75000000
   0.81250000  0.81250000  0.81250000
   0.75000000  0.75000000  0.75000000
 
 position of ions in cartesian coordinates  (Angst):
   1.37714509  1.36714509  1.36714509
   0.00000000  0.00000000  0.00000000
   1.36714509  4.10143526  4.10143526
   0.00000000  2.73429017  2.73429017
   1.36714509  6.83572544  6.83572544
  10.93716070 16.40574104  5.47858035
   1.36714509  9.57001561  9.57001561
   0.00000000  8.20287052  8.20287052
   4.10143526  1.36714509  4.10143526
   2.73429017  0.00000000  2.73429017
   4.10143526  4.10143526  6.83572544
   2.73429017  2.73429017  5.46858035
   4.10143526  6.83572544  9.57001561
   2.73429017  5.46858035  8.20287052
   4.10143526  9.57001561 12.30430578
   2.73429017  8.20287052 10.93716070
   6.83572544  1.36714509  6.83572544
   5.46858035  0.00000000  5.46858035
   6.83572544  4.10143526  9.57001561
   5.46858035  2.73429017  8.20287052
   6.83572544  6.83572544 12.30430578
   5.46858035  5.46858035 10.93716070
   6.83572544  9.57001561 15.03859596
   5.46858035  8.20287052 13.67145087
   9.57001561  1.36714509  9.57001561
   8.20287052  0.00000000  8.20287052
   9.57001561  4.10143526 12.30430578
   8.20287052  2.73429017 10.93716070
   9.57001561  6.83572544 15.03859596
   8.20287052  5.46858035 13.67145087
   9.57001561  9.57001561 17.77288613
   8.20287052  8.20287052 16.40574104
   4.10143526  4.10143526  1.36714509
   2.73429017  2.73429017  0.00000000
   4.10143526  6.83572544  4.10143526
   2.73429017  5.46858035  2.73429017
   4.10143526  9.57001561  6.83572544
   2.73429017  8.20287052  5.46858035
   4.10143526 12.30430578  9.57001561
   2.73429017 10.93716070  8.20287052
   6.83572544  4.10143526  4.10143526
   5.46858035  2.73429017  2.73429017
   6.83572544  6.83572544  6.83572544
   5.46858035  5.46858035  5.46858035
   6.83572544  9.57001561  9.57001561
   5.46858035  8.20287052  8.20287052
   6.83572544 12.30430578 12.30430578
   5.46858035 10.93716070 10.93716070
   9.57001561  4.10143526  6.83572544
   8.20287052  2.73429017  5.46858035
   9.57001561  6.83572544  9.57001561
   8.20287052  5.46858035  8.20287052
   9.57001561  9.57001561 12.30430578
   8.20287052  8.20287052 10.93716070
   9.57001561 12.30430578 15.03859596
   8.20287052 10.93716070 13.67145087
  12.30430578  4.10143526  9.57001561
  10.93716070  2.73429017  8.20287052
  12.30430578  6.83572544 12.30430578
  10.93716070  5.46858035 10.93716070
  12.30430578  9.57001561 15.03859596
  10.93716070  8.20287052 13.67145087
  12.30430578 12.30430578 17.77288613
  10.93716070 10.93716070 16.40574104
   6.83572544  6.83572544  1.36714509
   5.46858035  5.46858035  0.00000000
   6.83572544  9.57001561  4.10143526
   5.46858035  8.20287052  2.73429017
   6.83572544 12.30430578  6.83572544
   5.46858035 10.93716070  5.46858035
   6.83572544 15.03859596  9.57001561
   5.46858035 13.67145087  8.20287052
   9.57001561  6.83572544  4.10143526
   8.20287052  5.46858035  2.73429017
   9.57001561  9.57001561  6.83572544
   8.20287052  8.20287052  5.46858035
   9.57001561 12.30430578  9.57001561
   8.20287052 10.93716070  8.20287052
   9.57001561 15.03859596 12.30430578
   8.20287052 13.67145087 10.93716070
  12.30430578  6.83572544  6.83572544
  10.93716070  5.46858035  5.46858035
  12.30430578  9.57001561  9.57001561
  10.93716070  8.20287052  8.20287052
  12.30430578 12.30430578 12.30430578
  10.93716070 10.93716070 10.93716070
  12.30430578 15.03859596 15.03859596
  10.93716070 13.67145087 13.67145087
  15.03859596  6.83572544  9.57001561
  13.67145087  5.46858035  8.20287052
  15.03859596  9.57001561 12.30430578
  13.67145087  8.20287052 10.93716070
  15.03859596 12.30430578 15.03859596
  13.67145087 10.93716070 13.67145087
  15.03859596 15.03859596 17.77288613
  13.67145087 13.67145087 16.40574104
   9.57001561  9.57001561  1.36714509
   8.20287052  8.20287052  0.00000000
   9.57001561 12.30430578  4.10143526
   8.20287052 10.93716070  2.73429017
   9.57001561 15.03859596  6.83572544
   8.20287052 13.67145087  5.46858035
   9.57001561 17.77288613  9.57001561
   8.20287052 16.40574104  8.20287052
  12.30430578  9.57001561  4.10143526
  10.93716070  8.20287052  2.73429017
  12.30430578 12.30430578  6.83572544
  10.93716070 10.93716070  5.46858035
  12.30430578 15.03859596  9.57001561
  10.93716070 13.67145087  8.20287052
  12.30430578 17.77288613 12.30430578
  10.93716070 16.40574104 10.93716070
  15.03859596  9.57001561  6.83572544
  13.67145087  8.20287052  5.46858035
  15.03859596 12.30430578  9.57001561
  13.67145087 10.93716070  8.20287052
  15.03859596 15.03859596 12.30430578
  13.67145087 13.67145087 10.93716070
  15.03859596 17.77288613 15.03859596
  13.67145087 16.40574104 13.67145087
  17.77288613  9.57001561  9.57001561
  16.40574104  8.20287052  8.20287052
  17.77288613 12.30430578 12.30430578
  16.40574104 10.93716070 10.93716070
  17.77288613 15.03859596 15.03859596
  16.40574104 13.67145087 13.67145087
  17.77288613 17.77288613 17.77288613
  16.40574104 16.40574104 16.40574104
 


--------------------------------------------------------------------------------------------------------


 k-point  1 :   0.0000 0.0000 0.0000  plane waves:   66299

 maximum and minimum number of plane-waves per node :      3320     3310

 maximum number of plane-waves:     66299
 maximum index in each direction: 
   IXMAX=   28   IYMAX=   28   IZMAX=   28
   IXMIN=  -28   IYMIN=  -28   IZMIN=  -28


 parallel 3D FFT for wavefunctions:
    minimum data exchange during FFTs selected (reduces bandwidth)
 parallel 3D FFT for charge:
    minimum data exchange during FFTs selected (reduces bandwidth)


 total amount of memory used by VASP MPI-rank0   118934. kBytes
=======================================================================

   base      :      30000. kBytes
   nonl-proj :       7011. kBytes
   fftplans  :      53058. kBytes
   grid      :      20148. kBytes
   one-center:         21. kBytes
   wavefun   :       8696. kBytes
 
     INWAV:  cpu time    0.0000: real time    0.0000
 Broyden mixing: mesh for mixing (old mesh)
   NGX = 57   NGY = 57   NGZ = 57
  (NGX  =240   NGY  =240   NGZ  =240)
  gives a total of 185193 points

 initial charge density was supplied:
 charge density of overlapping atoms calculated
 number of electron     512.0000000 magnetization 
 keeping initial charge density in first step


--------------------------------------------------------------------------------------------------------


 Maximum index for augmentation-charges         4439 (set IRDMAX)


--------------------------------------------------------------------------------------------------------


 First call to EWALD:  gamma=   0.129
 Maximum number of real-space cells 3x 3x 3
 Maximum number of reciprocal cells 3x 3x 3

    FEWALD:  cpu time    0.0057: real time    0.0057


--------------------------------------- Iteration      1(   1)  ---------------------------------------


    POTLOK:  cpu time    0.2303: real time    0.2372
    SETDIJ:  cpu time    0.2924: real time    0.2932
     EDDAV:  cpu time    4.8454: real time    4.8577
       DOS:  cpu time    0.0006: real time    0.0006
    --------------------------------------------
      LOOP:  cpu time    5.3687: real time    5.3886

 eigenvalue-minimisations  :   644
 total energy-change (2. order) : 0.1374883E+04  (-0.1908717E+05)
 number of electron     512.0000000 magnetization 
 augmentation part      512.0000000 magnetization 

 Free energy of the ion-electron system (eV)
  ---------------------------------------------------
  alpha Z        PSCENC =       210.78028765
  Ewald energy   TEWEN  =    -14524.86517344
  -Hartree energ DENC   =      -724.62057581
  -exchange      EXHF   =         0.00000000
  -V(xc)+E(xc)   XCENC  =     -1195.83148083
  PAW double counting   =      4221.13331941    -1969.18571412
  entropy T*S    EENTRO =        -0.01552799
  eigenvalues    EBANDS =      2165.00676625
  atomic energy  EATOM  =     13192.48085998
  Solvation  Ediel_sol  =         0.00000000
  ---------------------------------------------------
  free energy    TOTEN  =      1374.88276109 eV

  energy without entropy =     1374.89828909  energy(sigma->0) =     1374.89052509


--------------------------------------------------------------------------------------------------------




--------------------------------------- Iteration      1(   2)  ---------------------------------------


     EDDAV:  cpu time    5.4744: real time    5.4883
       DOS:  cpu time    0.0005: real time    0.0006
    --------------------------------------------
      LOOP:  cpu time    5.4749: real time    5.4888

 eigenvalue-minimisations  :   758
 total energy-change (2. order) :-0.1911905E+04  (-0.1811829E+04)
 number of electron     512.0000000 magnetization 
 augmentation part      512.0000000 magnetization 

 Free energy of the ion-electron system (eV)
  ---------------------------------------------------
  alpha Z        PSCENC =       210.78028765
  Ewald energy   TEWEN  =    -14524.86517344
  -Hartree energ DENC   =      -724.62057581
  -exchange      EXHF   =         0.00000000
  -V(xc)+E(xc)   XCENC  =     -1195.83148083
  PAW double counting   =      4221.13331941    -1969.18571412
  entropy T*S    EENTRO =        -0.00000179
  eigenvalues    EBANDS =       253.08663557
  atomic energy  EATOM  =     13192.48085998
  Solvation  Ediel_sol  =         0.00000000
  ---------------------------------------------------
  free energy    TOTEN  =      -537.02184338 eV

  energy without entropy =     -537.02184159  energy(sigma->0) =     -537.02184249


--------------------------------------------------------------------------------------------------------




--------------------------------------- Iteration      1(   3)  ---------------------------------------


     EDDAV:  cpu time    5.5197: real time    5.5343
       DOS:  cpu time    0.0003: real time    0.0003
    --------------------------------------------
      LOOP:  cpu time    5.5200: real time    5.5346

 eigenvalue-minimisations  :   768
 total energy-change (2. order) :-0.1530022E+03  (-0.1483197E+03)
 number of electron     512.0000000 magnetization 
 augmentation part      512.0000000 magnetization 

 Free energy of the ion-electron system (eV)
  ---------------------------------------------------
  alpha Z        PSCENC =       210.78028765
  Ewald energy   TEWEN  =    -14524.86517344
  -Hartree energ DENC   =      -724.62057581
  -exchange      EXHF   =         0.00000000
  -V(xc)+E(xc)   XCENC  =     -1195.83148083
  PAW double counting   =      4221.13331941    -1969.18571412
  entropy T*S    EENTRO =        -0.00000000
  eigenvalues    EBANDS =       100.08446080
  atomic energy  EATOM  =     13192.48085998
  Solvation  Ediel_sol  =         0.00000000
  ---------------------------------------------------
  free energy    TOTEN  =      -690.02401636 eV

  energy without entropy =     -690.02401636  energy(sigma->0) =     -690.02401636


--------------------------------------------------------------------------------------------------------




--------------------------------------- Iteration      1(   4)  ---------------------------------------


     EDDAV:  cpu time    5.4318: real time    5.4448
       DOS:  cpu time    0.0004: real time    0.0004
    --------------------------------------------
      LOOP:  cpu time    5.4322: real time    5.4452

 eigenvalue-minimisations  :   752
 total energy-change (2. order) :-0.4509234E+01  (-0.4453396E+01)
 number of electron     512.0000000 magnetization 
 augmentation part      512.0000000 magnetization 

 Free energy of the ion-electron system (eV)
  ---------------------------------------------------
  alpha Z        PSCENC =       210.78028765
  Ewald energy   TEWEN  =    -14524.86517344
  -Hartree energ DENC   =      -724.62057581
  -exchange      EXHF   =         0.00000000
  -V(xc)+E(xc)   XCENC  =     -1195.83148083
  PAW double counting   =      4221.13331941    -1969.18571412
  entropy T*S    EENTRO =        -0.00000000
  eigenvalues    EBANDS =        95.57522723
  atomic energy  EATOM  =     13192.48085998
  Solvation  Ediel_sol  =         0.00000000
  ---------------------------------------------------
  free energy    TOTEN  =      -694.53324993 eV

  energy without entropy =     -694.53324993  energy(sigma->0) =     -694.53324993


--------------------------------------------------------------------------------------------------------




--------------------------------------- Iteration      1(   5)  ---------------------------------------


     EDDAV:  cpu time    5.5058: real time    5.5195
       DOS:  cpu time    0.0004: real time    0.0004
    CHARGE:  cpu time    0.5152: real time    0.5164
    MIXING:  cpu time    0.0119: real time    0.0120
    --------------------------------------------
      LOOP:  cpu time    6.0333: real time    6.0484

 eigenvalue-minimisations  :   752
 total energy-change (2. order) :-0.1665666E+00  (-0.1658827E+00)
 number of electron     511.9999999 magnetization 
 augmentation part      -29.7897297 magnetization 

 Broyden mixing:
  rms(total) = 0.24757E+01    rms(broyden)= 0.24757E+01
  rms(prec ) = 0.29958E+01
  weight for this iteration     100.00

 Free energy of the ion-electron system (eV)
  ---------------------------------------------------
  alpha Z        PSCENC =       210.78028765
  Ewald energy   TEWEN  =    -14524.86517344
  -Hartree energ DENC   =      -724.62057581
  -exchange      EXHF   =         0.00000000
  -V(xc)+E(xc)   XCENC  =     -1195.83148083
  PAW double counting   =      4221.13331941    -1969.18571412
  entropy T*S    EENTRO =        -0.00000000
  eigenvalues    EBANDS =        95.40866067
  atomic energy  EATOM  =     13192.48085998
  Solvation  Ediel_sol  =         0.00000000
  ---------------------------------------------------
  free energy    TOTEN  =      -694.69981649 eV

  energy without entropy =     -694.69981649  energy(sigma->0) =     -694.69981649


--------------------------------------------------------------------------------------------------------




--------------------------------------- Iteration      1(   6)  ---------------------------------------


    POTLOK:  cpu time    0.2272: real time    0.2284
    SETDIJ:  cpu time    0.2816: real time    0.2823
     EDDAV:  cpu time    5.1515: real time    5.1638
       DOS:  cpu time    0.0004: real time    0.0004
    CHARGE:  cpu time    0.5054: real time    0.5066
    MIXING:  cpu time    0.0116: real time    0.0116
    --------------------------------------------
      LOOP:  cpu time    6.1777: real time    6.1930

 eigenvalue-minimisations  :   696
 total energy-change (2. order) : 0.8400353E+01  (-0.4782900E+00)
 number of electron     511.9999999 magnetization 
 augmentation part      -29.4084060 magnetization 

 Broyden mixing:
  rms(total) = 0.14789E+01    rms(broyden)= 0.14789E+01
  rms(prec ) = 0.17864E+01
  weight for this iteration     100.00

 eigenvalues of (default mixing * dielectric matrix)
  average eigenvalue GAMMA=   2.4617
  2.4617

 Free energy of the ion-electron system (eV)
  ---------------------------------------------------
  alpha Z        PSCENC =       210.78028765
  Ewald energy   TEWEN  =    -14524.86517344
  -Hartree energ DENC   =      -824.85559133
  -exchange      EXHF   =         0.00000000
  -V(xc)+E(xc)   XCENC  =     -1180.31854821
  PAW double counting   =      4464.78758721    -2219.67526377
  entropy T*S    EENTRO =        -0.00000000
  eigenvalues    EBANDS =       195.36637885
  atomic energy  EATOM  =     13192.48085998
  Solvation  Ediel_sol  =         0.00000000
  ---------------------------------------------------
  free energy    TOTEN  =      -686.29946306 eV

  energy without entropy =     -686.29946306  energy(sigma->0) =     -686.29946306


--------------------------------------------------------------------------------------------------------




--------------------------------------- Iteration      1(   7)  ---------------------------------------


    POTLOK:  cpu time    0.2266: real time    0.2273
    SETDIJ:  cpu time    0.2814: real time    0.2820
     EDDAV:  cpu time    4.9575: real time    4.9692
       DOS:  cpu time    0.0004: real time    0.0004
    CHARGE:  cpu time    0.5055: real time    0.5067
    MIXING:  cpu time    0.0111: real time    0.0111
    --------------------------------------------
      LOOP:  cpu time    5.9825: real time    5.9968

 eigenvalue-minimisations  :   664
 total energy-change (2. order) : 0.3872494E+01  (-0.9703139E+00)
 number of electron     511.9999999 magnetization 
 augmentation part      -28.9140589 magnetization 

 Broyden mixing:
  rms(total) = 0.13043E+00    rms(broyden)= 0.13043E+00
  rms(prec ) = 0.15186E+00
  weight for this iteration     100.00

 eigenvalues of (default mixing * dielectric matrix)
  average eigenvalue GAMMA=   2.4915
  2.4915  2.4915

 Free energy of the ion-electron system (eV)
  ---------------------------------------------------
  alpha Z        PSCENC =       210.78028765
  Ewald energy   TEWEN  =    -14524.86517344
  -Hartree energ DENC   =      -991.88472352
  -exchange      EXHF   =         0.00000000
  -V(xc)+E(xc)   XCENC  =     -1153.93925177
  PAW double counting   =      4789.66332240    -2553.36185264
  entropy T*S    EENTRO =        -0.00000000
  eigenvalues    EBANDS =       348.69956276
  atomic energy  EATOM  =     13192.48085998
  Solvation  Ediel_sol  =         0.00000000
  ---------------------------------------------------
  free energy    TOTEN  =      -682.42696858 eV

  energy without entropy =     -682.42696858  energy(sigma->0) =     -682.42696858


--------------------------------------------------------------------------------------------------------




--------------------------------------- Iteration      1(   8)  ---------------------------------------


    POTLOK:  cpu time    0.2268: real time    0.2275
    SETDIJ:  cpu time    0.2812: real time    0.2818
     EDDAV:  cpu time    5.0715: real time    5.0844
       DOS:  cpu time    0.0004: real time    0.0004
    CHARGE:  cpu time    0.5086: real time    0.5098
    MIXING:  cpu time    0.0117: real time    0.0117
    --------------------------------------------
      LOOP:  cpu time    6.1002: real time    6.1157

 eigenvalue-minimisations  :   680
 total energy-change (2. order) :-0.1320339E+00  (-0.4944083E-01)
 number of electron     511.9999999 magnetization 
 augmentation part      -28.9852648 magnetization 

 Broyden mixing:
  rms(total) = 0.28138E-01    rms(broyden)= 0.28138E-01
  rms(prec ) = 0.38000E-01
  weight for this iteration     100.00

 eigenvalues of (default mixing * dielectric matrix)
  average eigenvalue GAMMA=   2.1013
  1.4504  2.7613  2.0923

 Free energy of the ion-electron system (eV)
  ---------------------------------------------------
  alpha Z        PSCENC =       210.78028765
  Ewald energy   TEWEN  =    -14524.86517344
  -Hartree energ DENC   =      -986.33406959
  -exchange      EXHF   =         0.00000000
  -V(xc)+E(xc)   XCENC  =     -1153.99582304
  PAW double counting   =      4718.80369856    -2480.28681580
  entropy T*S    EENTRO =        -0.00000000
  eigenvalues    EBANDS =       340.85803317
  atomic energy  EATOM  =     13192.48085998
  Solvation  Ediel_sol  =         0.00000000
  ---------------------------------------------------
  free energy    TOTEN  =      -682.55900251 eV

  energy without entropy =     -682.55900251  energy(sigma->0) =     -682.55900251


--------------------------------------------------------------------------------------------------------




--------------------------------------- Iteration      1(   9)  ---------------------------------------


    POTLOK:  cpu time    0.2283: real time    0.2301
    SETDIJ:  cpu time    0.2815: real time    0.2822
     EDDAV:  cpu time    5.5252: real time    5.5399
       DOS:  cpu time    0.0004: real time    0.0004
    CHARGE:  cpu time    0.5069: real time    0.5082
    MIXING:  cpu time    0.0116: real time    0.0116
    --------------------------------------------
      LOOP:  cpu time    6.5539: real time    6.5725

 eigenvalue-minimisations  :   768
 total energy-change (2. order) :-0.6508759E-02  (-0.2456775E-02)
 number of electron     511.9999999 magnetization 
 augmentation part      -28.9800499 magnetization 

 Broyden mixing:
  rms(total) = 0.15922E-01    rms(broyden)= 0.15922E-01
  rms(prec ) = 0.18144E-01
  weight for this iteration     100.00

 eigenvalues of (default mixing * dielectric matrix)
  average eigenvalue GAMMA=   2.2870
  1.0205  3.3869  2.7007  2.0399

 Free energy of the ion-electron system (eV)
  ---------------------------------------------------
  alpha Z        PSCENC =       210.78028765
  Ewald energy   TEWEN  =    -14524.86517344
  -Hartree energ DENC   =      -991.21626747
  -exchange      EXHF   =         0.00000000
  -V(xc)+E(xc)   XCENC  =     -1153.27650077
  PAW double counting   =      4725.23138680    -2486.95002987
  entropy T*S    EENTRO =        -0.00000000
  eigenvalues    EBANDS =       345.24992585
  atomic energy  EATOM  =     13192.48085998
  Solvation  Ediel_sol  =         0.00000000
  ---------------------------------------------------
  free energy    TOTEN  =      -682.56551127 eV

  energy without entropy =     -682.56551127  energy(sigma->0) =     -682.56551127


--------------------------------------------------------------------------------------------------------




--------------------------------------- Iteration      1(  10)  ---------------------------------------


    POTLOK:  cpu time    0.2273: real time    0.2353
    SETDIJ:  cpu time    0.2824: real time    0.2831
     EDDAV:  cpu time    5.0425: real time    5.0544
       DOS:  cpu time    0.0004: real time    0.0004
    CHARGE:  cpu time    0.5058: real time    0.5070
    MIXING:  cpu time    0.0120: real time    0.0120
    --------------------------------------------
      LOOP:  cpu time    6.0704: real time    6.0923

 eigenvalue-minimisations  :   680
 total energy-change (2. order) :-0.2676178E-02  (-0.5879976E-03)
 number of electron     511.9999999 magnetization 
 augmentation part      -28.9811132 magnetization 

 Broyden mixing:
  rms(total) = 0.47823E-02    rms(broyden)= 0.47823E-02
  rms(prec ) = 0.57305E-02
  weight for this iteration     100.00

 eigenvalues of (default mixing * dielectric matrix)
  average eigenvalue GAMMA=   1.9836
  3.2359  2.6100  2.1614  1.0586  0.8520

 Free energy of the ion-electron system (eV)
  ---------------------------------------------------
  alpha Z        PSCENC =       210.78028765
  Ewald energy   TEWEN  =    -14524.86517344
  -Hartree energ DENC   =      -991.22051220
  -exchange      EXHF   =         0.00000000
  -V(xc)+E(xc)   XCENC  =     -1153.35158763
  PAW double counting   =      4721.46865561    -2483.16931576
  entropy T*S    EENTRO =        -0.00000000
  eigenvalues    EBANDS =       345.30859834
  atomic energy  EATOM  =     13192.48085998
  Solvation  Ediel_sol  =         0.00000000
  ---------------------------------------------------
  free energy    TOTEN  =      -682.56818745 eV

  energy without entropy =     -682.56818745  energy(sigma->0) =     -682.56818745


--------------------------------------------------------------------------------------------------------




--------------------------------------- Iteration      1(  11)  ---------------------------------------


    POTLOK:  cpu time    0.2269: real time    0.2289
    SETDIJ:  cpu time    0.2816: real time    0.2823
     EDDAV:  cpu time    5.4791: real time    5.4924
       DOS:  cpu time    0.0004: real time    0.0004
    CHARGE:  cpu time    0.5055: real time    0.5067
    MIXING:  cpu time    0.0126: real time    0.0126
    --------------------------------------------
      LOOP:  cpu time    6.5061: real time    6.5232

 eigenvalue-minimisations  :   760
 total energy-change (2. order) :-0.1344075E-04  (-0.2010138E-04)
 number of electron     511.9999999 magnetization 
 augmentation part      -28.9796154 magnetization 

 Broyden mixing:
  rms(total) = 0.49518E-03    rms(broyden)= 0.49508E-03
  rms(prec ) = 0.56906E-03
  weight for this iteration     100.00

 eigenvalues of (default mixing * dielectric matrix)
  average eigenvalue GAMMA=   2.0309
  3.3656  2.6899  2.1910  1.9717  0.9838  0.9838

 Free energy of the ion-electron system (eV)
  ---------------------------------------------------
  alpha Z        PSCENC =       210.78028765
  Ewald energy   TEWEN  =    -14524.86517344
  -Hartree energ DENC   =      -991.69470242
  -exchange      EXHF   =         0.00000000
  -V(xc)+E(xc)   XCENC  =     -1153.28784631
  PAW double counting   =      4723.32145968    -2485.06712864
  entropy T*S    EENTRO =        -0.00000000
  eigenvalues    EBANDS =       345.76404261
  atomic energy  EATOM  =     13192.48085998
  Solvation  Ediel_sol  =         0.00000000
  ---------------------------------------------------
  free energy    TOTEN  =      -682.56820089 eV

  energy without entropy =     -682.56820089  energy(sigma->0) =     -682.56820089


--------------------------------------------------------------------------------------------------------




--------------------------------------- Iteration      1(  12)  ---------------------------------------


    POTLOK:  cpu time    0.2269: real time    0.2275
    SETDIJ:  cpu time    0.2815: real time    0.2822
     EDDAV:  cpu time    5.3033: real time    5.3158
       DOS:  cpu time    0.0004: real time    0.0004
    CHARGE:  cpu time    0.5068: real time    0.5080
    MIXING:  cpu time    0.0120: real time    0.0120
    --------------------------------------------
      LOOP:  cpu time    6.3308: real time    6.3460

 eigenvalue-minimisations  :   728
 total energy-change (2. order) :-0.4274512E-05  (-0.1275658E-05)
 number of electron     511.9999999 magnetization 
 augmentation part      -28.9793560 magnetization 

 Broyden mixing:
  rms(total) = 0.23361E-03    rms(broyden)= 0.23341E-03
  rms(prec ) = 0.26422E-03
  weight for this iteration     100.00

 eigenvalues of (default mixing * dielectric matrix)
  average eigenvalue GAMMA=   1.9225
  3.3084  2.6925  2.2577  2.2577  1.0230  1.0230  0.8951

 Free energy of the ion-electron system (eV)
  ---------------------------------------------------
  alpha Z        PSCENC =       210.78028765
  Ewald energy   TEWEN  =    -14524.86517344
  -Hartree energ DENC   =      -991.73735162
  -exchange      EXHF   =         0.00000000
  -V(xc)+E(xc)   XCENC  =     -1153.28676462
  PAW double counting   =      4723.42903656    -2485.17088646
  entropy T*S    EENTRO =        -0.00000000
  eigenvalues    EBANDS =       345.80178679
  atomic energy  EATOM  =     13192.48085998
  Solvation  Ediel_sol  =         0.00000000
  ---------------------------------------------------
  free energy    TOTEN  =      -682.56820516 eV

  energy without entropy =     -682.56820516  energy(sigma->0) =     -682.56820516


--------------------------------------------------------------------------------------------------------




--------------------------------------- Iteration      1(  13)  ---------------------------------------


    POTLOK:  cpu time    0.2269: real time    0.2275
    SETDIJ:  cpu time    0.2817: real time    0.2824
     EDDAV:  cpu time    5.3467: real time    5.3595
       DOS:  cpu time    0.0004: real time    0.0004
    CHARGE:  cpu time    0.5087: real time    0.5099
    MIXING:  cpu time    0.0120: real time    0.0121
    --------------------------------------------
      LOOP:  cpu time    6.3765: real time    6.3918

 eigenvalue-minimisations  :   736
 total energy-change (2. order) : 0.3482206E-05  (-0.5736857E-07)
 number of electron     511.9999999 magnetization 
 augmentation part      -28.9794651 magnetization 

 Broyden mixing:
  rms(total) = 0.69854E-04    rms(broyden)= 0.69194E-04
  rms(prec ) = 0.82273E-04
  weight for this iteration     100.00

 eigenvalues of (default mixing * dielectric matrix)
  average eigenvalue GAMMA=   1.8695
  3.3116  2.6994  2.4735  2.1332  0.9627  0.9627  1.2067  1.2067

 Free energy of the ion-electron system (eV)
  ---------------------------------------------------
  alpha Z        PSCENC =       210.78028765
  Ewald energy   TEWEN  =    -14524.86517344
  -Hartree energ DENC   =      -991.73054721
  -exchange      EXHF   =         0.00000000
  -V(xc)+E(xc)   XCENC  =     -1153.28651554
  PAW double counting   =      4723.40101526    -2485.13963300
  entropy T*S    EENTRO =        -0.00000000
  eigenvalues    EBANDS =       345.79150462
  atomic energy  EATOM  =     13192.48085998
  Solvation  Ediel_sol  =         0.00000000
  ---------------------------------------------------
  free energy    TOTEN  =      -682.56820168 eV

  energy without entropy =     -682.56820168  energy(sigma->0) =     -682.56820168


--------------------------------------------------------------------------------------------------------




--------------------------------------- Iteration      1(  14)  ---------------------------------------


    POTLOK:  cpu time    0.2273: real time    0.2280
    SETDIJ:  cpu time    0.2820: real time    0.2827
     EDDAV:  cpu time    5.5367: real time    5.5536
       DOS:  cpu time    0.0004: real time    0.0004
    CHARGE:  cpu time    0.5081: real time    0.5093
    MIXING:  cpu time    0.0147: real time    0.0148
    --------------------------------------------
      LOOP:  cpu time    6.5693: real time    6.5888

 eigenvalue-minimisations  :   752
 total energy-change (2. order) :-0.5794464E-06  (-0.1091289E-07)
 number of electron     511.9999999 magnetization 
 augmentation part      -28.9794357 magnetization 

 Broyden mixing:
  rms(total) = 0.40302E-04    rms(broyden)= 0.39148E-04
  rms(prec ) = 0.51117E-04
  weight for this iteration     100.00

 eigenvalues of (default mixing * dielectric matrix)
  average eigenvalue GAMMA=   1.8171
  3.2917  2.7290  2.4259  2.2658  1.3353  1.3353  0.9339  1.0185  1.0185

 Free energy of the ion-electron system (eV)
  ---------------------------------------------------
  alpha Z        PSCENC =       210.78028765
  Ewald energy   TEWEN  =    -14524.86517344
  -Hartree energ DENC   =      -991.73927573
  -exchange      EXHF   =         0.00000000
  -V(xc)+E(xc)   XCENC  =     -1153.28543379
  PAW double counting   =      4723.43071338    -2485.16950374
  entropy T*S    EENTRO =        -0.00000000
  eigenvalues    EBANDS =       345.79932344
  atomic energy  EATOM  =     13192.48085998
  Solvation  Ediel_sol  =         0.00000000
  ---------------------------------------------------
  free energy    TOTEN  =      -682.56820226 eV

  energy without entropy =     -682.56820226  energy(sigma->0) =     -682.56820226


--------------------------------------------------------------------------------------------------------




--------------------------------------- Iteration      1(  15)  ---------------------------------------


    POTLOK:  cpu time    0.2285: real time    0.2300
    SETDIJ:  cpu time    0.2814: real time    0.2820
     EDDAV:  cpu time    4.2262: real time    4.2362
       DOS:  cpu time    0.0004: real time    0.0004
    CHARGE:  cpu time    0.5074: real time    0.5086
    MIXING:  cpu time    0.0128: real time    0.0128
    --------------------------------------------
      LOOP:  cpu time    5.2566: real time    5.2701

 eigenvalue-minimisations  :   528
 total energy-change (2. order) : 0.1129161E-05  (-0.3298708E-08)
 number of electron     511.9999999 magnetization 
 augmentation part      -28.9794679 magnetization 

 Broyden mixing:
  rms(total) = 0.11665E-04    rms(broyden)= 0.66576E-05
  rms(prec ) = 0.72676E-05
  weight for this iteration     100.00
  WARNING: grid for Broyden might be to small

 eigenvalues of (default mixing * dielectric matrix)
  average eigenvalue GAMMA=   1.8194
  3.2935  2.6696  2.5902  2.1162  2.0249  0.9400  0.9883  1.0345  1.2682  1.2682

 Free energy of the ion-electron system (eV)
  ---------------------------------------------------
  alpha Z        PSCENC =       210.78028765
  Ewald energy   TEWEN  =    -14524.86517344
  -Hartree energ DENC   =      -991.73312944
  -exchange      EXHF   =         0.00000000
  -V(xc)+E(xc)   XCENC  =     -1153.28602880
  PAW double counting   =      4723.40750108    -2485.14547650
  entropy T*S    EENTRO =        -0.00000000
  eigenvalues    EBANDS =       345.79295833
  atomic energy  EATOM  =     13192.48085998
  Solvation  Ediel_sol  =         0.00000000
  ---------------------------------------------------
  free energy    TOTEN  =      -682.56820113 eV

  energy without entropy =     -682.56820113  energy(sigma->0) =     -682.56820113


--------------------------------------------------------------------------------------------------------




--------------------------------------- Iteration      1(  16)  ---------------------------------------


    POTLOK:  cpu time    0.2274: real time    0.2281
    SETDIJ:  cpu time    0.2819: real time    0.2826
     EDDAV:  cpu time    3.3907: real time    3.3988
       DOS:  cpu time    0.0004: real time    0.0004
    CHARGE:  cpu time    0.5056: real time    0.5068
    MIXING:  cpu time    0.0131: real time    0.0131
    --------------------------------------------
      LOOP:  cpu time    4.4192: real time    4.4298

 eigenvalue-minimisations  :   376
 total energy-change (2. order) :-0.1004155E-06  (-0.1972539E-09)
 number of electron     511.9999999 magnetization 
 augmentation part      -28.9794685 magnetization 

 Broyden mixing:
  rms(total) = 0.10162E-04    rms(broyden)= 0.33944E-05
  rms(prec ) = 0.42630E-05
  weight for this iteration     100.00
  WARNING: grid for Broyden might be to small

 eigenvalues of (default mixing * dielectric matrix)
  average eigenvalue GAMMA=   1.8051
  3.2815  2.7816  2.5460  2.2820  2.2820  1.3259  1.3259  1.1710  0.9864  0.9368
  0.9368

 Free energy of the ion-electron system (eV)
  ---------------------------------------------------
  alpha Z        PSCENC =       210.78028765
  Ewald energy   TEWEN  =    -14524.86517344
  -Hartree energ DENC   =      -991.73361018
  -exchange      EXHF   =         0.00000000
  -V(xc)+E(xc)   XCENC  =     -1153.28594114
  PAW double counting   =      4723.40863867    -2485.14674750
  entropy T*S    EENTRO =        -0.00000000
  eigenvalues    EBANDS =       345.79348473
  atomic energy  EATOM  =     13192.48085998
  Solvation  Ediel_sol  =         0.00000000
  ---------------------------------------------------
  free energy    TOTEN  =      -682.56820123 eV

  energy without entropy =     -682.56820123  energy(sigma->0) =     -682.56820123


--------------------------------------------------------------------------------------------------------




--------------------------------------- Iteration      1(  17)  ---------------------------------------


    POTLOK:  cpu time    0.2265: real time    0.2271
    SETDIJ:  cpu time    0.2822: real time    0.2829
     EDDAV:  cpu time    3.3876: real time    3.3955
       DOS:  cpu time    0.0004: real time    0.0004
    CHARGE:  cpu time    0.5081: real time    0.5093
    MIXING:  cpu time    0.0136: real time    0.0136
    --------------------------------------------
      LOOP:  cpu time    4.4183: real time    4.4288

 eigenvalue-minimisations  :   376
 total energy-change (2. order) :-0.1234366E-07  (-0.3016676E-10)
 number of electron     511.9999999 magnetization 
 augmentation part      -28.9794698 magnetization 

 Broyden mixing:
  rms(total) = 0.96354E-05    rms(broyden)= 0.10501E-05
  rms(prec ) = 0.13439E-05
  weight for this iteration     100.00
  WARNING: grid for Broyden might be to small

 eigenvalues of (default mixing * dielectric matrix)
  average eigenvalue GAMMA=   1.7914
  3.2913  2.7274  2.6016  2.1708  2.1708  2.0611  1.2444  1.2444  1.0395  1.0395
  0.9682  0.9377

 Free energy of the ion-electron system (eV)
  ---------------------------------------------------
  alpha Z        PSCENC =       210.78028765
  Ewald energy   TEWEN  =    -14524.86517344
  -Hartree energ DENC   =      -991.73332973
  -exchange      EXHF   =         0.00000000
  -V(xc)+E(xc)   XCENC  =     -1153.28597979
  PAW double counting   =      4723.40835442    -2485.14648939
  entropy T*S    EENTRO =        -0.00000000
  eigenvalues    EBANDS =       345.79326906
  atomic energy  EATOM  =     13192.48085998
  Solvation  Ediel_sol  =         0.00000000
  ---------------------------------------------------
  free energy    TOTEN  =      -682.56820124 eV

  energy without entropy =     -682.56820124  energy(sigma->0) =     -682.56820124


--------------------------------------------------------------------------------------------------------




--------------------------------------- Iteration      1(  18)  ---------------------------------------


    POTLOK:  cpu time    0.2259: real time    0.2267
    SETDIJ:  cpu time    0.2830: real time    0.2836
     EDDAV:  cpu time    3.2595: real time    3.2679
       DOS:  cpu time    0.0004: real time    0.0004
    CHARGE:  cpu time    0.5080: real time    0.5092
    MIXING:  cpu time    0.0129: real time    0.0129
    --------------------------------------------
      LOOP:  cpu time    4.2898: real time    4.3008

 eigenvalue-minimisations  :   352
 total energy-change (2. order) : 0.1916851E-07  (-0.1072126E-10)
 number of electron     511.9999999 magnetization 
 augmentation part      -28.9794703 magnetization 

 Broyden mixing:
  rms(total) = 0.95909E-05    rms(broyden)= 0.49598E-06
  rms(prec ) = 0.62717E-06
  weight for this iteration     100.00
  WARNING: grid for Broyden might be to small

 eigenvalues of (default mixing * dielectric matrix)
  average eigenvalue GAMMA=   1.7921
  3.2917  2.6823  2.6823  2.3898  2.3898  2.1524  1.2798  1.2798  1.2546  1.0863
  1.0028  0.9345  0.8715

 Free energy of the ion-electron system (eV)
  ---------------------------------------------------
  alpha Z        PSCENC =       210.78028765
  Ewald energy   TEWEN  =    -14524.86517344
  -Hartree energ DENC   =      -991.73330099
  -exchange      EXHF   =         0.00000000
  -V(xc)+E(xc)   XCENC  =     -1153.28598291
  PAW double counting   =      4723.40785877    -2485.14598478
  entropy T*S    EENTRO =        -0.00000000
  eigenvalues    EBANDS =       345.79323450
  atomic energy  EATOM  =     13192.48085998
  Solvation  Ediel_sol  =         0.00000000
  ---------------------------------------------------
  free energy    TOTEN  =      -682.56820122 eV

  energy without entropy =     -682.56820122  energy(sigma->0) =     -682.56820122


--------------------------------------------------------------------------------------------------------




--------------------------------------- Iteration      1(  19)  ---------------------------------------


    POTLOK:  cpu time    0.2269: real time    0.2275
    SETDIJ:  cpu time    0.2822: real time    0.2828
     EDDAV:  cpu time    3.2599: real time    3.2678
       DOS:  cpu time    0.0004: real time    0.0003
    --------------------------------------------
      LOOP:  cpu time    3.7693: real time    3.7784

 eigenvalue-minimisations  :   352
 total energy-change (2. order) : 0.8367351E-10  ( 0.4193867E-12)
 number of electron     511.9999999 magnetization 
 augmentation part      -28.9794703 magnetization 

 Free energy of the ion-electron system (eV)
  ---------------------------------------------------
  alpha Z        PSCENC =       210.78028765
  Ewald energy   TEWEN  =    -14524.86517344
  -Hartree energ DENC   =      -991.73328487
  -exchange      EXHF   =         0.00000000
  -V(xc)+E(xc)   XCENC  =     -1153.28598626
  PAW double counting   =      4723.40775045    -2485.14587742
  entropy T*S    EENTRO =        -0.00000000
  eigenvalues    EBANDS =       345.79322268
  atomic energy  EATOM  =     13192.48085998
  Solvation  Ediel_sol  =         0.00000000
  ---------------------------------------------------
  free energy    TOTEN  =      -682.56820122 eV

  energy without entropy =     -682.56820122  energy(sigma->0) =     -682.56820122


--------------------------------------------------------------------------------------------------------




 average (electrostatic) potential at core
  the test charge radii are     0.9892
  (the norm of the test charge is              1.0000)
       1 -83.4138       2 -83.4139       3 -83.4117       4 -83.4140       5 -83.4124
       6 -83.4122       7 -83.4114       8 -83.4121       9 -83.4121      10 -83.4133
      11 -83.4132      12 -83.4112      13 -83.4134      14 -83.4133      15 -83.4134
      16 -83.4133      17 -83.4134      18 -83.4125      19 -83.4134      20 -83.4133
      21 -83.4138      22 -83.4135      23 -83.4121      24 -83.4133      25 -83.4137
      26 -83.4136      27 -83.4135      28 -83.4132      29 -83.4136      30 -83.4139
      31 -83.4131      32 -83.4113      33 -83.4137      34 -83.4137      35 -83.4138
      36 -83.4135      37 -83.4150      38 -83.4157      39 -83.4138      40 -83.4137
      41 -83.4138      42 -83.4137      43 -83.4138      44 -83.4137      45 -83.4141
      46 -83.4140      47 -83.4136      48 -83.4140      49 -83.4139      50 -83.4138
      51 -83.4139      52 -83.4138      53 -83.4138      54 -83.4140      55 -83.4137
      56 -83.4134      57 -83.4159      58 -83.4140      59 -83.4134      60 -83.4139
      61 -83.4139      62 -83.4138      63 -83.4138      64 -83.4137      65 -83.4139
      66 -83.4136      67 -83.4138      68 -83.4138      69 -83.4153      70 -83.4147
      71 -83.4135      72 -83.4139      73 -83.4140      74 -83.4139      75 -83.4140
      76 -83.4139      77 -83.4136      78 -83.4142      79 -83.4137      80 -83.4136
      81 -83.4149      82 -83.4140      83 -83.4136      84 -83.4140      85 -83.4139
      86 -83.4137      87 -83.4138      88 -83.4137      89 -83.4139      90 -83.4153
      91 -83.4138      92 -83.4136      93 -83.4140      94 -83.4139      95 -83.4141
      96 -83.4139      97 -83.4140      98 -83.4140      99 -83.4141     100 -83.4136
     101 -83.4133     102 -83.4161     103 -83.4137     104 -83.4134     105 -83.4159
     106 -83.4140     107 -83.4134     108 -83.4140     109 -83.4140     110 -83.4135
     111 -83.4137     112 -83.4138     113 -83.4138     114 -83.4152     115 -83.4137
     116 -83.4136     117 -83.4139     118 -83.4139     119 -83.4140     120 -83.4138
     121 -83.4138     122 -83.4137     123 -83.4137     124 -83.4137     125 -83.4141
     126 -83.4139     127 -83.4134     128 -83.4139
 
 
 
 E-fermi :   5.9202     XC(G=0):  -9.3007     alpha+bet :-11.7327


 k-point     1 :       0.0000    0.0000    0.0000
  band No.  band energies     occupation 
      1      -6.1630      2.00000
      2      -5.3789      2.00000
      3      -5.3782      2.00000
      4      -5.3778      2.00000
      5      -5.3776      2.00000
      6      -5.3775      2.00000
      7      -5.3772      2.00000
      8      -5.3766      2.00000
      9      -5.3759      2.00000
     10      -5.1010      2.00000
     11      -5.1000      2.00000
     12      -5.0998      2.00000
     13      -5.0996      2.00000
     14      -5.0989      2.00000
     15      -5.0984      2.00000
     16      -4.1592      2.00000
     17      -4.1587      2.00000
     18      -4.1576      2.00000
     19      -4.1574      2.00000
     20      -4.1570      2.00000
     21      -4.1570      2.00000
     22      -4.1569      2.00000
     23      -4.1569      2.00000
     24      -4.1566      2.00000
     25      -4.1563      2.00000
     26      -4.1551      2.00000
     27      -4.1548      2.00000
     28      -3.8820      2.00000
     29      -3.8816      2.00000
     30      -3.8807      2.00000
     31      -3.8804      2.00000
     32      -3.5005      2.00000
     33      -3.4996      2.00000
     34      -3.4979      2.00000
     35      -3.4977      2.00000
     36      -3.4968      2.00000
     37      -3.4966      2.00000
     38      -3.4966      2.00000
     39      -3.4964      2.00000
     40      -3.4964      2.00000
     41      -3.4963      2.00000
     42      -3.4963      2.00000
     43      -3.4962      2.00000
     44      -3.4962      2.00000
     45      -3.4962      2.00000
     46      -3.4962      2.00000
     47      -3.4961      2.00000
     48      -3.4961      2.00000
     49      -3.4960      2.00000
     50      -3.4959      2.00000
     51      -3.4958      2.00000
     52      -3.4951      2.00000
     53      -3.4940      2.00000
     54      -3.4923      2.00000
     55      -3.4921      2.00000
     56      -2.0920      2.00000
     57      -2.0916      2.00000
     58      -2.0914      2.00000
     59      -2.0905      2.00000
     60      -2.0903      2.00000
     61      -2.0899      2.00000
     62      -1.9379      2.00000
     63      -1.9367      2.00000
     64      -1.9364      2.00000
     65      -1.9362      2.00000
     66      -1.9356      2.00000
     67      -1.9355      2.00000
     68      -1.9354      2.00000
     69      -1.9354      2.00000
     70      -1.9345      2.00000
     71      -1.9343      2.00000
     72      -1.9340      2.00000
     73      -1.9329      2.00000
     74      -1.2193      2.00000
     75      -1.2186      2.00000
     76      -1.2183      2.00000
     77      -1.2175      2.00000
     78      -0.6724      2.00000
     79      -0.6717      2.00000
     80      -0.6712      2.00000
     81      -0.6706      2.00000
     82      -0.6691      2.00000
     83      -0.6690      2.00000
     84      -0.6690      2.00000
     85      -0.6689      2.00000
     86      -0.6688      2.00000
     87      -0.6687      2.00000
     88      -0.6687      2.00000
     89      -0.6687      2.00000
     90      -0.6686      2.00000
     91      -0.6686      2.00000
     92      -0.6686      2.00000
     93      -0.6685      2.00000
     94      -0.6685      2.00000
     95      -0.6684      2.00000
     96      -0.6683      2.00000
     97      -0.6681      2.00000
     98      -0.6675      2.00000
     99      -0.6659      2.00000
    100      -0.6654      2.00000
    101      -0.6640      2.00000
    102       0.2149      2.00000
    103       0.2152      2.00000
    104       0.2156      2.00000
    105       0.2160      2.00000
    106       0.2166      2.00000
    107       0.2167      2.00000
    108       0.2167      2.00000
    109       0.2168      2.00000
    110       0.2172      2.00000
    111       0.2179      2.00000
    112       0.2182      2.00000
    113       0.2189      2.00000
    114       1.7665      2.00000
    115       1.7672      2.00000
    116       1.7674      2.00000
    117       1.7677      2.00000
    118       1.7678      2.00000
    119       1.7680      2.00000
    120       1.7689      2.00000
    121       1.7691      2.00000
    122       1.8848      2.00000
    123       1.8848      2.00000
    124       1.8856      2.00000
    125       1.8857      2.00000
    126       1.8858      2.00000
    127       1.8859      2.00000
    128       1.8861      2.00000
    129       1.8862      2.00000
    130       1.8863      2.00000
    131       1.8865      2.00000
    132       1.8871      2.00000
    133       1.8872      2.00000
    134       1.9777      2.00000
    135       1.9779      2.00000
    136       1.9780      2.00000
    137       1.9782      2.00000
    138       1.9786      2.00000
    139       1.9788      2.00000
    140       1.9789      2.00000
    141       1.9791      2.00000
    142       1.9795      2.00000
    143       1.9796      2.00000
    144       1.9800      2.00000
    145       1.9802      2.00000
    146       2.1398      2.00000
    147       2.1404      2.00000
    148       2.1408      2.00000
    149       2.1414      2.00000
    150       2.1417      2.00000
    151       2.1424      2.00000
    152       2.1840      2.00000
    153       2.1848      2.00000
    154       2.1854      2.00000
    155       2.1860      2.00000
    156       2.1862      2.00000
    157       2.1864      2.00000
    158       2.1866      2.00000
    159       2.1866      2.00000
    160       2.1867      2.00000
    161       2.1867      2.00000
    162       2.1868      2.00000
    163       2.1869      2.00000
    164       2.1869      2.00000
    165       2.1870      2.00000
    166       2.1870      2.00000
    167       2.1871      2.00000
    168       2.1872      2.00000
    169       2.1873      2.00000
    170       2.1873      2.00000
    171       2.1876      2.00000
    172       2.1879      2.00000
    173       2.1886      2.00000
    174       2.1895      2.00000
    175       2.1898      2.00000
    176       2.8561      2.00000
    177       2.8563      2.00000
    178       2.8566      2.00000
    179       2.8566      2.00000
    180       2.8569      2.00000
    181       2.8571      2.00000
    182       3.4896      2.00000
    183       3.4899      2.00000
    184       3.4912      2.00000
    185       3.4916      2.00000
    186       3.4921      2.00000
    187       3.4921      2.00000
    188       3.4921      2.00000
    189       3.4922      2.00000
    190       3.4923      2.00000
    191       3.4923      2.00000
    192       3.4924      2.00000
    193       3.4924      2.00000
    194       3.4925      2.00000
    195       3.4926      2.00000
    196       3.4926      2.00000
    197       3.4927      2.00000
    198       3.4928      2.00000
    199       3.4929      2.00000
    200       3.4929      2.00000
    201       3.4930      2.00000
    202       3.4936      2.00000
    203       3.4941      2.00000
    204       3.4951      2.00000
    205       3.4952      2.00000
    206       3.8021      2.00000
    207       3.8024      2.00000
    208       3.8034      2.00000
    209       3.8035      2.00000
    210       3.8037      2.00000
    211       3.8038      2.00000
    212       3.8039      2.00000
    213       3.8039      2.00000
    214       3.8042      2.00000
    215       3.8043      2.00000
    216       3.8053      2.00000
    217       3.8056      2.00000
    218       4.3507      2.00000
    219       4.3512      2.00000
    220       4.3522      2.00000
    221       4.3525      2.00000
    222       4.3526      2.00000
    223       4.3527      2.00000
    224       4.3528      2.00000
    225       4.3530      2.00000
    226       4.3533      2.00000
    227       4.3536      2.00000
    228       4.3540      2.00000
    229       4.3551      2.00000
    230       4.4763      2.00000
    231       4.4767      2.00000
    232       4.4773      2.00000
    233       4.4776      2.00000
    234       4.4778      2.00000
    235       4.4781      2.00000
    236       4.4787      2.00000
    237       4.4792      2.00000
    238       4.9082      2.00000
    239       4.9091      2.00000
    240       4.9114      2.00000
    241       4.9114      2.00000
    242       4.9116      2.00000
    243       4.9116      2.00000
    244       4.9117      2.00000
    245       4.9117      2.00000
    246       4.9118      2.00000
    247       4.9118      2.00000
    248       4.9119      2.00000
    249       4.9121      2.00000
    250       4.9122      2.00000
    251       4.9122      2.00000
    252       4.9138      2.00000
    253       4.9160      2.00000
    254       5.6594      2.00000
    255       5.6604      2.00000
    256       5.6615      2.00000
    257       6.3942      0.00000
    258       6.3944      0.00000
    259       6.3950      0.00000
    260       6.3953      0.00000
    261       6.3959      0.00000
    262       6.3960      0.00000
    263       6.7951      0.00000
    264       6.7957      0.00000
    265       6.7959      0.00000
    266       6.7966      0.00000
    267       6.7968      0.00000
    268       6.7974      0.00000
    269       7.1206      0.00000
    270       7.1208      0.00000
    271       7.1209      0.00000
    272       7.1211      0.00000
    273       7.1827      0.00000
    274       7.1832      0.00000
    275       7.1839      0.00000
    276       7.1846      0.00000
    277       7.1857      0.00000
    278       7.1857      0.00000
    279       7.1858      0.00000
    280       7.1858      0.00000
    281       7.1858      0.00000
    282       7.1858      0.00000
    283       7.1859      0.00000
    284       7.1859      0.00000
    285       7.1860      0.00000
    286       7.1860      0.00000
    287       7.1861      0.00000
    288       7.1861      0.00000
    289       7.1862      0.00000
    290       7.1862      0.00000
    291       7.1863      0.00000
    292       7.1863      0.00000
    293       7.1871      0.00000
    294       7.1880      0.00000
    295       7.1892      0.00000
    296       7.1895      0.00000
    297       7.6112      0.00000
    298       7.6115      0.00000
    299       7.6119      0.00000
    300       7.6121      0.00000
    301       7.6122      0.00000
    302       7.6126      0.00000
    303       7.6129      0.00000
    304       7.6133      0.00000
    305       8.0812      0.00000
    306       8.0816      0.00000
    307       8.0820      0.00000
    308       8.0823      0.00000
    309       8.0828      0.00000
    310       8.0829      0.00000
    311       8.0830      0.00000
    312       8.0831      0.00000
    313       8.0833      0.00000
    314       8.0839      0.00000
    315       8.0841      0.00000
    316       8.0848      0.00000
    317       8.1987      0.00000
    318       8.1993      0.00000
    319       8.2000      0.00000
    320       8.7788      0.00000
    321       8.7796      0.00000
    322       8.7872      0.00000


--------------------------------------------------------------------------------------------------------


 soft charge-density along one line, spin component           1
         0         1         2         3         4         5         6         7         8         9
 total charge-density along one line
 
 pseudopotential strength for first ion, spin component:           1
 18.431  -0.001   0.000   0.000   0.000   0.000   0.000  -0.000
 -0.001   0.006   0.000   0.000  -0.000  -0.000  -0.000   0.000
  0.000   0.000   4.180  -0.000  -0.000  -0.005   0.000   0.000
  0.000   0.000  -0.000   4.180  -0.000   0.000  -0.005   0.000
  0.000  -0.000  -0.000  -0.000   4.180   0.000   0.000  -0.005
  0.000  -0.000  -0.005   0.000   0.000   0.005  -0.000   0.000
  0.000  -0.000   0.000  -0.005   0.000  -0.000   0.005   0.000
 -0.000   0.000   0.000   0.000  -0.005   0.000   0.000   0.005
 total augmentation occupancy for first ion, spin component:           1
  1.463  -0.793  -0.000  -0.000   0.003   0.000   0.000  -0.004
 -0.793   0.732  -0.000  -0.000  -0.003   0.000  -0.000   0.004
 -0.000  -0.000   1.037  -0.004   0.000  -0.551   0.005  -0.000
 -0.000  -0.000  -0.004   1.037   0.000   0.005  -0.551  -0.000
  0.003  -0.003   0.000   0.000   1.037  -0.000  -0.000  -0.551
  0.000   0.000  -0.551   0.005  -0.000   0.351  -0.004   0.000
  0.000  -0.000   0.005  -0.551  -0.000  -0.004   0.351  -0.000
 -0.004   0.004  -0.000  -0.000  -0.551   0.000  -0.000   0.351


------------------------ aborting loop because EDIFF is reached ----------------------------------------


    CHARGE:  cpu time    0.5089: real time    0.5101
    FORLOC:  cpu time    0.2078: real time    0.2083
    FORNL :  cpu time    5.6764: real time    5.6899
    STRESS:  cpu time    8.8985: real time    8.9203
    FORCOR:  cpu time    0.4317: real time    0.4328
    FORHAR:  cpu time    0.2543: real time    0.2549
    MIXING:  cpu time    0.0104: real time    0.0104
    OFIELD:  cpu time    0.0001: real time    0.0001

  FORCE on cell =-STRESS in cart. coord.  units (eV):
  Direction    XX          YY          ZZ          XY          YZ          ZX
  --------------------------------------------------------------------------------------
  Alpha Z   210.78029   210.78029   210.78029
  Ewald   -4841.67385 -4841.66435 -4841.67375     0.77502    -0.77480     0.00004
  Hartree   330.57710   330.57896   330.57719     0.08860    -0.08840     0.00002
  E(xc)   -1619.14448 -1619.14457 -1619.14448    -0.00662     0.00664     0.00001
  Local   -1899.80289 -1899.81378 -1899.80308    -0.81857     0.81865     0.00023
  n-local  4936.76667  4936.76855  4936.76667     0.15915    -0.15914     0.00000
  augment  -736.53093  -736.53103  -736.53093    -0.00729     0.00674    -0.00027
  Kinetic  3628.38901  3628.38855  3628.38906    -0.10310     0.10314    -0.00001
  Fock        0.00000     0.00000     0.00000     0.00000     0.00000     0.00000
  -------------------------------------------------------------------------------------
  Total       9.36092     9.36262     9.36096     0.08719    -0.08716     0.00001
  in kB       5.73172     5.73276     5.73175     0.05338    -0.05337     0.00001
  external pressure =        5.73 kB  Pullay stress =        0.00 kB


 VOLUME and BASIS-vectors are now :
 -----------------------------------------------------------------------------
  energy-cutoff  :      500.00
  volume of cell :     2616.64
      direct lattice vectors                 reciprocal lattice vectors
     0.000000000 10.937160696 10.937160696    -0.045715704  0.045715704  0.045715704
    10.937160696  0.000000000 10.937160696     0.045715704 -0.045715704  0.045715704
    10.937160696 10.937160696  0.000000000     0.045715704  0.045715704 -0.045715704

  length of vectors
    15.467480990 15.467480990 15.467480990     0.079181922  0.079181922  0.079181922


 FORCES acting on ions
    electron-ion (+dipol)            ewald-force                    non-local-force                 convergence-correction
 -----------------------------------------------------------------------------------------------
   0.531E+00 -.182E-01 -.872E-02   -.473E+00 0.169E-01 0.841E-02   -.187E+00 0.158E-02 0.513E-03   -.181E-05 0.883E-07 -.435E-06
   -.543E-02 -.213E+00 -.209E+00   0.453E-02 0.186E+00 0.181E+00   0.335E-01 0.476E-01 0.483E-01   -.541E-06 0.626E-06 0.412E-06
   0.225E+00 -.206E+00 -.111E-01   -.209E+00 0.173E+00 0.442E-02   -.411E-01 0.543E-01 0.402E-01   -.821E-06 0.411E-06 -.103E-05
   -.617E-02 0.141E+00 0.176E+00   0.453E-02 -.113E+00 -.150E+00   0.333E-01 -.461E-01 -.445E-01   -.584E-06 0.130E-06 -.609E-06
   -.203E+00 -.202E+00 -.340E-02   0.170E+00 0.174E+00 0.284E-02   0.514E-01 0.483E-01 0.334E-01   0.782E-06 0.869E-06 -.440E-06
   0.121E-01 0.204E-02 0.527E+00   -.573E-02 -.462E-02 -.473E+00   -.428E-02 0.304E-02 -.184E+00   -.338E-06 0.139E-06 -.194E-05
   0.190E-01 -.127E-01 -.311E-02   -.314E-01 0.171E-01 0.852E-02   0.706E-02 -.507E-02 -.614E-02   -.199E-06 0.420E-06 0.205E-06
   0.129E-01 -.620E-01 -.271E-01   -.576E-02 0.651E-01 0.282E-01   -.412E-02 -.156E-02 0.869E-04   -.124E-06 0.871E-06 0.285E-06
   -.230E-01 -.287E-02 -.478E-01   0.189E-01 0.465E-02 0.547E-01   0.618E-02 -.322E-02 -.280E-02   0.526E-06 -.256E-06 0.445E-06
   -.192E-03 0.195E+00 -.202E+00   0.550E-03 -.166E+00 0.174E+00   0.328E-01 -.490E-01 0.479E-01   -.470E-06 -.799E-06 0.312E-06
   -.226E-01 0.200E-02 0.474E-02   0.209E-01 -.424E-02 -.596E-02   0.142E-02 0.163E-02 0.111E-02   0.638E-06 0.183E-06 0.366E-06
   0.694E-02 0.108E-02 0.311E-02   -.141E-01 0.664E-02 -.156E-01   0.785E-02 -.832E-02 0.725E-02   0.196E-06 -.233E-06 0.147E-06
   -.193E-01 0.208E-02 -.618E-02   0.174E-01 -.338E-02 0.612E-02   0.222E-02 0.672E-03 0.543E-03   0.330E-06 0.692E-07 0.665E-07
   -.588E-01 0.268E-02 -.269E-01   0.588E-01 -.109E-02 0.246E-01   0.196E-02 -.474E-03 0.377E-02   0.110E-05 0.542E-07 0.335E-06
   -.287E-01 0.562E-01 -.272E-02   0.265E-01 -.574E-01 0.370E-02   0.335E-02 -.127E-02 -.271E-03   0.239E-06 -.723E-06 -.191E-06
   0.517E-02 0.142E-01 -.497E-02   -.594E-02 -.124E-01 0.362E-02   0.660E-03 -.131E-02 0.106E-02   0.317E-06 -.552E-07 0.290E-06
   -.988E-02 -.189E-02 -.113E-01   0.859E-02 0.109E-02 0.111E-01   0.127E-02 0.641E-03 0.443E-03   -.119E-06 0.241E-06 0.852E-07
   -.872E-02 0.573E-02 -.192E-01   0.841E-02 -.465E-02 0.130E-01   0.515E-03 -.603E-03 0.472E-02   -.134E-06 0.202E-06 -.334E-07
   -.192E-01 0.563E-02 -.138E-01   0.191E-01 -.693E-02 0.143E-01   0.417E-05 0.933E-03 -.250E-03   0.756E-07 -.551E-07 0.111E-07
   -.143E-01 0.425E-02 -.103E-01   0.143E-01 -.338E-02 0.943E-02   0.140E-03 -.449E-03 0.898E-03   0.176E-06 0.119E-06 0.401E-07
   -.263E-01 0.180E-01 -.873E-02   0.244E-01 -.174E-01 0.843E-02   0.221E-02 -.573E-03 0.506E-03   0.627E-08 0.275E-06 -.237E-06
   -.188E-01 0.933E-02 -.971E-02   0.191E-01 -.898E-02 0.859E-02   0.177E-03 -.270E-03 0.111E-02   0.239E-07 0.153E-06 -.152E-06
   -.116E-01 0.946E-02 0.470E-02   0.148E-01 -.127E-01 0.229E-02   -.365E-02 0.357E-02 -.481E-02   -.281E-06 0.173E-06 -.441E-06
   -.159E-01 0.216E-01 -.572E-02   0.164E-01 -.192E-01 0.513E-02   -.169E-03 -.226E-02 0.220E-03   -.178E-06 -.160E-07 -.359E-06
   -.269E-01 -.859E-02 -.660E-01   0.247E-01 0.898E-02 0.664E-01   0.359E-02 0.481E-03 0.169E-02   0.236E-06 -.839E-07 0.100E-05
   -.620E-02 -.135E-01 -.193E-01   0.614E-02 0.127E-01 0.173E-01   0.533E-03 0.531E-03 0.221E-02   0.685E-07 0.127E-06 0.453E-06
   -.462E-01 0.386E-01 -.391E-01   0.440E-01 -.397E-01 0.388E-01   0.335E-02 -.125E-02 -.783E-03   0.529E-06 -.584E-06 0.221E-06
   -.457E-01 0.136E-01 -.308E-01   0.468E-01 -.124E-01 0.305E-01   -.103E-02 -.692E-03 -.303E-04   0.390E-06 -.431E-06 0.231E-06
   -.201E+00 0.208E+00 -.221E-02   0.174E+00 -.181E+00 0.224E-02   0.472E-01 -.469E-01 0.328E-01   0.337E-06 -.617E-06 -.809E-06
   -.683E-01 0.175E-01 -.195E-01   0.685E-01 -.169E-01 0.190E-01   0.199E-02 -.179E-02 0.251E-02   0.646E-06 0.147E-07 0.282E-06
   0.455E-02 -.248E-01 0.541E-02   -.605E-02 0.227E-01 -.595E-02   0.127E-02 0.146E-02 0.492E-03   0.338E-06 0.400E-06 0.365E-06
   0.210E-02 -.197E-02 0.211E-01   0.380E-02 -.315E-02 -.330E-01   -.710E-02 0.645E-02 0.667E-02   0.150E-07 -.313E-06 -.266E-06
   -.677E-02 -.656E-01 -.953E-02   0.661E-02 0.651E-01 0.843E-02   0.155E-02 0.209E-02 0.345E-03   -.493E-07 0.546E-06 -.413E-06
   0.393E-02 -.209E+00 0.192E+00   -.518E-02 0.182E+00 -.164E+00   0.340E-01 0.478E-01 -.489E-01   -.618E-06 0.582E-06 -.916E-06
   0.207E-01 -.325E-02 0.989E-02   -.201E-01 0.148E-02 -.116E-01   -.168E-03 0.158E-02 0.116E-02   -.264E-07 0.453E-06 0.197E-06
   0.721E-01 -.208E-01 -.297E-01   -.741E-01 0.204E-01 0.301E-01   -.297E-03 0.101E-02 0.146E-02   -.703E-06 0.206E-06 -.321E-06
   -.304E-02 0.467E-03 0.199E-01   0.508E-02 0.234E-02 -.138E-01   -.241E-02 -.301E-02 -.421E-02   0.199E-07 0.323E-07 -.149E-06
   0.693E-02 0.399E-02 0.266E-01   -.171E-02 0.979E-03 -.372E-01   -.626E-02 -.610E-02 0.582E-02   0.397E-06 0.314E-06 -.473E-07
   -.214E-01 -.283E-02 0.564E-01   0.205E-01 0.303E-02 -.568E-01   0.293E-02 0.376E-03 -.193E-02   0.102E-06 0.485E-07 -.768E-06
   0.932E-02 -.260E-02 0.216E-01   -.117E-01 0.150E-02 -.200E-01   0.185E-02 0.966E-03 -.118E-02   0.261E-06 0.441E-06 -.184E-06
   -.585E-02 -.782E-02 -.721E-02   0.609E-02 0.807E-02 0.740E-02   -.214E-03 -.397E-04 -.136E-03   0.102E-06 0.385E-07 0.133E-06
   -.314E-01 -.244E-01 -.211E-01   0.310E-01 0.229E-01 0.210E-01   0.123E-03 0.905E-03 -.148E-03   0.380E-06 -.706E-08 0.822E-07
   -.772E-02 -.434E-03 0.192E-03   0.772E-02 0.241E-04 -.669E-03   0.128E-03 0.418E-03 0.322E-03   -.863E-07 0.134E-06 0.247E-07
   -.412E-02 -.599E-02 0.477E-02   0.364E-02 0.561E-02 -.395E-02   0.380E-03 0.402E-03 -.555E-03   0.137E-06 0.190E-06 0.325E-06
   -.135E-01 0.110E-01 0.389E-02   0.132E-01 -.111E-01 -.437E-02   -.614E-04 0.251E-03 0.175E-04   -.592E-07 -.301E-07 0.707E-07
   -.113E-01 0.230E-02 0.557E-02   0.117E-01 -.332E-02 -.516E-02   -.305E-03 0.732E-03 -.327E-03   0.285E-07 0.458E-07 0.334E-07
   -.261E-01 0.364E-02 -.351E-02   0.272E-01 -.304E-02 0.370E-02   -.521E-03 -.211E-03 -.439E-03   0.143E-06 -.208E-06 -.144E-06
   -.385E-01 0.211E-01 0.181E-01   0.390E-01 -.206E-01 -.169E-01   -.565E-03 -.238E-03 -.765E-03   0.274E-06 -.280E-06 -.424E-06
   -.213E-02 0.142E-02 -.118E-01   0.150E-02 -.127E-02 0.117E-01   0.714E-03 0.103E-03 0.154E-03   0.917E-07 0.190E-06 0.124E-06
   -.669E-02 -.193E-02 -.888E-02   0.634E-02 0.109E-02 0.902E-02   0.397E-03 0.664E-03 -.968E-04   -.882E-07 0.262E-08 0.804E-07
   -.499E-02 0.118E-01 -.150E-01   0.451E-02 -.121E-01 0.146E-01   0.602E-03 0.933E-04 0.999E-05   0.130E-06 0.765E-08 0.115E-06
   -.880E-02 0.538E-02 -.107E-01   0.845E-02 -.560E-02 0.111E-01   0.255E-03 0.210E-03 -.261E-03   0.421E-07 0.693E-07 0.217E-06
   -.109E-01 0.229E-01 -.859E-02   0.102E-01 -.217E-01 0.843E-02   0.397E-03 -.145E-02 0.357E-03   -.177E-06 -.261E-06 -.341E-06
   -.138E-01 0.167E-01 -.775E-02   0.144E-01 -.170E-01 0.903E-02   -.308E-03 0.247E-03 -.107E-02   -.528E-08 -.427E-07 -.711E-07
   -.568E-02 0.384E-02 -.447E-02   0.556E-02 -.406E-02 0.412E-02   0.218E-03 0.205E-03 0.198E-03   0.324E-07 0.914E-07 0.481E-07
   -.157E-01 0.111E-01 -.399E-02   0.147E-01 -.121E-01 0.453E-02   0.703E-03 0.720E-03 -.418E-03   -.132E-06 -.166E-07 -.209E-06
   0.287E-01 0.190E-02 -.183E-01   -.401E-01 0.392E-02 0.125E-01   0.649E-02 -.677E-02 0.677E-02   0.540E-07 0.139E-06 0.116E-07
   0.123E-01 -.643E-04 -.269E-01   -.139E-01 -.180E-02 0.260E-01   0.133E-02 0.152E-02 0.597E-03   0.495E-06 0.188E-06 0.525E-06
   0.313E-01 0.210E-01 -.379E-01   -.300E-01 -.205E-01 0.388E-01   -.729E-03 -.235E-03 -.103E-02   -.191E-06 -.321E-06 -.147E-06
   0.124E-01 0.217E-01 -.342E-01   -.139E-01 -.205E-01 0.366E-01   0.118E-02 -.797E-03 -.196E-02   0.363E-06 -.195E-06 -.405E-07
   0.504E-02 0.215E-01 0.126E-01   -.653E-02 -.205E-01 -.139E-01   0.128E-02 -.610E-03 0.997E-03   0.391E-06 -.119E-06 0.211E-06
   0.907E-03 0.635E-01 -.247E-01   -.649E-03 -.642E-01 0.236E-01   0.537E-03 -.142E-02 0.269E-02   -.166E-06 -.831E-06 -.126E-06
   0.987E-02 -.441E-02 0.150E-03   -.953E-02 0.403E-02 -.628E-03   -.772E-04 0.406E-03 0.322E-03   0.406E-06 0.136E-06 0.148E-06
   -.293E-03 -.394E-03 0.633E-02   -.649E-03 -.170E-04 -.550E-02   0.785E-03 0.419E-03 -.551E-03   0.222E-06 0.200E-06 0.218E-06
   0.136E-02 -.141E-01 -.650E-02   -.150E-02 0.138E-01 0.634E-02   0.362E-03 0.450E-03 0.213E-03   -.787E-08 0.271E-06 -.249E-07
   0.362E-02 -.183E-01 -.227E-02   -.432E-02 0.169E-01 0.285E-02   0.540E-03 0.160E-02 0.308E-04   -.170E-06 0.151E-06 -.331E-06
   -.792E-02 -.925E-02 0.839E-02   0.903E-02 0.911E-02 -.961E-02   -.905E-03 0.185E-03 0.930E-03   0.771E-07 0.783E-07 -.466E-07
   0.136E-02 -.680E-02 0.712E-03   -.172E-02 0.670E-02 -.607E-03   0.271E-03 0.291E-03 0.157E-03   0.235E-06 0.281E-06 -.345E-07
   -.593E-02 0.207E-02 0.245E-01   0.287E-02 -.463E-02 -.185E-01   0.367E-02 0.303E-02 -.425E-02   -.597E-07 0.193E-06 -.187E-06
   -.647E-02 -.172E-02 0.848E-02   0.632E-02 0.109E-02 -.129E-01   0.204E-03 0.473E-03 0.285E-02   0.792E-07 0.105E-06 0.154E-07
   0.884E-02 -.164E-02 -.134E-02   -.680E-02 0.340E-02 0.361E-03   -.219E-02 -.113E-02 0.104E-02   -.374E-06 0.331E-07 -.282E-06
   -.158E-02 -.250E-02 0.184E-01   0.381E-03 0.236E-02 -.165E-01   0.120E-02 -.646E-04 -.198E-02   -.182E-06 -.729E-07 -.157E-06
   0.118E-03 -.895E-02 -.148E-02   -.542E-03 0.906E-02 0.141E-02   0.553E-03 0.177E-04 0.240E-03   0.202E-07 0.253E-06 0.128E-06
   -.185E-02 -.949E-02 -.697E-02   0.157E-02 0.900E-02 0.663E-02   0.335E-03 0.420E-03 0.277E-03   0.382E-08 0.308E-06 0.185E-07
   -.576E-03 0.141E-02 0.802E-02   0.457E-03 -.174E-02 -.871E-02   0.215E-03 0.344E-04 0.384E-03   -.435E-08 -.399E-07 -.127E-06
   -.397E-02 -.572E-02 0.599E-02   0.369E-02 0.560E-02 -.558E-02   0.192E-03 0.127E-03 -.307E-03   0.597E-08 0.172E-06 -.144E-06
   0.490E-03 0.185E-01 -.408E-02   0.886E-03 -.169E-01 0.364E-02   -.807E-03 -.174E-02 0.643E-03   0.725E-07 -.251E-06 -.168E-06
   -.326E-02 0.887E-02 0.939E-02   0.405E-02 -.912E-02 -.855E-02   -.461E-03 0.208E-03 -.658E-03   -.127E-06 0.582E-07 -.542E-07
   -.125E-02 -.647E-03 -.126E-01   0.149E-02 0.717E-03 0.124E-01   -.167E-03 -.914E-04 0.183E-03   0.921E-08 0.101E-06 0.101E-06
   -.513E-02 0.338E-02 -.551E-02   0.436E-02 -.400E-02 0.609E-02   0.554E-03 0.485E-03 -.558E-03   -.140E-06 -.174E-06 -.193E-06
   0.263E-03 0.112E-02 -.400E-02   -.496E-02 -.102E-02 0.368E-02   0.304E-02 -.811E-04 0.217E-03   0.179E-07 -.269E-07 0.986E-07
   0.104E-02 -.190E-02 -.522E-02   -.159E-02 0.110E-02 0.478E-02   0.472E-03 0.641E-03 0.390E-03   0.180E-06 0.220E-06 0.113E-06
   0.220E-02 0.954E-02 -.626E-02   -.107E-02 -.899E-02 0.631E-02   -.845E-03 -.457E-03 0.187E-04   0.122E-06 -.893E-07 -.527E-07
   0.117E-02 0.652E-02 -.332E-02   -.159E-02 -.585E-02 0.441E-02   0.324E-03 -.515E-03 -.841E-03   0.163E-06 -.850E-07 0.138E-06
   -.506E-02 0.935E-02 -.650E-02   0.478E-02 -.900E-02 0.634E-02   0.227E-03 -.271E-03 0.210E-03   0.106E-06 -.122E-06 -.131E-06
   -.402E-02 0.135E-01 -.687E-02   0.370E-02 -.138E-01 0.648E-02   0.221E-03 -.533E-04 0.552E-03   0.133E-06 -.104E-06 -.319E-06
   -.650E-03 0.921E-03 -.423E-02   0.104E-02 -.102E-02 0.370E-02   -.289E-03 0.108E-03 0.407E-03   0.152E-06 0.881E-07 0.253E-06
   -.416E-02 0.352E-02 -.637E-02   0.370E-02 -.375E-02 0.656E-02   0.368E-03 0.205E-03 -.120E-03   0.910E-07 -.366E-07 0.623E-07
   0.938E-02 -.541E-02 -.324E-02   -.854E-02 0.694E-02 0.403E-02   -.655E-03 -.116E-02 -.464E-03   -.211E-06 -.954E-07 -.411E-07
   0.167E-01 -.193E-02 -.315E-02   -.105E-01 0.463E-02 0.879E-03   -.415E-02 -.318E-02 0.284E-02   -.144E-06 -.235E-06 0.349E-06
   0.302E-03 0.892E-03 -.404E-02   -.885E-04 -.845E-03 0.370E-02   -.139E-03 -.642E-04 0.232E-03   0.141E-06 0.193E-07 -.160E-06
   0.754E-02 0.340E-02 -.938E-02   -.869E-02 -.399E-02 0.101E-01   0.779E-03 0.400E-03 -.681E-03   -.520E-07 -.827E-07 -.267E-06
   -.711E-02 0.176E-02 0.566E-02   0.660E-02 -.110E-02 -.634E-02   0.441E-03 -.493E-03 0.598E-03   0.211E-06 0.464E-08 0.183E-06
   -.147E-02 0.670E-02 0.111E-03   0.139E-02 -.702E-02 -.535E-03   0.239E-03 0.145E-03 0.552E-03   0.298E-06 0.491E-07 -.674E-07
   0.400E-02 -.280E-02 0.733E-02   -.358E-02 0.227E-02 -.870E-02   -.331E-03 0.253E-03 0.101E-02   -.165E-07 -.147E-06 0.197E-06
   -.149E-04 -.228E-03 0.443E-02   -.663E-03 0.187E-04 -.401E-02   0.510E-03 0.229E-03 -.313E-03   0.160E-06 -.344E-07 0.317E-06
   -.234E-01 -.689E-01 -.576E-02   0.225E-01 0.691E-01 0.634E-02   0.263E-02 0.175E-02 0.424E-03   0.602E-07 0.801E-06 -.880E-07
   -.135E-02 -.257E-01 -.155E-01   0.382E-03 0.249E-01 0.148E-01   0.964E-03 0.112E-02 0.328E-03   -.177E-06 0.241E-06 0.153E-06
   -.297E-01 -.224E-01 0.720E-01   0.302E-01 0.205E-01 -.740E-01   0.147E-02 0.582E-03 -.299E-03   -.284E-06 0.168E-06 -.630E-06
   -.409E-01 -.288E-01 0.200E-01   0.411E-01 0.285E-01 -.199E-01   -.593E-03 0.173E-03 0.400E-03   0.144E-06 0.232E-06 -.256E-06
   0.202E+00 0.205E+00 0.373E-02   -.174E+00 -.176E+00 -.520E-02   -.487E-01 -.489E-01 0.341E-01   -.105E-05 -.813E-06 -.520E-06
   -.146E-01 -.172E-03 0.430E-01   0.854E-02 -.452E-02 -.530E-01   0.724E-02 0.613E-02 0.487E-02   -.521E-06 -.160E-06 -.237E-06
   0.212E-01 -.283E-01 -.417E-01   -.201E-01 0.286E-01 0.413E-01   -.620E-03 -.450E-03 0.104E-03   -.423E-06 0.436E-06 0.573E-06
   0.564E-01 -.444E-02 -.214E-01   -.567E-01 0.304E-02 0.205E-01   -.193E-02 0.532E-04 0.293E-02   -.116E-05 -.597E-07 0.164E-06
   0.251E-01 -.986E-02 0.605E-02   -.361E-01 0.416E-02 -.758E-03   0.604E-02 0.668E-02 -.641E-02   -.248E-06 -.366E-06 0.133E-06
   0.126E-01 -.263E-01 -.682E-03   -.139E-01 0.253E-01 -.101E-02   0.103E-02 0.672E-03 0.145E-02   0.175E-06 0.336E-06 0.303E-06
   0.576E-02 0.220E-01 0.126E-01   -.303E-02 -.204E-01 -.140E-01   -.215E-02 -.125E-02 0.118E-02   -.151E-06 -.708E-06 0.437E-06
   0.129E-01 -.460E-02 0.320E-01   -.139E-01 0.659E-02 -.301E-01   0.720E-03 -.165E-02 -.129E-02   0.257E-07 -.434E-06 -.114E-06
   -.207E-01 0.213E-01 -.387E-01   0.206E-01 -.206E-01 0.390E-01   -.131E-03 -.423E-03 -.378E-03   0.315E-06 -.433E-06 0.504E-06
   -.629E-03 0.603E-01 -.211E-01   -.649E-03 -.605E-01 0.195E-01   0.161E-03 -.191E-02 0.319E-02   -.615E-07 -.111E-05 0.364E-06
   0.631E-02 -.404E-02 -.130E-01   -.550E-02 0.409E-02 0.124E-01   -.528E-03 -.328E-04 0.497E-03   0.184E-06 0.215E-06 0.244E-06
   0.170E-03 -.398E-02 -.302E-01   -.649E-03 0.406E-02 0.303E-01   0.323E-03 -.563E-04 0.109E-03   -.136E-07 0.108E-06 0.526E-06
   0.193E-02 0.512E-02 -.608E-02   -.641E-03 -.338E-02 0.643E-02   -.103E-02 -.131E-02 -.217E-03   -.357E-06 -.695E-07 0.152E-06
   0.123E-01 0.226E-02 -.159E-02   -.579E-02 -.462E-02 0.465E-02   -.446E-02 0.285E-02 -.340E-02   -.391E-06 0.439E-07 -.143E-06
   -.107E-01 0.567E-02 -.878E-02   0.111E-01 -.561E-02 0.843E-02   -.260E-03 -.886E-04 0.255E-03   0.567E-07 -.234E-06 0.454E-07
   -.234E-02 0.825E-02 -.493E-02   0.162E-02 -.805E-02 0.448E-02   0.295E-03 -.350E-03 0.574E-03   -.260E-06 -.236E-06 0.159E-06
   -.146E-01 0.636E-02 -.663E-02   0.145E-01 -.585E-02 0.634E-02   0.706E-04 -.352E-03 0.358E-03   0.120E-06 0.583E-07 0.541E-07
   -.114E-01 0.850E-02 -.110E-01   0.117E-01 -.906E-02 0.112E-01   -.242E-03 0.377E-03 -.188E-03   0.280E-07 -.184E-06 0.521E-07
   -.393E-02 0.757E-02 -.306E-02   0.450E-02 -.805E-02 0.164E-02   -.443E-03 0.267E-03 0.994E-03   -.245E-06 0.170E-07 -.557E-07
   -.445E-02 0.409E-02 -.568E-02   0.410E-02 -.403E-02 0.556E-02   0.197E-03 -.926E-04 0.217E-03   0.574E-07 0.204E-06 0.127E-06
   -.396E-02 -.129E-01 -.115E-01   0.452E-02 0.136E-01 0.117E-01   -.534E-03 -.578E-03 -.138E-03   -.657E-07 0.854E-07 0.429E-06
   0.432E-02 -.616E-02 -.460E-02   -.435E-02 0.532E-02 0.348E-02   -.374E-03 0.182E-03 0.839E-03   -.231E-06 -.326E-06 0.281E-06
   -.351E-01 -.552E-02 -.418E-02   0.357E-01 0.560E-02 0.370E-02   -.370E-03 -.614E-04 0.380E-03   0.511E-06 -.148E-06 0.161E-07
   -.125E-01 -.398E-02 -.775E-02   0.124E-01 0.403E-02 0.772E-02   0.319E-04 -.310E-04 0.152E-03   0.175E-06 -.128E-06 0.128E-06
   -.312E-01 0.279E-02 0.198E-01   0.307E-01 -.147E-02 -.219E-01   0.202E-03 -.113E-02 0.170E-02   0.222E-06 -.422E-06 0.350E-06
   -.203E-01 0.144E-02 0.297E-02   0.204E-01 -.175E-02 -.355E-02   -.298E-04 0.934E-05 0.664E-03   0.207E-06 -.230E-06 0.195E-06
   0.185E-01 -.454E-02 0.126E-01   -.168E-01 0.653E-02 -.140E-01   -.132E-02 -.165E-02 0.118E-02   -.594E-06 -.534E-06 0.288E-06
   -.353E-02 0.409E-02 0.139E-01   0.372E-02 -.303E-02 -.126E-01   -.441E-03 -.671E-03 -.705E-03   0.294E-07 -.274E-06 0.305E-06
 -----------------------------------------------------------------------------------------------
   -.655E-05 -.170E-04 -.138E-04   0.241E-12 -.499E-12 0.381E-13   0.601E-05 0.166E-04 0.134E-04   0.188E-07 0.946E-08 0.483E-08
 
 
 POSITION                                       TOTAL-FORCE (eV/Angst)
 -----------------------------------------------------------------------------------
      1.37715      1.36715      1.36715        -0.129836      0.000198      0.000203
      0.00000      0.00000      0.00000         0.032562      0.020321      0.020095
      1.36715      4.10144      4.10144        -0.024867      0.020892      0.033513
      0.00000      2.73429      2.73429         0.031613     -0.017923     -0.018378
      1.36715      6.83573      6.83573         0.018849      0.020518      0.032860
     10.93716     16.40574      5.47858         0.002039      0.000467     -0.129836
      1.36715      9.57002      9.57002        -0.005389     -0.000750     -0.000739
      0.00000      8.20287      8.20287         0.003001      0.001565      0.001111
      4.10144      1.36715      4.10144         0.002059     -0.001434      0.004068
      2.73429      0.00000      2.73429         0.033130     -0.020312      0.020627
      4.10144      4.10144      6.83573        -0.000241     -0.000609     -0.000103
      2.73429      2.73429      5.46858         0.000695     -0.000607     -0.005257
      4.10144      6.83573      9.57002         0.000302     -0.000622      0.000480
      2.73429      5.46858      8.20287         0.001955      0.001119      0.001426
      4.10144      9.57002     12.30431         0.001197     -0.002422      0.000709
      2.73429      8.20287     10.93716        -0.000102      0.000494     -0.000292
      6.83573      1.36715      6.83573        -0.000016     -0.000158      0.000293
      5.46858      0.00000      5.46858         0.000209      0.000474     -0.001471
      6.83573      4.10144      9.57002        -0.000034     -0.000366      0.000264
      5.46858      2.73429      8.20287         0.000205      0.000428      0.000023
      6.83573      6.83573     12.30431         0.000339      0.000103      0.000207
      5.46858      5.46858     10.93716         0.000426      0.000081     -0.000015
      6.83573      9.57002     15.03860        -0.000428      0.000324      0.002185
      5.46858      8.20287     13.67145         0.000419      0.000073     -0.000369
      9.57002      1.36715      9.57002         0.001414      0.000870      0.002073
      8.20287      0.00000      8.20287         0.000476     -0.000325      0.000300
      9.57002      4.10144     12.30431         0.001228     -0.002362     -0.001029
      8.20287      2.73429     10.93716         0.000131      0.000552     -0.000297
      9.57002      6.83573     15.03860         0.020052     -0.020158      0.032829
      8.20287      5.46858     13.67145         0.002225     -0.001147      0.002045
      9.57002      9.57002     17.77289        -0.000233     -0.000615     -0.000042
      8.20287      8.20287     16.40574        -0.001197      0.001334     -0.005301
      4.10144      4.10144      1.36715         0.001387      0.001558     -0.000756
      2.73429      2.73429      0.00000         0.032709      0.020672     -0.020471
      4.10144      6.83573      4.10144         0.000445     -0.000194     -0.000521
      2.73429      5.46858      2.73429        -0.002267      0.000608      0.001909
      4.10144      9.57002      6.83573        -0.000371     -0.000204      0.001906
      2.73429      8.20287      5.46858        -0.001043     -0.001123     -0.004763
      4.10144     12.30431      9.57002         0.001972      0.000575     -0.002287
      2.73429     10.93716      8.20287        -0.000523     -0.000129      0.000448
      6.83573      4.10144      4.10144         0.000025      0.000215      0.000053
      5.46858      2.73429      2.73429        -0.000286     -0.000611     -0.000237
      6.83573      6.83573      6.83573         0.000126      0.000008     -0.000156
      5.46858      5.46858      5.46858        -0.000099      0.000018      0.000271
      6.83573      9.57002      9.57002        -0.000338      0.000177     -0.000459
      5.46858      8.20287      8.20287         0.000109     -0.000290      0.000086
      6.83573     12.30431     12.30431         0.000554      0.000387     -0.000251
      5.46858     10.93716     10.93716        -0.000077      0.000341      0.000444
      9.57002      4.10144      6.83573         0.000080      0.000248      0.000044
      8.20287      2.73429      5.46858         0.000043     -0.000171      0.000047
      9.57002      6.83573      9.57002         0.000126     -0.000172     -0.000336
      8.20287      5.46858      8.20287        -0.000097     -0.000007      0.000113
      9.57002      9.57002     12.30431        -0.000379     -0.000198      0.000194
      8.20287      8.20287     10.93716         0.000205     -0.000070      0.000207
      9.57002     12.30431     15.03860         0.000102     -0.000010     -0.000155
      8.20287     10.93716     13.67145        -0.000335     -0.000231      0.000127
     12.30431      4.10144      9.57002        -0.004942     -0.000943      0.000901
     10.93716      2.73429      8.20287        -0.000237     -0.000342     -0.000246
     12.30431      6.83573     12.30431         0.000595      0.000343     -0.000077
     10.93716      5.46858     10.93716        -0.000250      0.000340      0.000509
     12.30431      9.57002     15.03860        -0.000217      0.000328     -0.000237
     10.93716      8.20287     13.67145         0.000795     -0.002039      0.001563
     12.30431     12.30431     17.77289         0.000260      0.000022     -0.000156
     10.93716     10.93716     16.40574        -0.000156      0.000007      0.000274
      6.83573      6.83573      1.36715         0.000222      0.000212      0.000054
      5.46858      5.46858      0.00000        -0.000161      0.000196      0.000616
      6.83573      9.57002      4.10144         0.000205      0.000049     -0.000287
      5.46858      8.20287      2.73429        -0.000094      0.000192      0.000262
      6.83573     12.30431      6.83573         0.000617      0.000476      0.001682
      5.46858     10.93716      5.46858         0.000055     -0.000157     -0.001598
      6.83573     15.03860      9.57002        -0.000153      0.000626      0.000061
      5.46858     13.67145      8.20287         0.000002     -0.000203     -0.000094
      9.57002      6.83573      4.10144         0.000128      0.000126      0.000166
      8.20287      5.46858      2.73429         0.000054     -0.000067     -0.000065
      9.57002      9.57002      6.83573         0.000096     -0.000294     -0.000306
      8.20287      8.20287      5.46858        -0.000086      0.000006      0.000108
      9.57002     12.30431      9.57002         0.000569     -0.000210      0.000209
      8.20287     10.93716      8.20287         0.000326     -0.000049      0.000184
      9.57002     15.03860     12.30431         0.000072     -0.000021     -0.000052
      8.20287     13.67145     10.93716        -0.000214     -0.000127      0.000023
     12.30431      6.83573      6.83573        -0.001655      0.000024     -0.000106
     10.93716      5.46858      5.46858        -0.000078     -0.000159     -0.000046
     12.30431      9.57002      9.57002         0.000284      0.000093      0.000068
     10.93716      8.20287      8.20287        -0.000090      0.000157      0.000253
     12.30431     12.30431     12.30431        -0.000046      0.000080      0.000055
     10.93716     10.93716     10.93716        -0.000108     -0.000347      0.000166
     12.30431     15.03860     15.03860         0.000103      0.000011     -0.000118
     10.93716     13.67145     13.67145        -0.000094     -0.000025      0.000071
     15.03860      6.83573      9.57002         0.000184      0.000365      0.000327
     13.67145      5.46858      8.20287         0.002052     -0.000487      0.000568
     15.03860      9.57002     12.30431         0.000075     -0.000017     -0.000111
     13.67145      8.20287     10.93716        -0.000364     -0.000186      0.000038
     15.03860     12.30431     15.03860        -0.000065      0.000171     -0.000080
     13.67145     10.93716     13.67145         0.000166     -0.000174      0.000128
     15.03860     15.03860     17.77289         0.000082     -0.000280     -0.000363
     13.67145     13.67145     16.40574        -0.000168      0.000020      0.000105
      9.57002      9.57002      1.36715         0.001730      0.001938      0.001006
      8.20287      8.20287      0.00000        -0.000001      0.000404     -0.000427
      9.57002     12.30431      4.10144         0.001914     -0.001291     -0.002267
      8.20287     10.93716      2.73429        -0.000349     -0.000194      0.000447
      9.57002     15.03860      6.83573        -0.020417     -0.020247      0.032649
      8.20287     13.67145      5.46858         0.001172      0.001437     -0.005116
      9.57002     17.77289      9.57002         0.000445     -0.000132     -0.000347
      8.20287     16.40574      8.20287        -0.002287     -0.001351      0.001973
     12.30431      9.57002      4.10144        -0.004928      0.000986     -0.001121
     10.93716      8.20287      2.73429        -0.000262     -0.000339     -0.000249
     12.30431     12.30431      6.83573         0.000589      0.000344     -0.000251
     10.93716     10.93716      5.46858        -0.000250      0.000343      0.000592
     12.30431     15.03860      9.57002        -0.000214      0.000353     -0.000089
     10.93716     13.67145      8.20287        -0.001117     -0.002041      0.001562
     12.30431     17.77289     12.30431         0.000274      0.000022     -0.000065
     10.93716     16.40574     10.93716        -0.000156      0.000022      0.000174
     15.03860      9.57002      6.83573         0.000262      0.000429      0.000131
     13.67145      8.20287      5.46858         0.002066      0.000487     -0.000348
     15.03860     12.30431      9.57002         0.000113     -0.000031     -0.000097
     13.67145     10.93716      8.20287        -0.000426     -0.000157      0.000126
     15.03860     15.03860     12.30431         0.000014      0.000157      0.000067
     13.67145     13.67145     10.93716         0.000103     -0.000184      0.000022
     15.03860     17.77289     15.03860         0.000126     -0.000215     -0.000427
     13.67145     16.40574     13.67145        -0.000154     -0.000034      0.000102
     17.77289      9.57002      9.57002         0.000029      0.000168      0.000051
     16.40574      8.20287      8.20287        -0.000399     -0.000655     -0.000282
     17.77289     12.30431     12.30431         0.000184      0.000019     -0.000099
     16.40574     10.93716     10.93716        -0.000064      0.000022      0.000126
     17.77289     15.03860     15.03860        -0.000293      0.000193     -0.000399
     16.40574     13.67145     13.67145         0.000086     -0.000293      0.000082
     17.77289     17.77289     17.77289         0.000448      0.000337     -0.000252
     16.40574     16.40574     16.40574        -0.000251      0.000385      0.000638
 -----------------------------------------------------------------------------------
    total drift:                               -0.000001     -0.000000     -0.000000


--------------------------------------------------------------------------------------------------------



  FREE ENERGIE OF THE ION-ELECTRON SYSTEM (eV)
  ---------------------------------------------------
  free  energy   TOTEN  =      -682.56820122 eV

  energy  without entropy=     -682.56820122  energy(sigma->0) =     -682.56820122
 


--------------------------------------------------------------------------------------------------------


    POTLOK:  cpu time    0.5095: real time    0.5107


--------------------------------------------------------------------------------------------------------


     LOOP+:  cpu time  123.5822: real time  123.9139
    4ORBIT:  cpu time    0.0000: real time    0.0000

 total amount of memory used by VASP MPI-rank0   118934. kBytes
=======================================================================

   base      :      30000. kBytes
   nonl-proj :       7011. kBytes
   fftplans  :      53058. kBytes
   grid      :      20148. kBytes
   one-center:         21. kBytes
   wavefun   :       8696. kBytes
 
  
  
 General timing and accounting informations for this job:
 ========================================================
  
                  Total CPU time used (sec):      131.415
                            User time (sec):      129.314
                          System time (sec):        2.101
                         Elapsed time (sec):      131.818
  
                   Maximum memory used (kb):      242804.
                   Average memory used (kb):           0.
  
                          Minor page faults:        76374
                          Major page faults:            0
                 Voluntary context switches:          524
