<?xml version="1.0" encoding="ISO-8859-1"?>
<modeling>
 <generator>
  <i name="program" type="string">vasp </i>
  <i name="version" type="string">5.4.4.18Apr17-6-g9f103f2a35  </i>
  <i name="subversion" type="string">(build Aug 16 2020 16:33:06) complex            parallel </i>
  <i name="platform" type="string">LinuxIFC </i>
  <i name="date" type="string">2026 08 15 </i>
  <i name="time" type="string">15:35:44 </i>
 </generator>
 <incar>
  <i type="string" name="PREC">accurate</i>
  <i type="logical" name="ADDGRID"> T  </i>
  <i type="int" name="IBRION">    -1</i>
  <i name="EDIFF">      0.00000001</i>
  <i type="int" name="ISYM">     0</i>
  <i name="ENCUT">    500.00000000</i>
  <i type="logical" name="LREAL"> F  </i>
  <i type="int" name="ISMEAR">     0</i>
  <i name="SIGMA">      0.05000000</i>
  <i type="logical" name="LWAVE"> F  </i>
  <i type="logical" name="LCHARG"> F  </i>
  <v type="int" name="KPOINT_BSE">    -1     0     0     0</v>
 </incar>
 <structure name="primitive_cell" >
  <crystal>
   <varray name="basis" >
    <v>       0.00000000      10.93716070      10.93716070 </v>
    <v>      10.93716070       0.00000000      10.93716070 </v>
    <v>      10.93716070      10.93716070       0.00000000 </v>
   </varray>
   <i name="volume">   2616.63878844 </i>
   <varray name="rec_basis" >
    <v>      -0.04571570       0.04571570       0.04571570 </v>
    <v>       0.04571570      -0.04571570       0.04571570 </v>
    <v>       0.04571570       0.04571570      -0.04571570 </v>
   </varray>
  </crystal>
  <varray name="positions" >
   <v>       0.06204284       0.06204284       0.06295716 </v>
   <v>       0.00000000       0.00000000       0.25000000 </v>
   <v>      -0.00045716       0.00045716      -0.00045716 </v>
   <v>       0.25000000       0.00000000       0.00000000 </v>
   <v>       0.00000000       0.25000000       0.00000000 </v>
   <v>      -0.18750000       0.06250000       0.06250000 </v>
   <v>       0.06250000      -0.18750000       0.06250000 </v>
   <v>      -0.18750000       0.06250000       0.31250000 </v>
   <v>       0.06250000      -0.18750000       0.31250000 </v>
   <v>      -0.18750000       0.31250000       0.06250000 </v>
   <v>       0.31250000      -0.18750000       0.06250000 </v>
   <v>       0.06250000       0.06250000       0.31250000 </v>
   <v>       0.06250000       0.06250000      -0.18750000 </v>
   <v>       0.31250000       0.06250000       0.06250000 </v>
   <v>       0.06250000       0.31250000       0.06250000 </v>
   <v>       0.31250000       0.06250000      -0.18750000 </v>
   <v>       0.06250000       0.31250000      -0.18750000 </v>
   <v>      -0.25000000       0.00000000       0.25000000 </v>
   <v>       0.00000000      -0.25000000       0.25000000 </v>
   <v>      -0.25000000       0.25000000       0.00000000 </v>
   <v>       0.25000000      -0.25000000       0.00000000 </v>
   <v>      -0.25000000       0.25000000       0.25000000 </v>
   <v>       0.25000000      -0.25000000       0.25000000 </v>
   <v>       0.25000000       0.00000000       0.25000000 </v>
   <v>       0.00000000       0.25000000       0.25000000 </v>
   <v>       0.25000000       0.00000000      -0.25000000 </v>
   <v>       0.00000000       0.25000000      -0.25000000 </v>
   <v>       0.25000000       0.25000000       0.00000000 </v>
   <v>       0.25000000       0.25000000      -0.25000000 </v>
   <v>      -0.18750000      -0.18750000       0.31250000 </v>
   <v>      -0.18750000       0.31250000       0.31250000 </v>
   <v>       0.31250000      -0.18750000       0.31250000 </v>
   <v>      -0.18750000       0.31250000      -0.18750000 </v>
   <v>       0.31250000      -0.18750000      -0.18750000 </v>
   <v>       0.31250000       0.31250000      -0.18750000 </v>
   <v>      -0.25000000       0.00000000       0.00000000 </v>
   <v>       0.00000000      -0.25000000       0.00000000 </v>
   <v>      -0.25000000       0.00000000      -0.50000000 </v>
   <v>       0.00000000      -0.25000000      -0.50000000 </v>
   <v>       0.00000000       0.00000000      -0.50000000 </v>
   <v>       0.00000000       0.00000000      -0.25000000 </v>
   <v>      -0.25000000      -0.50000000       0.00000000 </v>
   <v>      -0.50000000      -0.25000000       0.00000000 </v>
   <v>      -0.50000000       0.00000000       0.00000000 </v>
   <v>       0.00000000      -0.50000000       0.00000000 </v>
   <v>      -0.50000000       0.00000000      -0.25000000 </v>
   <v>       0.00000000      -0.50000000      -0.25000000 </v>
   <v>      -0.18750000      -0.18750000       0.06250000 </v>
   <v>      -0.43750000       0.06250000       0.31250000 </v>
   <v>       0.06250000      -0.43750000       0.31250000 </v>
   <v>      -0.18750000      -0.18750000      -0.43750000 </v>
   <v>      -0.43750000       0.31250000       0.06250000 </v>
   <v>       0.31250000      -0.43750000       0.06250000 </v>
   <v>      -0.43750000       0.31250000       0.31250000 </v>
   <v>       0.31250000      -0.43750000       0.31250000 </v>
   <v>      -0.18750000       0.06250000      -0.43750000 </v>
   <v>       0.06250000      -0.18750000      -0.43750000 </v>
   <v>      -0.18750000       0.06250000      -0.18750000 </v>
   <v>       0.06250000      -0.18750000      -0.18750000 </v>
   <v>      -0.18750000      -0.43750000       0.06250000 </v>
   <v>      -0.43750000      -0.18750000       0.06250000 </v>
   <v>       0.31250000       0.06250000       0.31250000 </v>
   <v>       0.06250000       0.31250000       0.31250000 </v>
   <v>       0.31250000       0.06250000      -0.43750000 </v>
   <v>       0.06250000       0.31250000      -0.43750000 </v>
   <v>      -0.18750000      -0.43750000      -0.18750000 </v>
   <v>      -0.43750000      -0.18750000      -0.18750000 </v>
   <v>       0.31250000       0.31250000       0.06250000 </v>
   <v>       0.31250000       0.31250000      -0.43750000 </v>
   <v>      -0.43750000       0.06250000      -0.18750000 </v>
   <v>       0.06250000      -0.43750000      -0.18750000 </v>
   <v>      -0.25000000      -0.25000000      -0.50000000 </v>
   <v>      -0.25000000      -0.25000000       0.25000000 </v>
   <v>      -0.50000000       0.25000000       0.25000000 </v>
   <v>       0.25000000      -0.50000000       0.25000000 </v>
   <v>      -0.25000000       0.25000000      -0.50000000 </v>
   <v>       0.25000000      -0.25000000      -0.50000000 </v>
   <v>      -0.25000000       0.25000000      -0.25000000 </v>
   <v>       0.25000000      -0.25000000      -0.25000000 </v>
   <v>      -0.25000000      -0.50000000       0.25000000 </v>
   <v>      -0.50000000      -0.25000000       0.25000000 </v>
   <v>      -0.25000000      -0.50000000      -0.25000000 </v>
   <v>      -0.50000000      -0.25000000      -0.25000000 </v>
   <v>       0.25000000       0.25000000       0.25000000 </v>
   <v>       0.25000000       0.25000000      -0.50000000 </v>
   <v>      -0.50000000       0.25000000      -0.25000000 </v>
   <v>       0.25000000      -0.50000000      -0.25000000 </v>
   <v>      -0.43750000       0.06250000       0.06250000 </v>
   <v>       0.06250000      -0.43750000       0.06250000 </v>
   <v>      -0.43750000       0.06250000      -0.43750000 </v>
   <v>       0.06250000      -0.43750000      -0.43750000 </v>
   <v>      -0.43750000      -0.43750000       0.06250000 </v>
   <v>       0.06250000       0.06250000      -0.43750000 </v>
   <v>      -0.50000000       0.00000000       0.25000000 </v>
   <v>       0.00000000      -0.50000000       0.25000000 </v>
   <v>      -0.50000000       0.00000000      -0.50000000 </v>
   <v>       0.00000000      -0.50000000      -0.50000000 </v>
   <v>      -0.50000000       0.25000000       0.00000000 </v>
   <v>       0.25000000      -0.50000000       0.00000000 </v>
   <v>      -0.50000000       0.25000000      -0.50000000 </v>
   <v>       0.25000000      -0.50000000      -0.50000000 </v>
   <v>      -0.50000000      -0.50000000       0.00000000 </v>
   <v>      -0.50000000      -0.50000000       0.25000000 </v>
   <v>       0.25000000       0.00000000      -0.50000000 </v>
   <v>       0.00000000       0.25000000      -0.50000000 </v>
   <v>      -0.18750000      -0.43750000       0.31250000 </v>
   <v>      -0.43750000      -0.18750000       0.31250000 </v>
   <v>      -0.18750000      -0.43750000      -0.43750000 </v>
   <v>      -0.43750000      -0.18750000      -0.43750000 </v>
   <v>      -0.43750000       0.31250000      -0.43750000 </v>
   <v>       0.31250000      -0.43750000      -0.43750000 </v>
   <v>      -0.43750000       0.31250000      -0.18750000 </v>
   <v>       0.31250000      -0.43750000      -0.18750000 </v>
   <v>      -0.43750000      -0.43750000       0.31250000 </v>
   <v>      -0.18750000       0.31250000      -0.43750000 </v>
   <v>       0.31250000      -0.18750000      -0.43750000 </v>
   <v>      -0.43750000      -0.43750000      -0.18750000 </v>
   <v>      -0.25000000      -0.25000000       0.00000000 </v>
   <v>      -0.25000000      -0.25000000      -0.25000000 </v>
   <v>      -0.25000000       0.00000000      -0.25000000 </v>
   <v>       0.00000000      -0.25000000      -0.25000000 </v>
   <v>      -0.18750000      -0.18750000      -0.18750000 </v>
   <v>       0.31250000       0.31250000       0.31250000 </v>
   <v>      -0.25000000      -0.50000000      -0.50000000 </v>
   <v>      -0.50000000      -0.25000000      -0.50000000 </v>
   <v>      -0.50000000      -0.50000000      -0.50000000 </v>
   <v>      -0.50000000      -0.50000000      -0.25000000 </v>
   <v>      -0.43750000      -0.43750000      -0.43750000 </v>
  </varray>
 </structure>
 <varray name="primitive_index" >
  <v type="int" >        1 </v>
  <v type="int" >       81 </v>
  <v type="int" >       65 </v>
  <v type="int" >       66 </v>
  <v type="int" >       69 </v>
  <v type="int" >        4 </v>
  <v type="int" >       13 </v>
  <v type="int" >       20 </v>
  <v type="int" >       29 </v>
  <v type="int" >        8 </v>
  <v type="int" >       14 </v>
  <v type="int" >       17 </v>
  <v type="int" >       49 </v>
  <v type="int" >        2 </v>
  <v type="int" >        5 </v>
  <v type="int" >       50 </v>
  <v type="int" >       53 </v>
  <v type="int" >       84 </v>
  <v type="int" >       93 </v>
  <v type="int" >       72 </v>
  <v type="int" >       78 </v>
  <v type="int" >       88 </v>
  <v type="int" >       94 </v>
  <v type="int" >       82 </v>
  <v type="int" >       85 </v>
  <v type="int" >      114 </v>
  <v type="int" >      117 </v>
  <v type="int" >       70 </v>
  <v type="int" >      118 </v>
  <v type="int" >       32 </v>
  <v type="int" >       24 </v>
  <v type="int" >       30 </v>
  <v type="int" >       56 </v>
  <v type="int" >       62 </v>
  <v type="int" >       54 </v>
  <v type="int" >       68 </v>
  <v type="int" >       77 </v>
  <v type="int" >      100 </v>
  <v type="int" >      109 </v>
  <v type="int" >       97 </v>
  <v type="int" >      113 </v>
  <v type="int" >       76 </v>
  <v type="int" >       79 </v>
  <v type="int" >       67 </v>
  <v type="int" >       73 </v>
  <v type="int" >      115 </v>
  <v type="int" >      121 </v>
  <v type="int" >       16 </v>
  <v type="int" >       19 </v>
  <v type="int" >       25 </v>
  <v type="int" >       48 </v>
  <v type="int" >        7 </v>
  <v type="int" >       10 </v>
  <v type="int" >       23 </v>
  <v type="int" >       26 </v>
  <v type="int" >       36 </v>
  <v type="int" >       45 </v>
  <v type="int" >       52 </v>
  <v type="int" >       61 </v>
  <v type="int" >       12 </v>
  <v type="int" >       15 </v>
  <v type="int" >       18 </v>
  <v type="int" >       21 </v>
  <v type="int" >       34 </v>
  <v type="int" >       37 </v>
  <v type="int" >       60 </v>
  <v type="int" >       63 </v>
  <v type="int" >        6 </v>
  <v type="int" >       38 </v>
  <v type="int" >       51 </v>
  <v type="int" >       57 </v>
  <v type="int" >      112 </v>
  <v type="int" >       96 </v>
  <v type="int" >       87 </v>
  <v type="int" >       90 </v>
  <v type="int" >      104 </v>
  <v type="int" >      110 </v>
  <v type="int" >      120 </v>
  <v type="int" >      126 </v>
  <v type="int" >       92 </v>
  <v type="int" >       95 </v>
  <v type="int" >      124 </v>
  <v type="int" >      127 </v>
  <v type="int" >       86 </v>
  <v type="int" >      102 </v>
  <v type="int" >      119 </v>
  <v type="int" >      122 </v>
  <v type="int" >        3 </v>
  <v type="int" >        9 </v>
  <v type="int" >       35 </v>
  <v type="int" >       41 </v>
  <v type="int" >       11 </v>
  <v type="int" >       33 </v>
  <v type="int" >       83 </v>
  <v type="int" >       89 </v>
  <v type="int" >       99 </v>
  <v type="int" >      105 </v>
  <v type="int" >       71 </v>
  <v type="int" >       74 </v>
  <v type="int" >      103 </v>
  <v type="int" >      106 </v>
  <v type="int" >       75 </v>
  <v type="int" >       91 </v>
  <v type="int" >       98 </v>
  <v type="int" >      101 </v>
  <v type="int" >       28 </v>
  <v type="int" >       31 </v>
  <v type="int" >       44 </v>
  <v type="int" >       47 </v>
  <v type="int" >       39 </v>
  <v type="int" >       42 </v>
  <v type="int" >       55 </v>
  <v type="int" >       58 </v>
  <v type="int" >       27 </v>
  <v type="int" >       40 </v>
  <v type="int" >       46 </v>
  <v type="int" >       59 </v>
  <v type="int" >       80 </v>
  <v type="int" >      128 </v>
  <v type="int" >      116 </v>
  <v type="int" >      125 </v>
  <v type="int" >       64 </v>
  <v type="int" >       22 </v>
  <v type="int" >      108 </v>
  <v type="int" >      111 </v>
  <v type="int" >      107 </v>
  <v type="int" >      123 </v>
  <v type="int" >       43 </v>
 </varray>
 <kpoints>
  <generation param="Gamma">
   <v type="int" name="divisions">       1        1        1 </v>
   <v name="usershift">      0.00000000       0.00000000       0.00000000 </v>
   <v name="genvec1">      1.00000000       0.00000000       0.00000000 </v>
   <v name="genvec2">      0.00000000       1.00000000       0.00000000 </v>
   <v name="genvec3">      0.00000000       0.00000000       1.00000000 </v>
   <v name="shift">      0.00000000       0.00000000       0.00000000 </v>
  </generation>
  <varray name="kpointlist" >
   <v>       0.00000000       0.00000000       0.00000000 </v>
  </varray>
  <varray name="weights" >
   <v>       1.00000000 </v>
  </varray>
 </kpoints>
 <parameters>
  <separator name="general" >
   <i type="string" name="SYSTEM">unknown system</i>
   <i type="logical" name="LCOMPAT"> F  </i>
  </separator>
  <separator name="electronic" >
   <i type="string" name="PREC">accura</i>
   <i name="ENMAX">    500.00000000</i>
   <i name="ENAUG">    322.06900000</i>
   <i name="EDIFF">      0.00000001</i>
   <i type="int" name="IALGO">    38</i>
   <i type="int" name="IWAVPR">    10</i>
   <i type="int" name="NBANDS">   322</i>
   <i name="NELECT">    512.00000000</i>
   <i type="int" name="TURBO">     0</i>
   <i type="int" name="IRESTART">     0</i>
   <i type="int" name="NREBOOT">     0</i>
   <i type="int" name="NMIN">     0</i>
   <i name="EREF">      0.00000000</i>
   <separator name="electronic smearing" >
    <i type="int" name="ISMEAR">     0</i>
    <i name="SIGMA">      0.05000000</i>
    <i name="KSPACING">      0.50000000</i>
    <i type="logical" name="KGAMMA"> T  </i>
   </separator>
   <separator name="electronic projectors" >
    <i type="logical" name="LREAL"> F  </i>
    <v name="ROPT">      0.00000000</v>
    <i type="int" name="LMAXPAW">  -100</i>
    <i type="int" name="LMAXMIX">     2</i>
    <i type="logical" name="NLSPLINE"> F  </i>
   </separator>
   <separator name="electronic startup" >
    <i type="int" name="ISTART">     0</i>
    <i type="int" name="ICHARG">     2</i>
    <i type="int" name="INIWAV">     1</i>
   </separator>
   <separator name="electronic spin" >
    <i type="int" name="ISPIN">     1</i>
    <i type="logical" name="LNONCOLLINEAR"> F  </i>
    <v name="MAGMOM">      1.00000000      1.00000000      1.00000000      1.00000000      1.00000000      1.00000000      1.00000000      1.00000000      1.00000000      1.00000000      1.00000000      1.00000000      1.00000000      1.00000000      1.00000000      1.00000000      1.00000000      1.00000000      1.00000000      1.00000000
      1.00000000      1.00000000      1.00000000      1.00000000      1.00000000      1.00000000      1.00000000      1.00000000      1.00000000      1.00000000      1.00000000      1.00000000      1.00000000      1.00000000      1.00000000      1.00000000      1.00000000      1.00000000      1.00000000      1.00000000
      1.00000000      1.00000000      1.00000000      1.00000000      1.00000000      1.00000000      1.00000000      1.00000000      1.00000000      1.00000000      1.00000000      1.00000000      1.00000000      1.00000000      1.00000000      1.00000000      1.00000000      1.00000000      1.00000000      1.00000000
      1.00000000      1.00000000      1.00000000      1.00000000      1.00000000      1.00000000      1.00000000      1.00000000      1.00000000      1.00000000      1.00000000      1.00000000      1.00000000      1.00000000      1.00000000      1.00000000      1.00000000      1.00000000      1.00000000      1.00000000
      1.00000000      1.00000000      1.00000000      1.00000000      1.00000000      1.00000000      1.00000000      1.00000000      1.00000000      1.00000000      1.00000000      1.00000000      1.00000000      1.00000000      1.00000000      1.00000000      1.00000000      1.00000000      1.00000000      1.00000000
      1.00000000      1.00000000      1.00000000      1.00000000      1.00000000      1.00000000      1.00000000      1.00000000      1.00000000      1.00000000      1.00000000      1.00000000      1.00000000      1.00000000      1.00000000      1.00000000      1.00000000      1.00000000      1.00000000      1.00000000
      1.00000000      1.00000000      1.00000000      1.00000000      1.00000000      1.00000000      1.00000000      1.00000000</v>
    <i name="NUPDOWN">     -1.00000000</i>
    <i type="logical" name="LSORBIT"> F  </i>
    <v name="SAXIS">      0.00000000      0.00000000      1.00000000</v>
    <i type="logical" name="LSPIRAL"> F  </i>
    <v name="QSPIRAL">      0.00000000      0.00000000      0.00000000</v>
    <i type="logical" name="LZEROZ"> F  </i>
   </separator>
   <separator name="electronic exchange-correlation" >
    <i type="logical" name="LASPH"> F  </i>
    <i type="logical" name="LMETAGGA"> F  </i>
   </separator>
   <separator name="electronic convergence" >
    <i type="int" name="NELM">    60</i>
    <i type="int" name="NELMDL">    -5</i>
    <i type="int" name="NELMIN">     2</i>
    <i name="ENINI">    500.00000000</i>
    <separator name="electronic convergence detail" >
     <i type="logical" name="LDIAG"> T  </i>
     <i type="logical" name="LSUBROT"> F  </i>
     <i name="WEIMIN">      0.00000000</i>
     <i name="EBREAK">      0.00000000</i>
     <i name="DEPER">      0.30000000</i>
     <i type="int" name="NRMM">     4</i>
     <i name="TIME">      0.40000000</i>
    </separator>
   </separator>
   <separator name="electronic mixer" >
    <i name="AMIX">      0.40000000</i>
    <i name="BMIX">      1.00000000</i>
    <i name="AMIN">      0.10000000</i>
    <i name="AMIX_MAG">      1.60000000</i>
    <i name="BMIX_MAG">      1.00000000</i>
    <separator name="electronic mixer details" >
     <i type="int" name="IMIX">     4</i>
     <i type="logical" name="MIXFIRST"> F  </i>
     <i type="int" name="MAXMIX">   -45</i>
     <i name="WC">    100.00000000</i>
     <i type="int" name="INIMIX">     1</i>
     <i type="int" name="MIXPRE">     1</i>
     <i type="int" name="MREMOVE">     5</i>
    </separator>
   </separator>
   <separator name="electronic dipolcorrection" >
    <i type="logical" name="LDIPOL"> F  </i>
    <i type="logical" name="LMONO"> F  </i>
    <i type="int" name="IDIPOL">     0</i>
    <i name="EPSILON">      1.00000000</i>
    <v name="DIPOL">   -100.00000000   -100.00000000   -100.00000000</v>
    <i name="EFIELD">      0.00000000</i>
   </separator>
  </separator>
  <separator name="grids" >
   <i type="int" name="NGX">   120</i>
   <i type="int" name="NGY">   120</i>
   <i type="int" name="NGZ">   120</i>
   <i type="int" name="NGXF">   240</i>
   <i type="int" name="NGYF">   240</i>
   <i type="int" name="NGZF">   240</i>
   <i type="logical" name="ADDGRID"> T  </i>
  </separator>
  <separator name="ionic" >
   <i type="int" name="NSW">     0</i>
   <i type="int" name="IBRION">    -1</i>
   <i type="int" name="MDALGO">     0</i>
   <i type="int" name="ISIF">     2</i>
   <i name="PSTRESS">      0.00000000</i>
   <i name="EDIFFG">      0.00000010</i>
   <i type="int" name="NFREE">     0</i>
   <i name="POTIM">      0.50000000</i>
   <i name="SMASS">     -3.00000000</i>
   <i name="SCALEE">      1.00000000</i>
  </separator>
  <separator name="ionic md" >
   <i name="TEBEG">      0.00010000</i>
   <i name="TEEND">      0.00010000</i>
   <i type="int" name="NBLOCK">     1</i>
   <i type="int" name="KBLOCK">     1</i>
   <i type="int" name="NPACO">   256</i>
   <i name="APACO">     16.00000000</i>
  </separator>
  <separator name="symmetry" >
   <i type="int" name="ISYM">     0</i>
   <i name="SYMPREC">      0.00001000</i>
  </separator>
  <separator name="dos" >
   <i type="int" name="LORBIT">     0</i>
   <v name="RWIGS">     -1.00000000</v>
   <i type="int" name="NEDOS">   301</i>
   <i name="EMIN">     10.00000000</i>
   <i name="EMAX">    -10.00000000</i>
   <i name="EFERMI">      0.00000000</i>
  </separator>
  <separator name="writing" >
   <i type="int" name="NWRITE">     2</i>
   <i type="logical" name="LWAVE"> F  </i>
   <i type="logical" name="LDOWNSAMPLE"> F  </i>
   <i type="logical" name="LCHARG"> F  </i>
   <i type="logical" name="LPARD"> F  </i>
   <i type="logical" name="LVTOT"> F  </i>
   <i type="logical" name="LVHAR"> F  </i>
   <i type="logical" name="LELF"> F  </i>
   <i type="logical" name="LOPTICS"> F  </i>
   <v name="STM">      0.00000000      0.00000000      0.00000000      0.00000000      0.00000000      0.00000000      0.00000000</v>
  </separator>
  <separator name="performance" >
   <i type="int" name="NPAR">     2</i>
   <i type="int" name="NSIM">     4</i>
   <i type="int" name="NBLK">    -1</i>
   <i type="logical" name="LPLANE"> T  </i>
   <i type="logical" name="LSCALAPACK"> T  </i>
   <i type="logical" name="LSCAAWARE"> F  </i>
   <i type="logical" name="LSCALU"> F  </i>
   <i type="logical" name="LASYNC"> F  </i>
   <i type="logical" name="LORBITALREAL"> F  </i>
  </separator>
  <separator name="miscellaneous" >
   <i type="int" name="IDIOT">     3</i>
   <i type="int" name="ISPECIAL">     0</i>
   <i type="logical" name="LMUSIC"> F  </i>
   <v name="POMASS">     28.08500000</v>
   <v name="DARWINR">      0.00000000</v>
   <v name="DARWINV">      1.00000000</v>
   <i type="logical" name="LCORR"> T  </i>
  </separator>
  <i type="logical" name="GGA_COMPAT"> T  </i>
  <i type="logical" name="LBERRY"> F  </i>
  <i type="int" name="ICORELEVEL">     0</i>
  <i type="logical" name="LDAU"> F  </i>
  <i type="int" name="I_CONSTRAINED_M">     0</i>
  <separator name="electronic exchange-correlation" >
   <i type="string" name="GGA">--</i>
   <i type="int" name="VOSKOWN">     0</i>
   <i type="logical" name="LHFCALC"> F  </i>
   <i type="string" name="PRECFOCK"></i>
   <i type="logical" name="LSYMGRAD"> F  </i>
   <i type="logical" name="LHFONE"> F  </i>
   <i type="logical" name="LRHFCALC"> F  </i>
   <i type="logical" name="LTHOMAS"> F  </i>
   <i type="logical" name="LMODELHF"> F  </i>
   <i name="ENCUT4O">     -1.00000000</i>
   <i type="int" name="EXXOEP">     0</i>
   <i type="int" name="FOURORBIT">     0</i>
   <i name="AEXX">      0.00000000</i>
   <i name="HFALPHA">      0.00000000</i>
   <i name="MCALPHA">      0.00000000</i>
   <i name="ALDAX">      1.00000000</i>
   <i name="AGGAX">      1.00000000</i>
   <i name="ALDAC">      1.00000000</i>
   <i name="AGGAC">      1.00000000</i>
   <i type="int" name="NKREDX">     1</i>
   <i type="int" name="NKREDY">     1</i>
   <i type="int" name="NKREDZ">     1</i>
   <i type="logical" name="SHIFTRED"> F  </i>
   <i type="logical" name="ODDONLY"> F  </i>
   <i type="logical" name="EVENONLY"> F  </i>
   <i type="int" name="LMAXFOCK">     0</i>
   <i type="int" name="NMAXFOCKAE">     0</i>
   <i type="logical" name="LFOCKAEDFT"> F  </i>
   <i name="HFSCREEN">      0.00000000</i>
   <i name="HFSCREENC">      0.00000000</i>
   <i type="int" name="NBANDSGWLOW">     0</i>
  </separator>
  <separator name="vdW DFT" >
   <i type="logical" name="LUSE_VDW"> F  </i>
   <i name="Zab_VDW">     -0.84910000</i>
   <i name="PARAM1">      0.12340000</i>
   <i name="PARAM2">      1.00000000</i>
   <i name="PARAM3">      0.00000000</i>
  </separator>
  <separator name="model GW" >
   <i type="int" name="MODEL_GW">     0</i>
   <i name="MODEL_EPS0">     12.26549432</i>
   <i name="MODEL_ALPHA">      1.00000000</i>
  </separator>
  <separator name="linear response parameters" >
   <i type="logical" name="LEPSILON"> F  </i>
   <i type="logical" name="LRPA"> F  </i>
   <i type="logical" name="LNABLA"> F  </i>
   <i type="logical" name="LVEL"> F  </i>
   <i type="int" name="KINTER">     0</i>
   <i name="CSHIFT">      0.10000000</i>
   <i name="OMEGAMAX">     -1.00000000</i>
   <i name="DEG_THRESHOLD">      0.00200000</i>
   <i name="RTIME">     -0.10000000</i>
   <i name="WPLASMAI">      0.00000000</i>
   <v name="DFIELD">      0.00000000      0.00000000      0.00000000</v>
   <v name="WPLASMA">      0.00000000      0.00000000      0.00000000      0.00000000      0.00000000      0.00000000      0.00000000      0.00000000      0.00000000</v>
  </separator>
  <separator name="orbital magnetization" >
   <i type="logical" name="NUCIND"> F  </i>
   <v name="MAGPOS">      0.00000000      0.00000000      0.00000000</v>
   <i type="logical" name="LNICSALL"> T  </i>
   <i type="logical" name="ORBITALMAG"> F  </i>
   <i type="logical" name="LMAGBLOCH"> F  </i>
   <i type="logical" name="LCHIMAG"> F  </i>
   <i type="logical" name="LGAUGE"> T  </i>
   <i type="int" name="MAGATOM">     0</i>
   <v name="MAGDIPOL">      0.00000000      0.00000000      0.00000000</v>
   <v name="AVECCONST">      0.00000000      0.00000000      0.00000000</v>
  </separator>
  <separator name="response functions" >
   <i type="logical" name="LADDER"> F  </i>
   <i type="logical" name="LRPAFORCE"> F  </i>
   <i type="logical" name="LFXC"> F  </i>
   <i type="logical" name="LHARTREE"> T  </i>
   <i type="int" name="IBSE">     0</i>
   <v type="int" name="KPOINT">    -1     0     0     0</v>
   <i type="logical" name="LTCTE"> F  </i>
   <i type="logical" name="LTETE"> F  </i>
   <i type="logical" name="LTRIPLET"> F  </i>
   <i type="logical" name="LFXCEPS"> F  </i>
   <i type="logical" name="LFXHEG"> F  </i>
   <i type="int" name="NATURALO">     2</i>
   <i type="logical" name="L2ORDER"> F  </i>
   <i type="logical" name="LMP2LT"> F  </i>
   <i type="logical" name="LUSEW"> F  </i>
   <i name="ENCUTGW">     -2.00000000</i>
   <i name="ENCUTGWSOFT">     -2.00000000</i>
   <i name="ENCUTLF">     -1.00000000</i>
   <i type="int" name="LMAXMP2">    -1</i>
   <i name="SCISSOR">      0.00000000</i>
   <i type="int" name="NOMEGA">     0</i>
   <i type="int" name="NOMEGAR">     0</i>
   <i type="int" name="NBANDSGW">    -1</i>
   <i type="int" name="NBANDSO">    -1</i>
   <i type="int" name="NBANDSV">    -1</i>
   <i type="int" name="NELM">     1</i>
   <i type="int" name="NELMHF">     1</i>
   <i type="int" name="DIM">     3</i>
   <i type="int" name="ANTIRES">     0</i>
   <i name="OMEGAMAX">    -30.00000000</i>
   <i name="OMEGAMIN">    -30.00000000</i>
   <i name="OMEGATL">   -200.00000000</i>
   <i type="int" name="OMEGAGRID">   140</i>
   <i name="CSHIFT">     -0.10000000</i>
   <i type="logical" name="SELFENERGY"> F  </i>
   <i type="logical" name="LSPECTRAL"> F  </i>
   <i type="logical" name="LSPECTRALGW"> F  </i>
   <i type="logical" name="LSINGLES"> F  </i>
   <i type="logical" name="LFERMIGW"> F  </i>
   <i type="logical" name="ODDONLYGW"> F  </i>
   <i type="logical" name="EVENONLYGW"> F  </i>
   <i type="int" name="NKREDLFX">     1</i>
   <i type="int" name="NKREDLFY">     1</i>
   <i type="int" name="NKREDLFZ">     1</i>
   <i type="int" name="MAXMEM">  2800</i>
   <i type="int" name="TELESCOPE">     0</i>
   <i type="int" name="TAUPAR">     1</i>
   <i type="int" name="OMEGAPAR">    -1</i>
   <i name="LAMBDA">      1.00000000</i>
  </separator>
  <separator name="External order field" >
   <i name="OFIELD_KAPPA">      0.00000000</i>
   <v name="OFIELD_K">      0.00000000      0.00000000      0.00000000</v>
   <i name="OFIELD_Q6_NEAR">      0.00000000</i>
   <i name="OFIELD_Q6_FAR">      0.00000000</i>
   <i name="OFIELD_A">      0.00000000</i>
  </separator>
 </parameters>
 <atominfo>
  <atoms>     128 </atoms>
  <types>       1 </types>
  <array name="atoms" >
   <dimension dim="1">ion</dimension>
   <field type="string">element</field>
   <field type="int">atomtype</field>
   <set>
    <rc><c>Si</c><c>   1</c></rc>
    <rc><c>Si</c><c>   1</c></rc>
    <rc><c>Si</c><c>   1</c></rc>
    <rc><c>Si</c><c>   1</c></rc>
    <rc><c>Si</c><c>   1</c></rc>
    <rc><c>Si</c><c>   1</c></rc>
    <rc><c>Si</c><c>   1</c></rc>
    <rc><c>Si</c><c>   1</c></rc>
    <rc><c>Si</c><c>   1</c></rc>
    <rc><c>Si</c><c>   1</c></rc>
    <rc><c>Si</c><c>   1</c></rc>
    <rc><c>Si</c><c>   1</c></rc>
    <rc><c>Si</c><c>   1</c></rc>
    <rc><c>Si</c><c>   1</c></rc>
    <rc><c>Si</c><c>   1</c></rc>
    <rc><c>Si</c><c>   1</c></rc>
    <rc><c>Si</c><c>   1</c></rc>
    <rc><c>Si</c><c>   1</c></rc>
    <rc><c>Si</c><c>   1</c></rc>
    <rc><c>Si</c><c>   1</c></rc>
    <rc><c>Si</c><c>   1</c></rc>
    <rc><c>Si</c><c>   1</c></rc>
    <rc><c>Si</c><c>   1</c></rc>
    <rc><c>Si</c><c>   1</c></rc>
    <rc><c>Si</c><c>   1</c></rc>
    <rc><c>Si</c><c>   1</c></rc>
    <rc><c>Si</c><c>   1</c></rc>
    <rc><c>Si</c><c>   1</c></rc>
    <rc><c>Si</c><c>   1</c></rc>
    <rc><c>Si</c><c>   1</c></rc>
    <rc><c>Si</c><c>   1</c></rc>
    <rc><c>Si</c><c>   1</c></rc>
    <rc><c>Si</c><c>   1</c></rc>
    <rc><c>Si</c><c>   1</c></rc>
    <rc><c>Si</c><c>   1</c></rc>
    <rc><c>Si</c><c>   1</c></rc>
    <rc><c>Si</c><c>   1</c></rc>
    <rc><c>Si</c><c>   1</c></rc>
    <rc><c>Si</c><c>   1</c></rc>
    <rc><c>Si</c><c>   1</c></rc>
    <rc><c>Si</c><c>   1</c></rc>
    <rc><c>Si</c><c>   1</c></rc>
    <rc><c>Si</c><c>   1</c></rc>
    <rc><c>Si</c><c>   1</c></rc>
    <rc><c>Si</c><c>   1</c></rc>
    <rc><c>Si</c><c>   1</c></rc>
    <rc><c>Si</c><c>   1</c></rc>
    <rc><c>Si</c><c>   1</c></rc>
    <rc><c>Si</c><c>   1</c></rc>
    <rc><c>Si</c><c>   1</c></rc>
    <rc><c>Si</c><c>   1</c></rc>
    <rc><c>Si</c><c>   1</c></rc>
    <rc><c>Si</c><c>   1</c></rc>
    <rc><c>Si</c><c>   1</c></rc>
    <rc><c>Si</c><c>   1</c></rc>
    <rc><c>Si</c><c>   1</c></rc>
    <rc><c>Si</c><c>   1</c></rc>
    <rc><c>Si</c><c>   1</c></rc>
    <rc><c>Si</c><c>   1</c></rc>
    <rc><c>Si</c><c>   1</c></rc>
    <rc><c>Si</c><c>   1</c></rc>
    <rc><c>Si</c><c>   1</c></rc>
    <rc><c>Si</c><c>   1</c></rc>
    <rc><c>Si</c><c>   1</c></rc>
    <rc><c>Si</c><c>   1</c></rc>
    <rc><c>Si</c><c>   1</c></rc>
    <rc><c>Si</c><c>   1</c></rc>
    <rc><c>Si</c><c>   1</c></rc>
    <rc><c>Si</c><c>   1</c></rc>
    <rc><c>Si</c><c>   1</c></rc>
    <rc><c>Si</c><c>   1</c></rc>
    <rc><c>Si</c><c>   1</c></rc>
    <rc><c>Si</c><c>   1</c></rc>
    <rc><c>Si</c><c>   1</c></rc>
    <rc><c>Si</c><c>   1</c></rc>
    <rc><c>Si</c><c>   1</c></rc>
    <rc><c>Si</c><c>   1</c></rc>
    <rc><c>Si</c><c>   1</c></rc>
    <rc><c>Si</c><c>   1</c></rc>
    <rc><c>Si</c><c>   1</c></rc>
    <rc><c>Si</c><c>   1</c></rc>
    <rc><c>Si</c><c>   1</c></rc>
    <rc><c>Si</c><c>   1</c></rc>
    <rc><c>Si</c><c>   1</c></rc>
    <rc><c>Si</c><c>   1</c></rc>
    <rc><c>Si</c><c>   1</c></rc>
    <rc><c>Si</c><c>   1</c></rc>
    <rc><c>Si</c><c>   1</c></rc>
    <rc><c>Si</c><c>   1</c></rc>
    <rc><c>Si</c><c>   1</c></rc>
    <rc><c>Si</c><c>   1</c></rc>
    <rc><c>Si</c><c>   1</c></rc>
    <rc><c>Si</c><c>   1</c></rc>
    <rc><c>Si</c><c>   1</c></rc>
    <rc><c>Si</c><c>   1</c></rc>
    <rc><c>Si</c><c>   1</c></rc>
    <rc><c>Si</c><c>   1</c></rc>
    <rc><c>Si</c><c>   1</c></rc>
    <rc><c>Si</c><c>   1</c></rc>
    <rc><c>Si</c><c>   1</c></rc>
    <rc><c>Si</c><c>   1</c></rc>
    <rc><c>Si</c><c>   1</c></rc>
    <rc><c>Si</c><c>   1</c></rc>
    <rc><c>Si</c><c>   1</c></rc>
    <rc><c>Si</c><c>   1</c></rc>
    <rc><c>Si</c><c>   1</c></rc>
    <rc><c>Si</c><c>   1</c></rc>
    <rc><c>Si</c><c>   1</c></rc>
    <rc><c>Si</c><c>   1</c></rc>
    <rc><c>Si</c><c>   1</c></rc>
    <rc><c>Si</c><c>   1</c></rc>
    <rc><c>Si</c><c>   1</c></rc>
    <rc><c>Si</c><c>   1</c></rc>
    <rc><c>Si</c><c>   1</c></rc>
    <rc><c>Si</c><c>   1</c></rc>
    <rc><c>Si</c><c>   1</c></rc>
    <rc><c>Si</c><c>   1</c></rc>
    <rc><c>Si</c><c>   1</c></rc>
    <rc><c>Si</c><c>   1</c></rc>
    <rc><c>Si</c><c>   1</c></rc>
    <rc><c>Si</c><c>   1</c></rc>
    <rc><c>Si</c><c>   1</c></rc>
    <rc><c>Si</c><c>   1</c></rc>
    <rc><c>Si</c><c>   1</c></rc>
    <rc><c>Si</c><c>   1</c></rc>
    <rc><c>Si</c><c>   1</c></rc>
    <rc><c>Si</c><c>   1</c></rc>
    <rc><c>Si</c><c>   1</c></rc>
   </set>
  </array>
  <array name="atomtypes" >
   <dimension dim="1">type</dimension>
   <field type="int">atomspertype</field>
   <field type="string">element</field>
   <field>mass</field>
   <field>valence</field>
   <field type="string">pseudopotential</field>
   <set>
    <rc><c> 128</c><c>Si</c><c>     28.08500000</c><c>      4.00000000</c><c> PAW_PBE Si 05Jan2001                   </c></rc>
   </set>
  </array>
 </atominfo>
 <structure name="initialpos" >
  <crystal>
   <varray name="basis" >
    <v>       0.00000000      10.93716070      10.93716070 </v>
    <v>      10.93716070       0.00000000      10.93716070 </v>
    <v>      10.93716070      10.93716070       0.00000000 </v>
   </varray>
   <i name="volume">   2616.63878844 </i>
   <varray name="rec_basis" >
    <v>      -0.04571570       0.04571570       0.04571570 </v>
    <v>       0.04571570      -0.04571570       0.04571570 </v>
    <v>       0.04571570       0.04571570      -0.04571570 </v>
   </varray>
  </crystal>
  <varray name="positions" >
   <v>       0.06204284       0.06204284       0.06295716 </v>
   <v>       0.31250000       0.06250000       0.06250000 </v>
   <v>       0.56250000       0.06250000       0.06250000 </v>
   <v>       0.81250000       0.06250000       0.06250000 </v>
   <v>       0.06250000       0.31250000       0.06250000 </v>
   <v>       0.31250000       0.31250000       0.06250000 </v>
   <v>       0.56250000       0.31250000       0.06250000 </v>
   <v>       0.81250000       0.31250000       0.06250000 </v>
   <v>       0.06250000       0.56250000       0.06250000 </v>
   <v>       0.31250000       0.56250000       0.06250000 </v>
   <v>       0.56250000       0.56250000       0.06250000 </v>
   <v>       0.81250000       0.56250000       0.06250000 </v>
   <v>       0.06250000       0.81250000       0.06250000 </v>
   <v>       0.31250000       0.81250000       0.06250000 </v>
   <v>       0.56250000       0.81250000       0.06250000 </v>
   <v>       0.81250000       0.81250000       0.06250000 </v>
   <v>       0.06250000       0.06250000       0.31250000 </v>
   <v>       0.31250000       0.06250000       0.31250000 </v>
   <v>       0.56250000       0.06250000       0.31250000 </v>
   <v>       0.81250000       0.06250000       0.31250000 </v>
   <v>       0.06250000       0.31250000       0.31250000 </v>
   <v>       0.31250000       0.31250000       0.31250000 </v>
   <v>       0.56250000       0.31250000       0.31250000 </v>
   <v>       0.81250000       0.31250000       0.31250000 </v>
   <v>       0.06250000       0.56250000       0.31250000 </v>
   <v>       0.31250000       0.56250000       0.31250000 </v>
   <v>       0.56250000       0.56250000       0.31250000 </v>
   <v>       0.81250000       0.56250000       0.31250000 </v>
   <v>       0.06250000       0.81250000       0.31250000 </v>
   <v>       0.31250000       0.81250000       0.31250000 </v>
   <v>       0.56250000       0.81250000       0.31250000 </v>
   <v>       0.81250000       0.81250000       0.31250000 </v>
   <v>       0.06250000       0.06250000       0.56250000 </v>
   <v>       0.31250000       0.06250000       0.56250000 </v>
   <v>       0.56250000       0.06250000       0.56250000 </v>
   <v>       0.81250000       0.06250000       0.56250000 </v>
   <v>       0.06250000       0.31250000       0.56250000 </v>
   <v>       0.31250000       0.31250000       0.56250000 </v>
   <v>       0.56250000       0.31250000       0.56250000 </v>
   <v>       0.81250000       0.31250000       0.56250000 </v>
   <v>       0.06250000       0.56250000       0.56250000 </v>
   <v>       0.31250000       0.56250000       0.56250000 </v>
   <v>       0.56250000       0.56250000       0.56250000 </v>
   <v>       0.81250000       0.56250000       0.56250000 </v>
   <v>       0.06250000       0.81250000       0.56250000 </v>
   <v>       0.31250000       0.81250000       0.56250000 </v>
   <v>       0.56250000       0.81250000       0.56250000 </v>
   <v>       0.81250000       0.81250000       0.56250000 </v>
   <v>       0.06250000       0.06250000       0.81250000 </v>
   <v>       0.31250000       0.06250000       0.81250000 </v>
   <v>       0.56250000       0.06250000       0.81250000 </v>
   <v>       0.81250000       0.06250000       0.81250000 </v>
   <v>       0.06250000       0.31250000       0.81250000 </v>
   <v>       0.31250000       0.31250000       0.81250000 </v>
   <v>       0.56250000       0.31250000       0.81250000 </v>
   <v>       0.81250000       0.31250000       0.81250000 </v>
   <v>       0.06250000       0.56250000       0.81250000 </v>
   <v>       0.31250000       0.56250000       0.81250000 </v>
   <v>       0.56250000       0.56250000       0.81250000 </v>
   <v>       0.81250000       0.56250000       0.81250000 </v>
   <v>       0.06250000       0.81250000       0.81250000 </v>
   <v>       0.31250000       0.81250000       0.81250000 </v>
   <v>       0.56250000       0.81250000       0.81250000 </v>
   <v>       0.81250000       0.81250000       0.81250000 </v>
   <v>       0.99954284       0.00045716       0.99954284 </v>
   <v>       0.25000000       0.00000000       0.00000000 </v>
   <v>       0.50000000       0.00000000       0.00000000 </v>
   <v>       0.75000000       0.00000000       0.00000000 </v>
   <v>       0.00000000       0.25000000       0.00000000 </v>
   <v>       0.25000000       0.25000000       0.00000000 </v>
   <v>       0.50000000       0.25000000       0.00000000 </v>
   <v>       0.75000000       0.25000000       0.00000000 </v>
   <v>       0.00000000       0.50000000       0.00000000 </v>
   <v>       0.25000000       0.50000000       0.00000000 </v>
   <v>       0.50000000       0.50000000       0.00000000 </v>
   <v>       0.75000000       0.50000000       0.00000000 </v>
   <v>       0.00000000       0.75000000       0.00000000 </v>
   <v>       0.25000000       0.75000000       0.00000000 </v>
   <v>       0.50000000       0.75000000       0.00000000 </v>
   <v>       0.75000000       0.75000000       0.00000000 </v>
   <v>       0.00000000       0.00000000       0.25000000 </v>
   <v>       0.25000000       0.00000000       0.25000000 </v>
   <v>       0.50000000       0.00000000       0.25000000 </v>
   <v>       0.75000000       0.00000000       0.25000000 </v>
   <v>       0.00000000       0.25000000       0.25000000 </v>
   <v>       0.25000000       0.25000000       0.25000000 </v>
   <v>       0.50000000       0.25000000       0.25000000 </v>
   <v>       0.75000000       0.25000000       0.25000000 </v>
   <v>       0.00000000       0.50000000       0.25000000 </v>
   <v>       0.25000000       0.50000000       0.25000000 </v>
   <v>       0.50000000       0.50000000       0.25000000 </v>
   <v>       0.75000000       0.50000000       0.25000000 </v>
   <v>       0.00000000       0.75000000       0.25000000 </v>
   <v>       0.25000000       0.75000000       0.25000000 </v>
   <v>       0.50000000       0.75000000       0.25000000 </v>
   <v>       0.75000000       0.75000000       0.25000000 </v>
   <v>       0.00000000       0.00000000       0.50000000 </v>
   <v>       0.25000000       0.00000000       0.50000000 </v>
   <v>       0.50000000       0.00000000       0.50000000 </v>
   <v>       0.75000000       0.00000000       0.50000000 </v>
   <v>       0.00000000       0.25000000       0.50000000 </v>
   <v>       0.25000000       0.25000000       0.50000000 </v>
   <v>       0.50000000       0.25000000       0.50000000 </v>
   <v>       0.75000000       0.25000000       0.50000000 </v>
   <v>       0.00000000       0.50000000       0.50000000 </v>
   <v>       0.25000000       0.50000000       0.50000000 </v>
   <v>       0.50000000       0.50000000       0.50000000 </v>
   <v>       0.75000000       0.50000000       0.50000000 </v>
   <v>       0.00000000       0.75000000       0.50000000 </v>
   <v>       0.25000000       0.75000000       0.50000000 </v>
   <v>       0.50000000       0.75000000       0.50000000 </v>
   <v>       0.75000000       0.75000000       0.50000000 </v>
   <v>       0.00000000       0.00000000       0.75000000 </v>
   <v>       0.25000000       0.00000000       0.75000000 </v>
   <v>       0.50000000       0.00000000       0.75000000 </v>
   <v>       0.75000000       0.00000000       0.75000000 </v>
   <v>       0.00000000       0.25000000       0.75000000 </v>
   <v>       0.25000000       0.25000000       0.75000000 </v>
   <v>       0.50000000       0.25000000       0.75000000 </v>
   <v>       0.75000000       0.25000000       0.75000000 </v>
   <v>       0.00000000       0.50000000       0.75000000 </v>
   <v>       0.25000000       0.50000000       0.75000000 </v>
   <v>       0.50000000       0.50000000       0.75000000 </v>
   <v>       0.75000000       0.50000000       0.75000000 </v>
   <v>       0.00000000       0.75000000       0.75000000 </v>
   <v>       0.25000000       0.75000000       0.75000000 </v>
   <v>       0.50000000       0.75000000       0.75000000 </v>
   <v>       0.75000000       0.75000000       0.75000000 </v>
  </varray>
 </structure>
 <calculation>
  <scstep>
   <time name="dav">    4.82    4.84</time>
   <time name="total">    5.36    5.38</time>
   <energy>
    <i name="alphaZ">    210.78028765 </i>
    <i name="ewald"> -14524.86695560 </i>
    <i name="hartreedc">   -724.61967200 </i>
    <i name="XCdc">  -1195.83151382 </i>
    <i name="pawpsdc">   4221.13331941 </i>
    <i name="pawaedc">  -1969.18571412 </i>
    <i name="eentropy">     -0.01556264 </i>
    <i name="bandstr">   2165.00567872 </i>
    <i name="atom">  13192.48085998 </i>
    <i name="e_fr_energy">   1374.88072758 </i>
    <i name="e_wo_entrp">   1374.89629023 </i>
    <i name="e_0_energy">   1374.88850891 </i>
   </energy>
  </scstep>
  <scstep>
   <time name="dav">    5.46    5.47</time>
   <time name="total">    5.46    5.47</time>
   <energy>
    <i name="e_fr_energy">   -537.01929118 </i>
    <i name="e_wo_entrp">   -537.01928925 </i>
    <i name="e_0_energy">   -537.01929021 </i>
   </energy>
  </scstep>
  <scstep>
   <time name="dav">    5.50    5.52</time>
   <time name="total">    5.50    5.52</time>
   <energy>
    <i name="e_fr_energy">   -690.02359125 </i>
    <i name="e_wo_entrp">   -690.02359125 </i>
    <i name="e_0_energy">   -690.02359125 </i>
   </energy>
  </scstep>
  <scstep>
   <time name="dav">    5.43    5.44</time>
   <time name="total">    5.43    5.44</time>
   <energy>
    <i name="e_fr_energy">   -694.53346889 </i>
    <i name="e_wo_entrp">   -694.53346889 </i>
    <i name="e_0_energy">   -694.53346889 </i>
   </energy>
  </scstep>
  <scstep>
   <time name="dav">    5.43    5.44</time>
   <time name="total">    5.96    5.98</time>
   <energy>
    <i name="e_fr_energy">   -694.69973002 </i>
    <i name="e_wo_entrp">   -694.69973002 </i>
    <i name="e_0_energy">   -694.69973002 </i>
   </energy>
  </scstep>
  <scstep>
   <time name="dav">    5.06    5.07</time>
   <time name="total">    6.08    6.10</time>
   <energy>
    <i name="e_fr_energy">   -686.30000622 </i>
    <i name="e_wo_entrp">   -686.30000622 </i>
    <i name="e_0_energy">   -686.30000622 </i>
   </energy>
  </scstep>
  <scstep>
   <time name="dav">    4.99    5.00</time>
   <time name="total">    6.01    6.02</time>
   <energy>
    <i name="e_fr_energy">   -682.42718120 </i>
    <i name="e_wo_entrp">   -682.42718120 </i>
    <i name="e_0_energy">   -682.42718120 </i>
   </energy>
  </scstep>
  <scstep>
   <time name="dav">    5.08    5.10</time>
   <time name="total">    6.11    6.13</time>
   <energy>
    <i name="e_fr_energy">   -682.55929825 </i>
    <i name="e_wo_entrp">   -682.55929825 </i>
    <i name="e_0_energy">   -682.55929825 </i>
   </energy>
  </scstep>
  <scstep>
   <time name="dav">    5.51    5.52</time>
   <time name="total">    6.53    6.55</time>
   <energy>
    <i name="e_fr_energy">   -682.56570010 </i>
    <i name="e_wo_entrp">   -682.56570010 </i>
    <i name="e_0_energy">   -682.56570010 </i>
   </energy>
  </scstep>
  <scstep>
   <time name="dav">    5.03    5.04</time>
   <time name="total">    6.05    6.08</time>
   <energy>
    <i name="e_fr_energy">   -682.56838484 </i>
    <i name="e_wo_entrp">   -682.56838484 </i>
    <i name="e_0_energy">   -682.56838484 </i>
   </energy>
  </scstep>
  <scstep>
   <time name="dav">    5.44    5.45</time>
   <time name="total">    6.47    6.49</time>
   <energy>
    <i name="e_fr_energy">   -682.56839783 </i>
    <i name="e_wo_entrp">   -682.56839783 </i>
    <i name="e_0_energy">   -682.56839783 </i>
   </energy>
  </scstep>
  <scstep>
   <time name="dav">    5.42    5.43</time>
   <time name="total">    6.44    6.46</time>
   <energy>
    <i name="e_fr_energy">   -682.56840372 </i>
    <i name="e_wo_entrp">   -682.56840372 </i>
    <i name="e_0_energy">   -682.56840372 </i>
   </energy>
  </scstep>
  <scstep>
   <time name="dav">    5.42    5.43</time>
   <time name="total">    6.44    6.46</time>
   <energy>
    <i name="e_fr_energy">   -682.56839916 </i>
    <i name="e_wo_entrp">   -682.56839916 </i>
    <i name="e_0_energy">   -682.56839916 </i>
   </energy>
  </scstep>
  <scstep>
   <time name="dav">    5.26    5.28</time>
   <time name="total">    6.29    6.31</time>
   <energy>
    <i name="e_fr_energy">   -682.56839969 </i>
    <i name="e_wo_entrp">   -682.56839969 </i>
    <i name="e_0_energy">   -682.56839969 </i>
   </energy>
  </scstep>
  <scstep>
   <time name="dav">    3.76    3.77</time>
   <time name="total">    4.79    4.80</time>
   <energy>
    <i name="e_fr_energy">   -682.56839870 </i>
    <i name="e_wo_entrp">   -682.56839870 </i>
    <i name="e_0_energy">   -682.56839870 </i>
   </energy>
  </scstep>
  <scstep>
   <time name="dav">    3.37    3.38</time>
   <time name="total">    4.40    4.42</time>
   <energy>
    <i name="e_fr_energy">   -682.56839879 </i>
    <i name="e_wo_entrp">   -682.56839879 </i>
    <i name="e_0_energy">   -682.56839879 </i>
   </energy>
  </scstep>
  <scstep>
   <time name="dav">    3.44    3.45</time>
   <time name="total">    4.47    4.48</time>
   <energy>
    <i name="e_fr_energy">   -682.56839881 </i>
    <i name="e_wo_entrp">   -682.56839881 </i>
    <i name="e_0_energy">   -682.56839881 </i>
   </energy>
  </scstep>
  <scstep>
   <time name="dav">    3.24    3.25</time>
   <time name="total">    4.27    4.29</time>
   <energy>
    <i name="e_fr_energy">   -682.56839879 </i>
    <i name="e_wo_entrp">   -682.56839879 </i>
    <i name="e_0_energy">   -682.56839879 </i>
   </energy>
  </scstep>
  <scstep>
   <time name="dav">    3.25    3.26</time>
   <time name="total">    3.76    3.77</time>
   <energy>
    <i name="alphaZ">    210.78028765 </i>
    <i name="ewald"> -14524.86695560 </i>
    <i name="hartreedc">   -991.73218686 </i>
    <i name="XCdc">  -1153.28603501 </i>
    <i name="pawpsdc">   4723.40675528 </i>
    <i name="pawaedc">  -2485.14485579 </i>
    <i name="eentropy">     -0.00000000 </i>
    <i name="bandstr">    345.79373157 </i>
    <i name="atom">  13192.48085998 </i>
    <i name="e_fr_energy">   -682.56839879 </i>
    <i name="e_wo_entrp">   -682.56839879 </i>
    <i name="e_0_energy">   -682.56839879 </i>
   </energy>
  </scstep>
  <structure>
   <crystal>
    <varray name="basis" >
     <v>       0.00000000      10.93716070      10.93716070 </v>
     <v>      10.93716070       0.00000000      10.93716070 </v>
     <v>      10.93716070      10.93716070       0.00000000 </v>
    </varray>
    <i name="volume">   2616.63878844 </i>
    <varray name="rec_basis" >
     <v>      -0.04571570       0.04571570       0.04571570 </v>
     <v>       0.04571570      -0.04571570       0.04571570 </v>
     <v>       0.04571570       0.04571570      -0.04571570 </v>
    </varray>
   </crystal>
   <varray name="positions" >
    <v>       0.06204284       0.06204284       0.06295716 </v>
    <v>       0.31250000       0.06250000       0.06250000 </v>
    <v>       0.56250000       0.06250000       0.06250000 </v>
    <v>       0.81250000       0.06250000       0.06250000 </v>
    <v>       0.06250000       0.31250000       0.06250000 </v>
    <v>       0.31250000       0.31250000       0.06250000 </v>
    <v>       0.56250000       0.31250000       0.06250000 </v>
    <v>       0.81250000       0.31250000       0.06250000 </v>
    <v>       0.06250000       0.56250000       0.06250000 </v>
    <v>       0.31250000       0.56250000       0.06250000 </v>
    <v>       0.56250000       0.56250000       0.06250000 </v>
    <v>       0.81250000       0.56250000       0.06250000 </v>
    <v>       0.06250000       0.81250000       0.06250000 </v>
    <v>       0.31250000       0.81250000       0.06250000 </v>
    <v>       0.56250000       0.81250000       0.06250000 </v>
    <v>       0.81250000       0.81250000       0.06250000 </v>
    <v>       0.06250000       0.06250000       0.31250000 </v>
    <v>       0.31250000       0.06250000       0.31250000 </v>
    <v>       0.56250000       0.06250000       0.31250000 </v>
    <v>       0.81250000       0.06250000       0.31250000 </v>
    <v>       0.06250000       0.31250000       0.31250000 </v>
    <v>       0.31250000       0.31250000       0.31250000 </v>
    <v>       0.56250000       0.31250000       0.31250000 </v>
    <v>       0.81250000       0.31250000       0.31250000 </v>
    <v>       0.06250000       0.56250000       0.31250000 </v>
    <v>       0.31250000       0.56250000       0.31250000 </v>
    <v>       0.56250000       0.56250000       0.31250000 </v>
    <v>       0.81250000       0.56250000       0.31250000 </v>
    <v>       0.06250000       0.81250000       0.31250000 </v>
    <v>       0.31250000       0.81250000       0.31250000 </v>
    <v>       0.56250000       0.81250000       0.31250000 </v>
    <v>       0.81250000       0.81250000       0.31250000 </v>
    <v>       0.06250000       0.06250000       0.56250000 </v>
    <v>       0.31250000       0.06250000       0.56250000 </v>
    <v>       0.56250000       0.06250000       0.56250000 </v>
    <v>       0.81250000       0.06250000       0.56250000 </v>
    <v>       0.06250000       0.31250000       0.56250000 </v>
    <v>       0.31250000       0.31250000       0.56250000 </v>
    <v>       0.56250000       0.31250000       0.56250000 </v>
    <v>       0.81250000       0.31250000       0.56250000 </v>
    <v>       0.06250000       0.56250000       0.56250000 </v>
    <v>       0.31250000       0.56250000       0.56250000 </v>
    <v>       0.56250000       0.56250000       0.56250000 </v>
    <v>       0.81250000       0.56250000       0.56250000 </v>
    <v>       0.06250000       0.81250000       0.56250000 </v>
    <v>       0.31250000       0.81250000       0.56250000 </v>
    <v>       0.56250000       0.81250000       0.56250000 </v>
    <v>       0.81250000       0.81250000       0.56250000 </v>
    <v>       0.06250000       0.06250000       0.81250000 </v>
    <v>       0.31250000       0.06250000       0.81250000 </v>
    <v>       0.56250000       0.06250000       0.81250000 </v>
    <v>       0.81250000       0.06250000       0.81250000 </v>
    <v>       0.06250000       0.31250000       0.81250000 </v>
    <v>       0.31250000       0.31250000       0.81250000 </v>
    <v>       0.56250000       0.31250000       0.81250000 </v>
    <v>       0.81250000       0.31250000       0.81250000 </v>
    <v>       0.06250000       0.56250000       0.81250000 </v>
    <v>       0.31250000       0.56250000       0.81250000 </v>
    <v>       0.56250000       0.56250000       0.81250000 </v>
    <v>       0.81250000       0.56250000       0.81250000 </v>
    <v>       0.06250000       0.81250000       0.81250000 </v>
    <v>       0.31250000       0.81250000       0.81250000 </v>
    <v>       0.56250000       0.81250000       0.81250000 </v>
    <v>       0.81250000       0.81250000       0.81250000 </v>
    <v>       0.99954284       0.00045716       0.99954284 </v>
    <v>       0.25000000       0.00000000       0.00000000 </v>
    <v>       0.50000000       0.00000000       0.00000000 </v>
    <v>       0.75000000       0.00000000       0.00000000 </v>
    <v>       0.00000000       0.25000000       0.00000000 </v>
    <v>       0.25000000       0.25000000       0.00000000 </v>
    <v>       0.50000000       0.25000000       0.00000000 </v>
    <v>       0.75000000       0.25000000       0.00000000 </v>
    <v>       0.00000000       0.50000000       0.00000000 </v>
    <v>       0.25000000       0.50000000       0.00000000 </v>
    <v>       0.50000000       0.50000000       0.00000000 </v>
    <v>       0.75000000       0.50000000       0.00000000 </v>
    <v>       0.00000000       0.75000000       0.00000000 </v>
    <v>       0.25000000       0.75000000       0.00000000 </v>
    <v>       0.50000000       0.75000000       0.00000000 </v>
    <v>       0.75000000       0.75000000       0.00000000 </v>
    <v>       0.00000000       0.00000000       0.25000000 </v>
    <v>       0.25000000       0.00000000       0.25000000 </v>
    <v>       0.50000000       0.00000000       0.25000000 </v>
    <v>       0.75000000       0.00000000       0.25000000 </v>
    <v>       0.00000000       0.25000000       0.25000000 </v>
    <v>       0.25000000       0.25000000       0.25000000 </v>
    <v>       0.50000000       0.25000000       0.25000000 </v>
    <v>       0.75000000       0.25000000       0.25000000 </v>
    <v>       0.00000000       0.50000000       0.25000000 </v>
    <v>       0.25000000       0.50000000       0.25000000 </v>
    <v>       0.50000000       0.50000000       0.25000000 </v>
    <v>       0.75000000       0.50000000       0.25000000 </v>
    <v>       0.00000000       0.75000000       0.25000000 </v>
    <v>       0.25000000       0.75000000       0.25000000 </v>
    <v>       0.50000000       0.75000000       0.25000000 </v>
    <v>       0.75000000       0.75000000       0.25000000 </v>
    <v>       0.00000000       0.00000000       0.50000000 </v>
    <v>       0.25000000       0.00000000       0.50000000 </v>
    <v>       0.50000000       0.00000000       0.50000000 </v>
    <v>       0.75000000       0.00000000       0.50000000 </v>
    <v>       0.00000000       0.25000000       0.50000000 </v>
    <v>       0.25000000       0.25000000       0.50000000 </v>
    <v>       0.50000000       0.25000000       0.50000000 </v>
    <v>       0.75000000       0.25000000       0.50000000 </v>
    <v>       0.00000000       0.50000000       0.50000000 </v>
    <v>       0.25000000       0.50000000       0.50000000 </v>
    <v>       0.50000000       0.50000000       0.50000000 </v>
    <v>       0.75000000       0.50000000       0.50000000 </v>
    <v>       0.00000000       0.75000000       0.50000000 </v>
    <v>       0.25000000       0.75000000       0.50000000 </v>
    <v>       0.50000000       0.75000000       0.50000000 </v>
    <v>       0.75000000       0.75000000       0.50000000 </v>
    <v>       0.00000000       0.00000000       0.75000000 </v>
    <v>       0.25000000       0.00000000       0.75000000 </v>
    <v>       0.50000000       0.00000000       0.75000000 </v>
    <v>       0.75000000       0.00000000       0.75000000 </v>
    <v>       0.00000000       0.25000000       0.75000000 </v>
    <v>       0.25000000       0.25000000       0.75000000 </v>
    <v>       0.50000000       0.25000000       0.75000000 </v>
    <v>       0.75000000       0.25000000       0.75000000 </v>
    <v>       0.00000000       0.50000000       0.75000000 </v>
    <v>       0.25000000       0.50000000       0.75000000 </v>
    <v>       0.50000000       0.50000000       0.75000000 </v>
    <v>       0.75000000       0.50000000       0.75000000 </v>
    <v>       0.00000000       0.75000000       0.75000000 </v>
    <v>       0.25000000       0.75000000       0.75000000 </v>
    <v>       0.50000000       0.75000000       0.75000000 </v>
    <v>       0.75000000       0.75000000       0.75000000 </v>
   </varray>
  </structure>
  <varray name="forces" >
   <v>      -0.02073895      -0.03313261       0.10979003 </v>
   <v>       0.00142008      -0.00222676      -0.00176487 </v>
   <v>      -0.00047857      -0.00058169      -0.00034139 </v>
   <v>       0.01954518      -0.03489219      -0.02210584 </v>
   <v>      -0.00155302      -0.00109003      -0.00109758 </v>
   <v>      -0.00059407       0.00004254       0.00034082 </v>
   <v>      -0.00007356      -0.00035866       0.00036961 </v>
   <v>       0.00060585      -0.00069931       0.00525567 </v>
   <v>      -0.00084560      -0.00203697      -0.00061888 </v>
   <v>       0.00004726      -0.00047540      -0.00057624 </v>
   <v>      -0.00008040      -0.00005632       0.00182666 </v>
   <v>      -0.00036668      -0.00019345       0.00005332 </v>
   <v>       0.01789816      -0.03351706       0.01836664 </v>
   <v>      -0.00129185       0.00102386       0.00525563 </v>
   <v>      -0.00042816      -0.00026422      -0.00002360 </v>
   <v>      -0.00048718       0.00010267       0.00029849 </v>
   <v>      -0.00115942      -0.00116778       0.00539662 </v>
   <v>       0.00065716       0.00010092       0.00028064 </v>
   <v>      -0.00026573      -0.00226055       0.00042973 </v>
   <v>       0.00237415       0.00121032      -0.00124323 </v>
   <v>       0.00023662       0.00052295      -0.00048994 </v>
   <v>      -0.00038470       0.00025110      -0.00049027 </v>
   <v>       0.00017124       0.00042565      -0.00011153 </v>
   <v>      -0.00002139       0.00015580      -0.00025965 </v>
   <v>      -0.00068163       0.00000239       0.00015032 </v>
   <v>       0.00029116       0.00021383      -0.00008245 </v>
   <v>      -0.00003618       0.00009331      -0.00010247 </v>
   <v>       0.00000594       0.00016825      -0.00007266 </v>
   <v>       0.00130202       0.00211236      -0.00192775 </v>
   <v>      -0.00002135       0.00006484      -0.00027411 </v>
   <v>       0.00002053       0.00015439      -0.00011629 </v>
   <v>      -0.00034319       0.00024958      -0.00050698 </v>
   <v>      -0.00019633      -0.00020931       0.00120334 </v>
   <v>       0.00062266      -0.00232317      -0.00057700 </v>
   <v>       0.00052927       0.00007859       0.00001568 </v>
   <v>       0.00028722      -0.00032672       0.00005502 </v>
   <v>       0.00020502      -0.00006025       0.00009402 </v>
   <v>       0.00020055       0.00036394      -0.00002407 </v>
   <v>       0.00002533       0.00011812      -0.00007040 </v>
   <v>      -0.00000966       0.00005229      -0.00010450 </v>
   <v>       0.00015898       0.00031512      -0.00022249 </v>
   <v>       0.00003627       0.00010709      -0.00011809 </v>
   <v>      -0.00002371       0.00010596      -0.00013713 </v>
   <v>      -0.00017176      -0.00005374      -0.00017399 </v>
   <v>      -0.00019089       0.00015240      -0.00026086 </v>
   <v>      -0.00003437       0.00016766      -0.00011870 </v>
   <v>      -0.00015770       0.00006578      -0.00025300 </v>
   <v>       0.00013096       0.00024780      -0.00002662 </v>
   <v>      -0.01956995      -0.03188312       0.02544099 </v>
   <v>       0.00235834      -0.00070140      -0.00123051 </v>
   <v>       0.00030867      -0.00020437       0.00003210 </v>
   <v>       0.00061205      -0.00013116       0.00023623 </v>
   <v>      -0.00061204       0.00226502      -0.00191111 </v>
   <v>      -0.00000730       0.00015606      -0.00018768 </v>
   <v>       0.00000954       0.00006293      -0.00011629 </v>
   <v>      -0.00034078       0.00007647      -0.00059220 </v>
   <v>       0.00000816       0.00022776      -0.00020550 </v>
   <v>       0.00002021       0.00014358      -0.00008712 </v>
   <v>      -0.00006753      -0.00004279      -0.00028532 </v>
   <v>       0.00028923       0.00030798      -0.00008573 </v>
   <v>       0.00013680       0.00052615      -0.00044042 </v>
   <v>      -0.00033917       0.00024886      -0.00059519 </v>
   <v>       0.00022780       0.00036901      -0.00012306 </v>
   <v>      -0.00001823       0.00009888      -0.00012246 </v>
   <v>      -0.01973165       0.11036183      -0.03229262 </v>
   <v>       0.01901190      -0.02152014      -0.03457943 </v>
   <v>      -0.00046922      -0.00033657      -0.00057612 </v>
   <v>       0.00144049      -0.00178550      -0.00224172 </v>
   <v>      -0.01898716       0.02486373      -0.03162327 </v>
   <v>       0.00061410       0.00023948      -0.00013144 </v>
   <v>       0.00030703       0.00003522      -0.00020513 </v>
   <v>       0.00237477      -0.00124163      -0.00070985 </v>
   <v>      -0.00019767       0.00119783      -0.00020708 </v>
   <v>       0.00028968       0.00005316      -0.00032563 </v>
   <v>       0.00052866       0.00001691       0.00007729 </v>
   <v>       0.00062427      -0.00057915      -0.00230913 </v>
   <v>      -0.00114703       0.00538600      -0.00116108 </v>
   <v>       0.00236204      -0.00123201       0.00120403 </v>
   <v>      -0.00026554       0.00042500      -0.00224628 </v>
   <v>       0.00065736       0.00028342       0.00010159 </v>
   <v>       0.01851988       0.01894688      -0.03381434 </v>
   <v>      -0.00049296       0.00029258       0.00009955 </v>
   <v>      -0.00043039      -0.00002444      -0.00026265 </v>
   <v>      -0.00130484       0.00526349       0.00104277 </v>
   <v>       0.00013074      -0.00044887       0.00051738 </v>
   <v>      -0.00001904      -0.00012257       0.00009883 </v>
   <v>       0.00022611      -0.00012257       0.00037078 </v>
   <v>      -0.00034499      -0.00058976       0.00025260 </v>
   <v>      -0.00019086      -0.00026398       0.00015382 </v>
   <v>       0.00013097      -0.00002911       0.00024909 </v>
   <v>      -0.00015601      -0.00025193       0.00006543 </v>
   <v>      -0.00003419      -0.00011927       0.00016838 </v>
   <v>       0.00129498      -0.00191251       0.00209362 </v>
   <v>      -0.00033780      -0.00050966       0.00025188 </v>
   <v>       0.00001908      -0.00011603       0.00015422 </v>
   <v>      -0.00002248      -0.00027366       0.00006421 </v>
   <v>      -0.00084357      -0.00061288      -0.00205309 </v>
   <v>      -0.00036645       0.00005482      -0.00019280 </v>
   <v>      -0.00007992       0.00183883      -0.00005396 </v>
   <v>       0.00004758      -0.00058009      -0.00048320 </v>
   <v>       0.00000912      -0.00020401       0.00022723 </v>
   <v>       0.00029016      -0.00008531       0.00030633 </v>
   <v>      -0.00006816      -0.00028423      -0.00004290 </v>
   <v>       0.00002089      -0.00008632       0.00014323 </v>
   <v>       0.00015760      -0.00022181       0.00031595 </v>
   <v>      -0.00016940      -0.00017480      -0.00005373 </v>
   <v>      -0.00002420      -0.00013692       0.00010580 </v>
   <v>       0.00003624      -0.00011819       0.00010746 </v>
   <v>      -0.00068281       0.00015065      -0.00000227 </v>
   <v>       0.00000619      -0.00007190       0.00016780 </v>
   <v>      -0.00003636      -0.00010267       0.00009381 </v>
   <v>       0.00029486      -0.00008208       0.00021441 </v>
   <v>      -0.00155121      -0.00111100      -0.00108749 </v>
   <v>       0.00062253       0.00526036      -0.00071178 </v>
   <v>      -0.00007458       0.00036973      -0.00035689 </v>
   <v>      -0.00059496       0.00033855       0.00004254 </v>
   <v>      -0.00061962      -0.00192936       0.00228857 </v>
   <v>      -0.00034329      -0.00059583       0.00007756 </v>
   <v>       0.00000970      -0.00011602       0.00006332 </v>
   <v>      -0.00000769      -0.00018871       0.00015536 </v>
   <v>       0.00020057       0.00009158      -0.00005697 </v>
   <v>      -0.00000954      -0.00010472       0.00005214 </v>
   <v>       0.00002539      -0.00007016       0.00011823 </v>
   <v>       0.00020105      -0.00002504       0.00036410 </v>
   <v>       0.00023662      -0.00049089       0.00052086 </v>
   <v>      -0.00002249      -0.00025927       0.00015568 </v>
   <v>       0.00017185      -0.00011180       0.00042796 </v>
   <v>      -0.00038772      -0.00048987       0.00025060 </v>
  </varray>
  <varray name="stress" >
   <v>       5.73218445       0.05286501      -0.05388487 </v>
   <v>       0.05286501       5.73139466      -0.00032114 </v>
   <v>      -0.05388486      -0.00032113       5.73140167 </v>
  </varray>
  <energy>
   <i name="e_fr_energy">   -682.56839879 </i>
   <i name="e_wo_entrp">   -682.56839879 </i>
   <i name="e_0_energy">     -0.00000000 </i>
  </energy>
  <time name="totalsc">  122.58  122.95</time>
  <eigenvalues>
   <array>
    <dimension dim="1">band</dimension>
    <dimension dim="2">kpoint</dimension>
    <dimension dim="3">spin</dimension>
    <field>eigene</field>
    <field>occ</field>
    <set>
     <set comment="spin 1">
      <set comment="kpoint 1">
       <r>   -6.1630    1.0000 </r>
       <r>   -5.3791    1.0000 </r>
       <r>   -5.3781    1.0000 </r>
       <r>   -5.3777    1.0000 </r>
       <r>   -5.3775    1.0000 </r>
       <r>   -5.3774    1.0000 </r>
       <r>   -5.3773    1.0000 </r>
       <r>   -5.3769    1.0000 </r>
       <r>   -5.3759    1.0000 </r>
       <r>   -5.1008    1.0000 </r>
       <r>   -5.1002    1.0000 </r>
       <r>   -5.0997    1.0000 </r>
       <r>   -5.0995    1.0000 </r>
       <r>   -5.0991    1.0000 </r>
       <r>   -5.0984    1.0000 </r>
       <r>   -4.1595    1.0000 </r>
       <r>   -4.1582    1.0000 </r>
       <r>   -4.1576    1.0000 </r>
       <r>   -4.1571    1.0000 </r>
       <r>   -4.1570    1.0000 </r>
       <r>   -4.1570    1.0000 </r>
       <r>   -4.1570    1.0000 </r>
       <r>   -4.1569    1.0000 </r>
       <r>   -4.1568    1.0000 </r>
       <r>   -4.1563    1.0000 </r>
       <r>   -4.1557    1.0000 </r>
       <r>   -4.1545    1.0000 </r>
       <r>   -3.8820    1.0000 </r>
       <r>   -3.8816    1.0000 </r>
       <r>   -3.8807    1.0000 </r>
       <r>   -3.8804    1.0000 </r>
       <r>   -3.5010    1.0000 </r>
       <r>   -3.4988    1.0000 </r>
       <r>   -3.4981    1.0000 </r>
       <r>   -3.4967    1.0000 </r>
       <r>   -3.4966    1.0000 </r>
       <r>   -3.4966    1.0000 </r>
       <r>   -3.4964    1.0000 </r>
       <r>   -3.4964    1.0000 </r>
       <r>   -3.4964    1.0000 </r>
       <r>   -3.4963    1.0000 </r>
       <r>   -3.4963    1.0000 </r>
       <r>   -3.4962    1.0000 </r>
       <r>   -3.4962    1.0000 </r>
       <r>   -3.4962    1.0000 </r>
       <r>   -3.4961    1.0000 </r>
       <r>   -3.4961    1.0000 </r>
       <r>   -3.4961    1.0000 </r>
       <r>   -3.4960    1.0000 </r>
       <r>   -3.4959    1.0000 </r>
       <r>   -3.4959    1.0000 </r>
       <r>   -3.4958    1.0000 </r>
       <r>   -3.4944    1.0000 </r>
       <r>   -3.4937    1.0000 </r>
       <r>   -3.4915    1.0000 </r>
       <r>   -2.0920    1.0000 </r>
       <r>   -2.0915    1.0000 </r>
       <r>   -2.0914    1.0000 </r>
       <r>   -2.0905    1.0000 </r>
       <r>   -2.0903    1.0000 </r>
       <r>   -2.0899    1.0000 </r>
       <r>   -1.9376    1.0000 </r>
       <r>   -1.9366    1.0000 </r>
       <r>   -1.9365    1.0000 </r>
       <r>   -1.9355    1.0000 </r>
       <r>   -1.9355    1.0000 </r>
       <r>   -1.9355    1.0000 </r>
       <r>   -1.9353    1.0000 </r>
       <r>   -1.9353    1.0000 </r>
       <r>   -1.9353    1.0000 </r>
       <r>   -1.9343    1.0000 </r>
       <r>   -1.9342    1.0000 </r>
       <r>   -1.9332    1.0000 </r>
       <r>   -1.2193    1.0000 </r>
       <r>   -1.2186    1.0000 </r>
       <r>   -1.2182    1.0000 </r>
       <r>   -1.2175    1.0000 </r>
       <r>   -0.6734    1.0000 </r>
       <r>   -0.6712    1.0000 </r>
       <r>   -0.6696    1.0000 </r>
       <r>   -0.6692    1.0000 </r>
       <r>   -0.6690    1.0000 </r>
       <r>   -0.6689    1.0000 </r>
       <r>   -0.6688    1.0000 </r>
       <r>   -0.6688    1.0000 </r>
       <r>   -0.6688    1.0000 </r>
       <r>   -0.6687    1.0000 </r>
       <r>   -0.6687    1.0000 </r>
       <r>   -0.6686    1.0000 </r>
       <r>   -0.6686    1.0000 </r>
       <r>   -0.6686    1.0000 </r>
       <r>   -0.6685    1.0000 </r>
       <r>   -0.6685    1.0000 </r>
       <r>   -0.6684    1.0000 </r>
       <r>   -0.6684    1.0000 </r>
       <r>   -0.6684    1.0000 </r>
       <r>   -0.6682    1.0000 </r>
       <r>   -0.6681    1.0000 </r>
       <r>   -0.6676    1.0000 </r>
       <r>   -0.6660    1.0000 </r>
       <r>   -0.6638    1.0000 </r>
       <r>    0.2147    1.0000 </r>
       <r>    0.2153    1.0000 </r>
       <r>    0.2166    1.0000 </r>
       <r>    0.2166    1.0000 </r>
       <r>    0.2166    1.0000 </r>
       <r>    0.2167    1.0000 </r>
       <r>    0.2167    1.0000 </r>
       <r>    0.2168    1.0000 </r>
       <r>    0.2169    1.0000 </r>
       <r>    0.2169    1.0000 </r>
       <r>    0.2182    1.0000 </r>
       <r>    0.2188    1.0000 </r>
       <r>    1.7665    1.0000 </r>
       <r>    1.7669    1.0000 </r>
       <r>    1.7675    1.0000 </r>
       <r>    1.7678    1.0000 </r>
       <r>    1.7679    1.0000 </r>
       <r>    1.7682    1.0000 </r>
       <r>    1.7687    1.0000 </r>
       <r>    1.7691    1.0000 </r>
       <r>    1.8846    1.0000 </r>
       <r>    1.8852    1.0000 </r>
       <r>    1.8856    1.0000 </r>
       <r>    1.8857    1.0000 </r>
       <r>    1.8859    1.0000 </r>
       <r>    1.8860    1.0000 </r>
       <r>    1.8860    1.0000 </r>
       <r>    1.8861    1.0000 </r>
       <r>    1.8863    1.0000 </r>
       <r>    1.8864    1.0000 </r>
       <r>    1.8868    1.0000 </r>
       <r>    1.8874    1.0000 </r>
       <r>    1.9776    1.0000 </r>
       <r>    1.9778    1.0000 </r>
       <r>    1.9781    1.0000 </r>
       <r>    1.9786    1.0000 </r>
       <r>    1.9788    1.0000 </r>
       <r>    1.9789    1.0000 </r>
       <r>    1.9789    1.0000 </r>
       <r>    1.9789    1.0000 </r>
       <r>    1.9792    1.0000 </r>
       <r>    1.9796    1.0000 </r>
       <r>    1.9800    1.0000 </r>
       <r>    1.9802    1.0000 </r>
       <r>    2.1399    1.0000 </r>
       <r>    2.1407    1.0000 </r>
       <r>    2.1409    1.0000 </r>
       <r>    2.1413    1.0000 </r>
       <r>    2.1415    1.0000 </r>
       <r>    2.1422    1.0000 </r>
       <r>    2.1841    1.0000 </r>
       <r>    2.1848    1.0000 </r>
       <r>    2.1852    1.0000 </r>
       <r>    2.1861    1.0000 </r>
       <r>    2.1865    1.0000 </r>
       <r>    2.1866    1.0000 </r>
       <r>    2.1866    1.0000 </r>
       <r>    2.1867    1.0000 </r>
       <r>    2.1867    1.0000 </r>
       <r>    2.1868    1.0000 </r>
       <r>    2.1868    1.0000 </r>
       <r>    2.1869    1.0000 </r>
       <r>    2.1870    1.0000 </r>
       <r>    2.1870    1.0000 </r>
       <r>    2.1870    1.0000 </r>
       <r>    2.1871    1.0000 </r>
       <r>    2.1871    1.0000 </r>
       <r>    2.1872    1.0000 </r>
       <r>    2.1872    1.0000 </r>
       <r>    2.1873    1.0000 </r>
       <r>    2.1878    1.0000 </r>
       <r>    2.1887    1.0000 </r>
       <r>    2.1890    1.0000 </r>
       <r>    2.1899    1.0000 </r>
       <r>    2.8561    1.0000 </r>
       <r>    2.8563    1.0000 </r>
       <r>    2.8566    1.0000 </r>
       <r>    2.8566    1.0000 </r>
       <r>    2.8569    1.0000 </r>
       <r>    2.8571    1.0000 </r>
       <r>    3.4894    1.0000 </r>
       <r>    3.4900    1.0000 </r>
       <r>    3.4913    1.0000 </r>
       <r>    3.4920    1.0000 </r>
       <r>    3.4921    1.0000 </r>
       <r>    3.4921    1.0000 </r>
       <r>    3.4922    1.0000 </r>
       <r>    3.4923    1.0000 </r>
       <r>    3.4924    1.0000 </r>
       <r>    3.4924    1.0000 </r>
       <r>    3.4925    1.0000 </r>
       <r>    3.4925    1.0000 </r>
       <r>    3.4925    1.0000 </r>
       <r>    3.4926    1.0000 </r>
       <r>    3.4926    1.0000 </r>
       <r>    3.4926    1.0000 </r>
       <r>    3.4927    1.0000 </r>
       <r>    3.4928    1.0000 </r>
       <r>    3.4929    1.0000 </r>
       <r>    3.4929    1.0000 </r>
       <r>    3.4930    1.0000 </r>
       <r>    3.4937    1.0000 </r>
       <r>    3.4950    1.0000 </r>
       <r>    3.4956    1.0000 </r>
       <r>    3.8017    1.0000 </r>
       <r>    3.8028    1.0000 </r>
       <r>    3.8034    1.0000 </r>
       <r>    3.8036    1.0000 </r>
       <r>    3.8038    1.0000 </r>
       <r>    3.8038    1.0000 </r>
       <r>    3.8038    1.0000 </r>
       <r>    3.8039    1.0000 </r>
       <r>    3.8040    1.0000 </r>
       <r>    3.8043    1.0000 </r>
       <r>    3.8049    1.0000 </r>
       <r>    3.8060    1.0000 </r>
       <r>    4.3508    1.0000 </r>
       <r>    4.3513    1.0000 </r>
       <r>    4.3523    1.0000 </r>
       <r>    4.3526    1.0000 </r>
       <r>    4.3527    1.0000 </r>
       <r>    4.3528    1.0000 </r>
       <r>    4.3528    1.0000 </r>
       <r>    4.3529    1.0000 </r>
       <r>    4.3531    1.0000 </r>
       <r>    4.3533    1.0000 </r>
       <r>    4.3543    1.0000 </r>
       <r>    4.3548    1.0000 </r>
       <r>    4.4763    1.0000 </r>
       <r>    4.4767    1.0000 </r>
       <r>    4.4773    1.0000 </r>
       <r>    4.4776    1.0000 </r>
       <r>    4.4778    1.0000 </r>
       <r>    4.4781    1.0000 </r>
       <r>    4.4787    1.0000 </r>
       <r>    4.4791    1.0000 </r>
       <r>    4.9077    1.0000 </r>
       <r>    4.9102    1.0000 </r>
       <r>    4.9113    1.0000 </r>
       <r>    4.9114    1.0000 </r>
       <r>    4.9116    1.0000 </r>
       <r>    4.9116    1.0000 </r>
       <r>    4.9117    1.0000 </r>
       <r>    4.9118    1.0000 </r>
       <r>    4.9118    1.0000 </r>
       <r>    4.9119    1.0000 </r>
       <r>    4.9119    1.0000 </r>
       <r>    4.9120    1.0000 </r>
       <r>    4.9121    1.0000 </r>
       <r>    4.9122    1.0000 </r>
       <r>    4.9134    1.0000 </r>
       <r>    4.9159    1.0000 </r>
       <r>    5.6594    1.0000 </r>
       <r>    5.6604    1.0000 </r>
       <r>    5.6615    1.0000 </r>
       <r>    6.3942    0.0000 </r>
       <r>    6.3944    0.0000 </r>
       <r>    6.3950    0.0000 </r>
       <r>    6.3953    0.0000 </r>
       <r>    6.3959    0.0000 </r>
       <r>    6.3960    0.0000 </r>
       <r>    6.7954    0.0000 </r>
       <r>    6.7958    0.0000 </r>
       <r>    6.7961    0.0000 </r>
       <r>    6.7964    0.0000 </r>
       <r>    6.7967    0.0000 </r>
       <r>    6.7971    0.0000 </r>
       <r>    7.1206    0.0000 </r>
       <r>    7.1208    0.0000 </r>
       <r>    7.1209    0.0000 </r>
       <r>    7.1211    0.0000 </r>
       <r>    7.1828    0.0000 </r>
       <r>    7.1830    0.0000 </r>
       <r>    7.1845    0.0000 </r>
       <r>    7.1853    0.0000 </r>
       <r>    7.1857    0.0000 </r>
       <r>    7.1857    0.0000 </r>
       <r>    7.1858    0.0000 </r>
       <r>    7.1858    0.0000 </r>
       <r>    7.1859    0.0000 </r>
       <r>    7.1859    0.0000 </r>
       <r>    7.1860    0.0000 </r>
       <r>    7.1860    0.0000 </r>
       <r>    7.1860    0.0000 </r>
       <r>    7.1860    0.0000 </r>
       <r>    7.1861    0.0000 </r>
       <r>    7.1861    0.0000 </r>
       <r>    7.1862    0.0000 </r>
       <r>    7.1862    0.0000 </r>
       <r>    7.1863    0.0000 </r>
       <r>    7.1863    0.0000 </r>
       <r>    7.1867    0.0000 </r>
       <r>    7.1875    0.0000 </r>
       <r>    7.1890    0.0000 </r>
       <r>    7.1892    0.0000 </r>
       <r>    7.6113    0.0000 </r>
       <r>    7.6116    0.0000 </r>
       <r>    7.6119    0.0000 </r>
       <r>    7.6120    0.0000 </r>
       <r>    7.6124    0.0000 </r>
       <r>    7.6126    0.0000 </r>
       <r>    7.6129    0.0000 </r>
       <r>    7.6132    0.0000 </r>
       <r>    8.0815    0.0000 </r>
       <r>    8.0817    0.0000 </r>
       <r>    8.0820    0.0000 </r>
       <r>    8.0825    0.0000 </r>
       <r>    8.0828    0.0000 </r>
       <r>    8.0829    0.0000 </r>
       <r>    8.0829    0.0000 </r>
       <r>    8.0831    0.0000 </r>
       <r>    8.0834    0.0000 </r>
       <r>    8.0839    0.0000 </r>
       <r>    8.0841    0.0000 </r>
       <r>    8.0843    0.0000 </r>
       <r>    8.1987    0.0000 </r>
       <r>    8.1993    0.0000 </r>
       <r>    8.2000    0.0000 </r>
       <r>    8.7787    0.0000 </r>
       <r>    8.7792    0.0000 </r>
       <r>    8.7872    0.0000 </r>
      </set>
     </set>
    </set>
   </array>
  </eigenvalues>
  <separator name="orbital magnetization" >
   <v name="MAGDIPOLOUT">      0.00000000      0.00000000      0.00000000</v>
  </separator>
  <dos>
   <i name="efermi">      5.92016492 </i>
   <total>
    <array>
     <dimension dim="1">gridpoints</dimension>
     <dimension dim="2">spin</dimension>
     <field>energy</field>
     <field>total</field>
     <field>integrated</field>
     <set>
      <set comment="spin 1">
       <r>    -6.9105     0.0000     0.0000 </r>
       <r>    -6.8557     0.0000     0.0000 </r>
       <r>    -6.8009     0.0000     0.0000 </r>
       <r>    -6.7461     0.0000     0.0000 </r>
       <r>    -6.6913     0.0000     0.0000 </r>
       <r>    -6.6364     0.0000     0.0000 </r>
       <r>    -6.5816     0.0000     0.0000 </r>
       <r>    -6.5268     0.0000     0.0000 </r>
       <r>    -6.4720     0.0000     0.0000 </r>
       <r>    -6.4172     0.0000     0.0000 </r>
       <r>    -6.3624     0.0000     0.0000 </r>
       <r>    -6.3075     0.0008     0.0000 </r>
       <r>    -6.2527     0.2031     0.0112 </r>
       <r>    -6.1979     5.7032     0.3238 </r>
       <r>    -6.1431    20.1269     1.4271 </r>
       <r>    -6.0883     9.8216     1.9655 </r>
       <r>    -6.0334     0.6247     1.9998 </r>
       <r>    -5.9786     0.0045     2.0000 </r>
       <r>    -5.9238     0.0000     2.0000 </r>
       <r>    -5.8690     0.0000     2.0000 </r>
       <r>    -5.8142     0.0000     2.0000 </r>
       <r>    -5.7594     0.0000     2.0000 </r>
       <r>    -5.7045     0.0000     2.0000 </r>
       <r>    -5.6497     0.0000     2.0000 </r>
       <r>    -5.5949     0.0000     2.0000 </r>
       <r>    -5.5401     0.0006     2.0000 </r>
       <r>    -5.4853     0.3354     2.0184 </r>
       <r>    -5.4305    19.2352     3.0728 </r>
       <r>    -5.3756   132.4096    10.3312 </r>
       <r>    -5.3208   123.9649    17.1266 </r>
       <r>    -5.2660    15.6961    17.9870 </r>
       <r>    -5.2112     0.4121    18.0096 </r>
       <r>    -5.1564    11.7165    18.6519 </r>
       <r>    -5.1016    92.8326    23.7407 </r>
       <r>    -5.0467    99.4434    29.1920 </r>
       <r>    -4.9919    14.4867    29.9861 </r>
       <r>    -4.9371     0.2533    30.0000 </r>
       <r>    -4.8823     0.0005    30.0000 </r>
       <r>    -4.8275     0.0000    30.0000 </r>
       <r>    -4.7726     0.0000    30.0000 </r>
       <r>    -4.7178     0.0000    30.0000 </r>
       <r>    -4.6630     0.0000    30.0000 </r>
       <r>    -4.6082     0.0000    30.0000 </r>
       <r>    -4.5534     0.0000    30.0000 </r>
       <r>    -4.4986     0.0000    30.0000 </r>
       <r>    -4.4437     0.0000    30.0000 </r>
       <r>    -4.3889     0.0000    30.0000 </r>
       <r>    -4.3341     0.0001    30.0000 </r>
       <r>    -4.2793     0.1189    30.0065 </r>
       <r>    -4.2245    12.2086    30.6758 </r>
       <r>    -4.1697   145.2031    38.6354 </r>
       <r>    -4.1148   229.1088    51.1946 </r>
       <r>    -4.0600    49.8342    53.9263 </r>
       <r>    -4.0052     1.3728    54.0016 </r>
       <r>    -3.9504     3.6408    54.2012 </r>
       <r>    -3.8956    46.2287    56.7353 </r>
       <r>    -3.8408    77.5756    60.9878 </r>
       <r>    -3.7859    17.9486    61.9717 </r>
       <r>    -3.7311     0.5148    61.9999 </r>
       <r>    -3.6763     0.0018    62.0000 </r>
       <r>    -3.6215     0.1758    62.0096 </r>
       <r>    -3.5667    20.2158    63.1178 </r>
       <r>    -3.5118   268.1064    77.8147 </r>
       <r>    -3.4570   469.7492   103.5651 </r>
       <r>    -3.4022   113.9272   109.8103 </r>
       <r>    -3.3474     3.4489   109.9994 </r>
       <r>    -3.2926     0.0114   110.0000 </r>
       <r>    -3.2378     0.0000   110.0000 </r>
       <r>    -3.1829     0.0000   110.0000 </r>
       <r>    -3.1281     0.0000   110.0000 </r>
       <r>    -3.0733     0.0000   110.0000 </r>
       <r>    -3.0185     0.0000   110.0000 </r>
       <r>    -2.9637     0.0000   110.0000 </r>
       <r>    -2.9089     0.0000   110.0000 </r>
       <r>    -2.8540     0.0000   110.0000 </r>
       <r>    -2.7992     0.0000   110.0000 </r>
       <r>    -2.7444     0.0000   110.0000 </r>
       <r>    -2.6896     0.0000   110.0000 </r>
       <r>    -2.6348     0.0000   110.0000 </r>
       <r>    -2.5800     0.0000   110.0000 </r>
       <r>    -2.5251     0.0000   110.0000 </r>
       <r>    -2.4703     0.0000   110.0000 </r>
       <r>    -2.4155     0.0000   110.0000 </r>
       <r>    -2.3607     0.0000   110.0000 </r>
       <r>    -2.3059     0.0000   110.0000 </r>
       <r>    -2.2510     0.0007   110.0000 </r>
       <r>    -2.1962     0.3174   110.0174 </r>
       <r>    -2.1414    16.4801   110.9208 </r>
       <r>    -2.0866   103.3526   116.5864 </r>
       <r>    -2.0318    89.8381   121.5110 </r>
       <r>    -1.9770    61.2964   124.8711 </r>
       <r>    -1.9221   230.4392   137.5032 </r>
       <r>    -1.8673   143.1073   145.3480 </r>
       <r>    -1.8125    11.7820   145.9938 </r>
       <r>    -1.7577     0.1122   146.0000 </r>
       <r>    -1.7029     0.0001   146.0000 </r>
       <r>    -1.6481     0.0000   146.0000 </r>
       <r>    -1.5932     0.0000   146.0000 </r>
       <r>    -1.5384     0.0000   146.0000 </r>
       <r>    -1.4836     0.0000   146.0000 </r>
       <r>    -1.4288     0.0000   146.0000 </r>
       <r>    -1.3740     0.0008   146.0000 </r>
       <r>    -1.3192     0.3193   146.0175 </r>
       <r>    -1.2643    13.8380   146.7761 </r>
       <r>    -1.2095    73.2978   150.7941 </r>
       <r>    -1.1547    53.2584   153.7136 </r>
       <r>    -1.0999     5.1662   153.9968 </r>
       <r>    -1.0451     0.0585   154.0000 </r>
       <r>    -0.9903     0.0001   154.0000 </r>
       <r>    -0.9354     0.0000   154.0000 </r>
       <r>    -0.8806     0.0000   154.0000 </r>
       <r>    -0.8258     0.0039   154.0002 </r>
       <r>    -0.7710     1.6720   154.0919 </r>
       <r>    -0.7162    76.7873   158.3011 </r>
       <r>    -0.6613   430.6967   181.9108 </r>
       <r>    -0.6065   331.7372   200.0958 </r>
       <r>    -0.5517    34.3193   201.9771 </r>
       <r>    -0.4969     0.4178   202.0000 </r>
       <r>    -0.4421     0.0005   202.0000 </r>
       <r>    -0.3873     0.0000   202.0000 </r>
       <r>    -0.3324     0.0000   202.0000 </r>
       <r>    -0.2776     0.0000   202.0000 </r>
       <r>    -0.2228     0.0000   202.0000 </r>
       <r>    -0.1680     0.0000   202.0000 </r>
       <r>    -0.1132     0.0000   202.0000 </r>
       <r>    -0.0584     0.0000   202.0000 </r>
       <r>    -0.0035     0.0000   202.0000 </r>
       <r>     0.0513     0.0006   202.0000 </r>
       <r>     0.1061     0.3847   202.0211 </r>
       <r>     0.1609    24.6870   203.3744 </r>
       <r>     0.2157   188.8892   213.7288 </r>
       <r>     0.2705   195.8053   224.4623 </r>
       <r>     0.3254    27.5840   225.9744 </r>
       <r>     0.3802     0.4657   226.0000 </r>
       <r>     0.4350     0.0008   226.0000 </r>
       <r>     0.4898     0.0000   226.0000 </r>
       <r>     0.5446     0.0000   226.0000 </r>
       <r>     0.5995     0.0000   226.0000 </r>
       <r>     0.6543     0.0000   226.0000 </r>
       <r>     0.7091     0.0000   226.0000 </r>
       <r>     0.7639     0.0000   226.0000 </r>
       <r>     0.8187     0.0000   226.0000 </r>
       <r>     0.8735     0.0000   226.0000 </r>
       <r>     0.9284     0.0000   226.0000 </r>
       <r>     0.9832     0.0000   226.0000 </r>
       <r>     1.0380     0.0000   226.0000 </r>
       <r>     1.0928     0.0000   226.0000 </r>
       <r>     1.1476     0.0000   226.0000 </r>
       <r>     1.2024     0.0000   226.0000 </r>
       <r>     1.2573     0.0000   226.0000 </r>
       <r>     1.3121     0.0000   226.0000 </r>
       <r>     1.3669     0.0000   226.0000 </r>
       <r>     1.4217     0.0000   226.0000 </r>
       <r>     1.4765     0.0000   226.0000 </r>
       <r>     1.5313     0.0000   226.0000 </r>
       <r>     1.5862     0.0000   226.0000 </r>
       <r>     1.6410     0.0488   226.0027 </r>
       <r>     1.6958     6.0339   226.3334 </r>
       <r>     1.7506    85.3792   231.0137 </r>
       <r>     1.8054   163.4206   239.9720 </r>
       <r>     1.8603   138.0160   247.5377 </r>
       <r>     1.9151   262.4149   261.9226 </r>
       <r>     1.9699   245.4935   275.3799 </r>
       <r>     2.0247   224.1074   287.6648 </r>
       <r>     2.0795    51.6207   290.4946 </r>
       <r>     2.1343   143.9106   298.3834 </r>
       <r>     2.1892   506.7598   326.1626 </r>
       <r>     2.2440   387.6875   347.4146 </r>
       <r>     2.2988    46.4774   349.9624 </r>
       <r>     2.3536     0.6853   349.9999 </r>
       <r>     2.4084     0.0011   350.0000 </r>
       <r>     2.4632     0.0000   350.0000 </r>
       <r>     2.5181     0.0000   350.0000 </r>
       <r>     2.5729     0.0000   350.0000 </r>
       <r>     2.6277     0.0000   350.0000 </r>
       <r>     2.6825     0.0001   350.0000 </r>
       <r>     2.7373     0.0811   350.0045 </r>
       <r>     2.7921     7.3925   350.4097 </r>
       <r>     2.8470    78.4537   354.7103 </r>
       <r>     2.9018   110.9405   360.7918 </r>
       <r>     2.9566    21.5281   361.9719 </r>
       <r>     3.0114     0.5113   361.9999 </r>
       <r>     3.0662     0.0013   362.0000 </r>
       <r>     3.1211     0.0000   362.0000 </r>
       <r>     3.1759     0.0000   362.0000 </r>
       <r>     3.2307     0.0000   362.0000 </r>
       <r>     3.2855     0.0000   362.0000 </r>
       <r>     3.3403     0.0074   362.0004 </r>
       <r>     3.3951     2.5810   362.1419 </r>
       <r>     3.4500    97.6480   367.4947 </r>
       <r>     3.5048   456.2302   392.5040 </r>
       <r>     3.5596   293.7919   408.6089 </r>
       <r>     3.6144    25.1266   409.9863 </r>
       <r>     3.6692     0.2802   410.0017 </r>
       <r>     3.7240     5.2386   410.2888 </r>
       <r>     3.7789    99.8308   415.7613 </r>
       <r>     3.8337   245.4139   429.2143 </r>
       <r>     3.8885    83.6513   433.7998 </r>
       <r>     3.9433     3.6345   433.9990 </r>
       <r>     3.9981     0.0176   434.0000 </r>
       <r>     4.0529     0.0000   434.0000 </r>
       <r>     4.1078     0.0000   434.0000 </r>
       <r>     4.1626     0.0000   434.0000 </r>
       <r>     4.2174     0.0282   434.0015 </r>
       <r>     4.2722     4.9380   434.2722 </r>
       <r>     4.3270    97.0649   439.5931 </r>
       <r>     4.3819   246.6445   453.1135 </r>
       <r>     4.4367   121.1457   459.7544 </r>
       <r>     4.4915   158.1668   468.4247 </r>
       <r>     4.5463    94.0567   473.5806 </r>
       <r>     4.6011     7.5803   473.9961 </r>
       <r>     4.6559     0.0705   474.0000 </r>
       <r>     4.7108     0.0001   474.0000 </r>
       <r>     4.7656     0.0105   474.0006 </r>
       <r>     4.8204     2.8525   474.1569 </r>
       <r>     4.8752    85.0939   478.8216 </r>
       <r>     4.9300   318.8416   496.2996 </r>
       <r>     4.9848   165.5789   505.3762 </r>
       <r>     5.0397    11.2908   505.9952 </r>
       <r>     5.0945     0.0882   506.0000 </r>
       <r>     5.1493     0.0001   506.0000 </r>
       <r>     5.2041     0.0000   506.0000 </r>
       <r>     5.2589     0.0000   506.0000 </r>
       <r>     5.3137     0.0000   506.0000 </r>
       <r>     5.3686     0.0000   506.0000 </r>
       <r>     5.4234     0.0000   506.0000 </r>
       <r>     5.4782     0.0000   506.0000 </r>
       <r>     5.5330     0.0172   506.0009 </r>
       <r>     5.5878     2.1767   506.1203 </r>
       <r>     5.6427    31.4681   507.8453 </r>
       <r>     5.6975    59.6469   511.1150 </r>
       <r>     5.7523    15.6310   511.9718 </r>
       <r>     5.8071     0.5125   511.9999 </r>
       <r>     5.8619     0.0018   512.0000 </r>
       <r>     5.9167     0.0000   512.0000 </r>
       <r>     5.9716     0.0000   512.0000 </r>
       <r>     6.0264     0.0000   512.0000 </r>
       <r>     6.0812     0.0000   512.0000 </r>
       <r>     6.1360     0.0000   512.0000 </r>
       <r>     6.1908     0.0000   512.0000 </r>
       <r>     6.2456     0.0026   512.0001 </r>
       <r>     6.3005     0.8105   512.0446 </r>
       <r>     6.3553    27.6263   513.5590 </r>
       <r>     6.4101   116.9147   519.9679 </r>
       <r>     6.4649    68.2537   523.7094 </r>
       <r>     6.5197     5.2543   523.9974 </r>
       <r>     6.5745     0.0465   524.0000 </r>
       <r>     6.6294     0.0003   524.0000 </r>
       <r>     6.6842     0.1669   524.0092 </r>
       <r>     6.7390    11.3685   524.6324 </r>
       <r>     6.7938    91.8979   529.6700 </r>
       <r>     6.8486   100.3117   535.1688 </r>
       <r>     6.9035    14.8971   535.9854 </r>
       <r>     6.9583     0.2661   536.0000 </r>
       <r>     7.0131     0.1688   536.0092 </r>
       <r>     7.0679     9.9992   536.5574 </r>
       <r>     7.1227    98.1622   541.9384 </r>
       <r>     7.1775   384.7713   563.0305 </r>
       <r>     7.2324   445.1232   587.4310 </r>
       <r>     7.2872    81.4919   591.8982 </r>
       <r>     7.3420     1.8530   591.9998 </r>
       <r>     7.3968     0.0045   592.0000 </r>
       <r>     7.4516     0.0008   592.0000 </r>
       <r>     7.5064     0.4040   592.0222 </r>
       <r>     7.5613    21.4058   593.1956 </r>
       <r>     7.6161   136.7679   600.6929 </r>
       <r>     7.6709   119.1266   607.2231 </r>
       <r>     7.7257    13.9789   607.9894 </r>
       <r>     7.7805     0.1939   608.0000 </r>
       <r>     7.8353     0.0003   608.0000 </r>
       <r>     7.8902     0.0000   608.0000 </r>
       <r>     7.9450     0.0210   608.0012 </r>
       <r>     7.9998     4.0804   608.2248 </r>
       <r>     8.0546    88.5616   613.0795 </r>
       <r>     8.1094   246.4397   626.5887 </r>
       <r>     8.1643   111.5818   632.7053 </r>
       <r>     8.2191    64.9938   636.2681 </r>
       <r>     8.2739    29.6779   637.8950 </r>
       <r>     8.3287     1.9016   637.9992 </r>
       <r>     8.3835     0.0139   638.0000 </r>
       <r>     8.4383     0.0000   638.0000 </r>
       <r>     8.4932     0.0000   638.0000 </r>
       <r>     8.5480     0.0000   638.0000 </r>
       <r>     8.6028     0.0000   638.0000 </r>
       <r>     8.6576     0.0264   638.0014 </r>
       <r>     8.7124     2.7925   638.1545 </r>
       <r>     8.7672    34.6751   640.0553 </r>
       <r>     8.8221    57.9393   643.2314 </r>
       <r>     8.8769    13.6130   643.9776 </r>
       <r>     8.9317     0.4067   643.9999 </r>
       <r>     8.9865     0.0014   644.0000 </r>
       <r>     9.0413     0.0000   644.0000 </r>
       <r>     9.0961     0.0000   644.0000 </r>
       <r>     9.1510     0.0000   644.0000 </r>
       <r>     9.2058     0.0000   644.0000 </r>
       <r>     9.2606     0.0000   644.0000 </r>
       <r>     9.3154     0.0000   644.0000 </r>
       <r>     9.3702     0.0000   644.0000 </r>
       <r>     9.4251     0.0000   644.0000 </r>
       <r>     9.4799     0.0000   644.0000 </r>
       <r>     9.5347     0.0000   644.0000 </r>
      </set>
     </set>
    </array>
   </total>
  </dos>
 </calculation>
 <structure name="finalpos" >
  <crystal>
   <varray name="basis" >
    <v>       0.00000000      10.93716070      10.93716070 </v>
    <v>      10.93716070       0.00000000      10.93716070 </v>
    <v>      10.93716070      10.93716070       0.00000000 </v>
   </varray>
   <i name="volume">   2616.63878844 </i>
   <varray name="rec_basis" >
    <v>      -0.04571570       0.04571570       0.04571570 </v>
    <v>       0.04571570      -0.04571570       0.04571570 </v>
    <v>       0.04571570       0.04571570      -0.04571570 </v>
   </varray>
  </crystal>
  <varray name="positions" >
   <v>       0.06204284       0.06204284       0.06295716 </v>
   <v>       0.31250000       0.06250000       0.06250000 </v>
   <v>       0.56250000       0.06250000       0.06250000 </v>
   <v>       0.81250000       0.06250000       0.06250000 </v>
   <v>       0.06250000       0.31250000       0.06250000 </v>
   <v>       0.31250000       0.31250000       0.06250000 </v>
   <v>       0.56250000       0.31250000       0.06250000 </v>
   <v>       0.81250000       0.31250000       0.06250000 </v>
   <v>       0.06250000       0.56250000       0.06250000 </v>
   <v>       0.31250000       0.56250000       0.06250000 </v>
   <v>       0.56250000       0.56250000       0.06250000 </v>
   <v>       0.81250000       0.56250000       0.06250000 </v>
   <v>       0.06250000       0.81250000       0.06250000 </v>
   <v>       0.31250000       0.81250000       0.06250000 </v>
   <v>       0.56250000       0.81250000       0.06250000 </v>
   <v>       0.81250000       0.81250000       0.06250000 </v>
   <v>       0.06250000       0.06250000       0.31250000 </v>
   <v>       0.31250000       0.06250000       0.31250000 </v>
   <v>       0.56250000       0.06250000       0.31250000 </v>
   <v>       0.81250000       0.06250000       0.31250000 </v>
   <v>       0.06250000       0.31250000       0.31250000 </v>
   <v>       0.31250000       0.31250000       0.31250000 </v>
   <v>       0.56250000       0.31250000       0.31250000 </v>
   <v>       0.81250000       0.31250000       0.31250000 </v>
   <v>       0.06250000       0.56250000       0.31250000 </v>
   <v>       0.31250000       0.56250000       0.31250000 </v>
   <v>       0.56250000       0.56250000       0.31250000 </v>
   <v>       0.81250000       0.56250000       0.31250000 </v>
   <v>       0.06250000       0.81250000       0.31250000 </v>
   <v>       0.31250000       0.81250000       0.31250000 </v>
   <v>       0.56250000       0.81250000       0.31250000 </v>
   <v>       0.81250000       0.81250000       0.31250000 </v>
   <v>       0.06250000       0.06250000       0.56250000 </v>
   <v>       0.31250000       0.06250000       0.56250000 </v>
   <v>       0.56250000       0.06250000       0.56250000 </v>
   <v>       0.81250000       0.06250000       0.56250000 </v>
   <v>       0.06250000       0.31250000       0.56250000 </v>
   <v>       0.31250000       0.31250000       0.56250000 </v>
   <v>       0.56250000       0.31250000       0.56250000 </v>
   <v>       0.81250000       0.31250000       0.56250000 </v>
   <v>       0.06250000       0.56250000       0.56250000 </v>
   <v>       0.31250000       0.56250000       0.56250000 </v>
   <v>       0.56250000       0.56250000       0.56250000 </v>
   <v>       0.81250000       0.56250000       0.56250000 </v>
   <v>       0.06250000       0.81250000       0.56250000 </v>
   <v>       0.31250000       0.81250000       0.56250000 </v>
   <v>       0.56250000       0.81250000       0.56250000 </v>
   <v>       0.81250000       0.81250000       0.56250000 </v>
   <v>       0.06250000       0.06250000       0.81250000 </v>
   <v>       0.31250000       0.06250000       0.81250000 </v>
   <v>       0.56250000       0.06250000       0.81250000 </v>
   <v>       0.81250000       0.06250000       0.81250000 </v>
   <v>       0.06250000       0.31250000       0.81250000 </v>
   <v>       0.31250000       0.31250000       0.81250000 </v>
   <v>       0.56250000       0.31250000       0.81250000 </v>
   <v>       0.81250000       0.31250000       0.81250000 </v>
   <v>       0.06250000       0.56250000       0.81250000 </v>
   <v>       0.31250000       0.56250000       0.81250000 </v>
   <v>       0.56250000       0.56250000       0.81250000 </v>
   <v>       0.81250000       0.56250000       0.81250000 </v>
   <v>       0.06250000       0.81250000       0.81250000 </v>
   <v>       0.31250000       0.81250000       0.81250000 </v>
   <v>       0.56250000       0.81250000       0.81250000 </v>
   <v>       0.81250000       0.81250000       0.81250000 </v>
   <v>       0.99954284       0.00045716       0.99954284 </v>
   <v>       0.25000000       0.00000000       0.00000000 </v>
   <v>       0.50000000       0.00000000       0.00000000 </v>
   <v>       0.75000000       0.00000000       0.00000000 </v>
   <v>       0.00000000       0.25000000       0.00000000 </v>
   <v>       0.25000000       0.25000000       0.00000000 </v>
   <v>       0.50000000       0.25000000       0.00000000 </v>
   <v>       0.75000000       0.25000000       0.00000000 </v>
   <v>       0.00000000       0.50000000       0.00000000 </v>
   <v>       0.25000000       0.50000000       0.00000000 </v>
   <v>       0.50000000       0.50000000       0.00000000 </v>
   <v>       0.75000000       0.50000000       0.00000000 </v>
   <v>       0.00000000       0.75000000       0.00000000 </v>
   <v>       0.25000000       0.75000000       0.00000000 </v>
   <v>       0.50000000       0.75000000       0.00000000 </v>
   <v>       0.75000000       0.75000000       0.00000000 </v>
   <v>       0.00000000       0.00000000       0.25000000 </v>
   <v>       0.25000000       0.00000000       0.25000000 </v>
   <v>       0.50000000       0.00000000       0.25000000 </v>
   <v>       0.75000000       0.00000000       0.25000000 </v>
   <v>       0.00000000       0.25000000       0.25000000 </v>
   <v>       0.25000000       0.25000000       0.25000000 </v>
   <v>       0.50000000       0.25000000       0.25000000 </v>
   <v>       0.75000000       0.25000000       0.25000000 </v>
   <v>       0.00000000       0.50000000       0.25000000 </v>
   <v>       0.25000000       0.50000000       0.25000000 </v>
   <v>       0.50000000       0.50000000       0.25000000 </v>
   <v>       0.75000000       0.50000000       0.25000000 </v>
   <v>       0.00000000       0.75000000       0.25000000 </v>
   <v>       0.25000000       0.75000000       0.25000000 </v>
   <v>       0.50000000       0.75000000       0.25000000 </v>
   <v>       0.75000000       0.75000000       0.25000000 </v>
   <v>       0.00000000       0.00000000       0.50000000 </v>
   <v>       0.25000000       0.00000000       0.50000000 </v>
   <v>       0.50000000       0.00000000       0.50000000 </v>
   <v>       0.75000000       0.00000000       0.50000000 </v>
   <v>       0.00000000       0.25000000       0.50000000 </v>
   <v>       0.25000000       0.25000000       0.50000000 </v>
   <v>       0.50000000       0.25000000       0.50000000 </v>
   <v>       0.75000000       0.25000000       0.50000000 </v>
   <v>       0.00000000       0.50000000       0.50000000 </v>
   <v>       0.25000000       0.50000000       0.50000000 </v>
   <v>       0.50000000       0.50000000       0.50000000 </v>
   <v>       0.75000000       0.50000000       0.50000000 </v>
   <v>       0.00000000       0.75000000       0.50000000 </v>
   <v>       0.25000000       0.75000000       0.50000000 </v>
   <v>       0.50000000       0.75000000       0.50000000 </v>
   <v>       0.75000000       0.75000000       0.50000000 </v>
   <v>       0.00000000       0.00000000       0.75000000 </v>
   <v>       0.25000000       0.00000000       0.75000000 </v>
   <v>       0.50000000       0.00000000       0.75000000 </v>
   <v>       0.75000000       0.00000000       0.75000000 </v>
   <v>       0.00000000       0.25000000       0.75000000 </v>
   <v>       0.25000000       0.25000000       0.75000000 </v>
   <v>       0.50000000       0.25000000       0.75000000 </v>
   <v>       0.75000000       0.25000000       0.75000000 </v>
   <v>       0.00000000       0.50000000       0.75000000 </v>
   <v>       0.25000000       0.50000000       0.75000000 </v>
   <v>       0.50000000       0.50000000       0.75000000 </v>
   <v>       0.75000000       0.50000000       0.75000000 </v>
   <v>       0.00000000       0.75000000       0.75000000 </v>
   <v>       0.25000000       0.75000000       0.75000000 </v>
   <v>       0.50000000       0.75000000       0.75000000 </v>
   <v>       0.75000000       0.75000000       0.75000000 </v>
  </varray>
 </structure>
</modeling>
