 vasp.5.4.4.18Apr17-6-g9f103f2a35 (build Aug 16 2020 16:33:06) complex          
  
 executed on             LinuxIFC date 2026.08.15  14:43:05
 running on   40 total cores
 distrk:  each k-point on   40 cores,    1 groups
 distr:  one band on NCORES_PER_BAND=  20 cores,    2 groups


--------------------------------------------------------------------------------------------------------


 INCAR:
 POTCAR:   PAW_PBE Si 05Jan2001                   

 ----------------------------------------------------------------------------- 
|                                                                             |
|           W    W    AA    RRRRR   N    N  II  N    N   GGGG   !!!           |
|           W    W   A  A   R    R  NN   N  II  NN   N  G    G  !!!           |
|           W    W  A    A  R    R  N N  N  II  N N  N  G       !!!           |
|           W WW W  AAAAAA  RRRRR   N  N N  II  N  N N  G  GGG   !            |
|           WW  WW  A    A  R   R   N   NN  II  N   NN  G    G                |
|           W    W  A    A  R    R  N    N  II  N    N   GGGG   !!!           |
|                                                                             |
|      For optimal performance we recommend to set                            |
|        NCORE= 4 - approx SQRT( number of cores)                             |
|      NCORE specifies how many cores store one orbital (NPAR=cpu/NCORE).     |
|      This setting can  greatly improve the performance of VASP for DFT.     |
|      The default,   NCORE=1            might be grossly inefficient         |
|      on modern multi-core architectures or massively parallel machines.     |
|      Do your own testing !!!!                                               |
|      Unfortunately you need to use the default for GW and RPA calculations. |
|      (for HF NCORE is supported but not extensively tested yet)             |
|                                                                             |
 ----------------------------------------------------------------------------- 

 POTCAR:   PAW_PBE Si 05Jan2001                   
   VRHFIN =Si: s2p2                                                             
   LEXCH  = PE                                                                  
   EATOM  =   103.0669 eV,    7.5752 Ry                                         
                                                                                
   TITEL  = PAW_PBE Si 05Jan2001                                                
   LULTRA =        F    use ultrasoft PP ?                                      
   IUNSCR =        1    unscreen: 0-lin 1-nonlin 2-no                           
   RPACOR =    1.500    partial core radius                                     
   POMASS =   28.085; ZVAL   =    4.000    mass and valenz                      
   RCORE  =    1.900    outmost cutoff radius                                   
   RWIGS  =    2.480; RWIGS  =    1.312    wigner-seitz radius (au A)           
   ENMAX  =  245.345; ENMIN  =  184.009 eV                                      
   ICORE  =        2    local potential                                         
   LCOR   =        T    correct aug charges                                     
   LPAW   =        T    paw PP                                                  
   EAUG   =  322.069                                                            
   DEXC   =    -.007                                                            
   RMAX   =    2.944    core radius for proj-oper                               
   RAUG   =    1.300    factor for augmentation sphere                          
   RDEP   =    1.993    radius for radial grids                                 
   QCUT   =   -4.246; QGAM   =    8.493    optimization parameters              
                                                                                
   Description                                                                  
     l     E      TYP  RCUT    TYP  RCUT                                        
     0   .000     23  1.900                                                     
     0   .000     23  1.900                                                     
     1   .000     23  1.900                                                     
     1   .000     23  1.900                                                     
     2   .000      7  1.900                                                     
  local pseudopotential read in
  partial core-charges read in
  atomic valenz-charges read in
  non local Contribution for L=           0  read in
    real space projection operators read in
  non local Contribution for L=           0  read in
    real space projection operators read in
  non local Contribution for L=           1  read in
    real space projection operators read in
  non local Contribution for L=           1  read in
    real space projection operators read in
    PAW grid and wavefunctions read in
 
   number of l-projection  operators is LMAX  =           4
   number of lm-projection operators is LMMAX =           8
 

 ----------------------------------------------------------------------------- 
|                                                                             |
|  ADVICE TO THIS USER RUNNING 'VASP/VAMP'   (HEAR YOUR MASTER'S VOICE ...):  |
|                                                                             |
|      You have a (more or less) 'large supercell' and for larger cells       |
|      it might be more efficient to use real space projection operators      |
|      So try LREAL= Auto  in the INCAR   file.                               |
|      Mind: If you want to do a very accurate calculations keep the          |
|      reciprocal projection scheme          (i.e. LREAL=.FALSE.)             |
|                                                                             |
 ----------------------------------------------------------------------------- 

 PAW_PBE Si 05Jan2001                   :
 energy of atom  1       EATOM= -103.0669
 kinetic energy error for atom=    0.0006 (will be added to EATOM!!)
 
 
 POSCAR: Si                                      
  positions in direct lattice
  No initial velocities read in
 exchange correlation table for  LEXCH =        8
   RHO(1)=    0.500       N(1)  =     2000
   RHO(2)=  100.500       N(2)  =     4000
 


--------------------------------------------------------------------------------------------------------


 ion  position               nearest neighbor table
   1  0.063  0.062  0.063-   4 2.36  34 2.36  10 2.37   2 2.38
   2  0.000  1.000  1.000-  25 2.36  97 2.36   7 2.37   1 2.38
   3  0.312  0.062  0.062-   4 2.37   6 2.37  12 2.37  36 2.37
   4  0.250  0.000  0.000-   1 2.36   3 2.37  27 2.37  99 2.37
   5  0.562  0.062  0.062-   6 2.37   8 2.37  14 2.37  38 2.37
   6  0.500  0.000  0.000-   3 2.37   5 2.37  29 2.37 101 2.37
   7  0.812  0.062  0.062-   8 2.37  16 2.37  40 2.37   2 2.37
   8  0.750  0.000  0.000-   5 2.37   7 2.37  31 2.37 103 2.37
   9  0.062  0.312  0.062-  10 2.37  12 2.37  18 2.37  42 2.37
  10  0.000  0.250  0.000-   9 2.37  15 2.37 105 2.37   1 2.37
  11  0.312  0.312  0.062-  12 2.37  14 2.37  20 2.37  44 2.37
  12  0.250  0.250  0.000-   3 2.37   9 2.37  11 2.37 107 2.37
  13  0.562  0.312  0.062-  14 2.37  16 2.37  22 2.37  46 2.37
  14  0.500  0.250  0.000-   5 2.37  11 2.37  13 2.37 109 2.37
  15  0.812  0.312  0.062-  10 2.37  16 2.37  24 2.37  48 2.37
  16  0.750  0.250  0.000-   7 2.37  13 2.37  15 2.37 111 2.37
  17  0.062  0.562  0.062-  18 2.37  20 2.37  26 2.37  50 2.37
  18  0.000  0.500  0.000-   9 2.37  17 2.37  23 2.37 113 2.37
  19  0.312  0.562  0.062-  20 2.37  22 2.37  28 2.37  52 2.37
  20  0.250  0.500  0.000-  11 2.37  17 2.37  19 2.37 115 2.37
  21  0.562  0.562  0.062-  22 2.37  24 2.37  30 2.37  54 2.37
  22  0.500  0.500  0.000-  13 2.37  19 2.37  21 2.37 117 2.37
  23  0.812  0.562  0.062-  18 2.37  24 2.37  32 2.37  56 2.37
  24  0.750  0.500  0.000-  15 2.37  21 2.37  23 2.37 119 2.37
  25  0.062  0.812  0.062-   2 2.36  26 2.37  28 2.37  58 2.37
  26  0.000  0.750  0.000-  17 2.37  25 2.37  31 2.37 121 2.37
  27  0.312  0.812  0.062-   4 2.37  28 2.37  30 2.37  60 2.37
  28  0.250  0.750  0.000-  19 2.37  25 2.37  27 2.37 123 2.37
  29  0.562  0.812  0.062-   6 2.37  30 2.37  32 2.37  62 2.37
  30  0.500  0.750  0.000-  21 2.37  27 2.37  29 2.37 125 2.37
  31  0.812  0.812  0.062-   8 2.37  26 2.37  32 2.37  64 2.37
  32  0.750  0.750  0.000-  23 2.37  29 2.37  31 2.37 127 2.37
  33  0.062  0.062  0.312-  34 2.37  36 2.37  42 2.37  66 2.37
  34  0.000  0.000  0.250-   1 2.36  33 2.37  39 2.37  57 2.37
  35  0.312  0.062  0.312-  36 2.37  38 2.37  44 2.37  68 2.37
  36  0.250  0.000  0.250-   3 2.37  33 2.37  35 2.37  59 2.37
  37  0.562  0.062  0.312-  38 2.37  40 2.37  46 2.37  70 2.37
  38  0.500  0.000  0.250-   5 2.37  35 2.37  37 2.37  61 2.37
  39  0.812  0.062  0.312-  34 2.37  40 2.37  48 2.37  72 2.37
  40  0.750  0.000  0.250-   7 2.37  37 2.37  39 2.37  63 2.37
  41  0.062  0.312  0.312-  42 2.37  44 2.37  50 2.37  74 2.37
  42  0.000  0.250  0.250-   9 2.37  33 2.37  41 2.37  47 2.37
  43  0.312  0.312  0.312-  44 2.37  46 2.37  52 2.37  76 2.37
  44  0.250  0.250  0.250-  11 2.37  35 2.37  41 2.37  43 2.37
  45  0.562  0.312  0.312-  46 2.37  48 2.37  54 2.37  78 2.37
  46  0.500  0.250  0.250-  13 2.37  37 2.37  43 2.37  45 2.37
  47  0.812  0.312  0.312-  42 2.37  48 2.37  56 2.37  80 2.37
  48  0.750  0.250  0.250-  15 2.37  39 2.37  45 2.37  47 2.37
  49  0.062  0.562  0.312-  50 2.37  52 2.37  58 2.37  82 2.37
  50  0.000  0.500  0.250-  17 2.37  41 2.37  49 2.37  55 2.37
  51  0.312  0.562  0.312-  52 2.37  54 2.37  60 2.37  84 2.37
  52  0.250  0.500  0.250-  19 2.37  43 2.37  49 2.37  51 2.37
  53  0.562  0.562  0.312-  54 2.37  56 2.37  62 2.37  86 2.37
  54  0.500  0.500  0.250-  21 2.37  45 2.37  51 2.37  53 2.37
  55  0.812  0.562  0.312-  50 2.37  56 2.37  64 2.37  88 2.37
  56  0.750  0.500  0.250-  23 2.37  47 2.37  53 2.37  55 2.37
  57  0.062  0.812  0.312-  34 2.37  58 2.37  60 2.37  90 2.37
  58  0.000  0.750  0.250-  25 2.37  49 2.37  57 2.37  63 2.37
  59  0.312  0.812  0.312-  36 2.37  60 2.37  62 2.37  92 2.37
  60  0.250  0.750  0.250-  27 2.37  51 2.37  57 2.37  59 2.37
  61  0.562  0.812  0.312-  38 2.37  62 2.37  64 2.37  94 2.37
  62  0.500  0.750  0.250-  29 2.37  53 2.37  59 2.37  61 2.37
  63  0.812  0.812  0.312-  40 2.37  58 2.37  64 2.37  96 2.37
  64  0.750  0.750  0.250-  31 2.37  55 2.37  61 2.37  63 2.37
  65  0.062  0.062  0.562-  66 2.37  68 2.37  74 2.37  98 2.37
  66  0.000  0.000  0.500-  33 2.37  65 2.37  71 2.37  89 2.37
  67  0.312  0.062  0.562-  68 2.37  70 2.37  76 2.37 100 2.37
  68  0.250  0.000  0.500-  35 2.37  65 2.37  67 2.37  91 2.37
  69  0.562  0.062  0.562-  70 2.37  72 2.37  78 2.37 102 2.37
  70  0.500  0.000  0.500-  37 2.37  67 2.37  69 2.37  93 2.37
  71  0.812  0.062  0.562-  66 2.37  72 2.37  80 2.37 104 2.37
  72  0.750  0.000  0.500-  39 2.37  69 2.37  71 2.37  95 2.37
  73  0.062  0.312  0.562-  74 2.37  76 2.37  82 2.37 106 2.37
  74  0.000  0.250  0.500-  41 2.37  65 2.37  73 2.37  79 2.37
  75  0.312  0.312  0.562-  76 2.37  78 2.37  84 2.37 108 2.37
  76  0.250  0.250  0.500-  43 2.37  67 2.37  73 2.37  75 2.37
  77  0.562  0.312  0.562-  78 2.37  80 2.37  86 2.37 110 2.37
  78  0.500  0.250  0.500-  45 2.37  69 2.37  75 2.37  77 2.37
  79  0.812  0.312  0.562-  74 2.37  80 2.37  88 2.37 112 2.37
  80  0.750  0.250  0.500-  47 2.37  71 2.37  77 2.37  79 2.37
  81  0.062  0.562  0.562-  82 2.37  84 2.37  90 2.37 114 2.37
  82  0.000  0.500  0.500-  49 2.37  73 2.37  81 2.37  87 2.37
  83  0.312  0.562  0.562-  84 2.37  86 2.37  92 2.37 116 2.37
  84  0.250  0.500  0.500-  51 2.37  75 2.37  81 2.37  83 2.37
  85  0.562  0.562  0.562-  86 2.37  88 2.37  94 2.37 118 2.37
  86  0.500  0.500  0.500-  53 2.37  77 2.37  83 2.37  85 2.37
  87  0.812  0.562  0.562-  82 2.37  88 2.37  96 2.37 120 2.37
  88  0.750  0.500  0.500-  55 2.37  79 2.37  85 2.37  87 2.37
  89  0.062  0.812  0.562-  66 2.37  90 2.37  92 2.37 122 2.37
  90  0.000  0.750  0.500-  57 2.37  81 2.37  89 2.37  95 2.37
  91  0.312  0.812  0.562-  68 2.37  92 2.37  94 2.37 124 2.37
  92  0.250  0.750  0.500-  59 2.37  83 2.37  89 2.37  91 2.37
  93  0.562  0.812  0.562-  70 2.37  94 2.37  96 2.37 126 2.37
  94  0.500  0.750  0.500-  61 2.37  85 2.37  91 2.37  93 2.37
  95  0.812  0.812  0.562-  72 2.37  90 2.37  96 2.37 128 2.37
  96  0.750  0.750  0.500-  63 2.37  87 2.37  93 2.37  95 2.37
  97  0.062  0.062  0.812-   2 2.36  98 2.37 100 2.37 106 2.37
  98  0.000  0.000  0.750-  65 2.37  97 2.37 103 2.37 121 2.37
  99  0.312  0.062  0.812-   4 2.37 100 2.37 102 2.37 108 2.37
 100  0.250  0.000  0.750-  67 2.37  97 2.37  99 2.37 123 2.37
 101  0.562  0.062  0.812-   6 2.37 102 2.37 104 2.37 110 2.37
 102  0.500  0.000  0.750-  69 2.37  99 2.37 101 2.37 125 2.37
 103  0.812  0.062  0.812-   8 2.37  98 2.37 104 2.37 112 2.37
 104  0.750  0.000  0.750-  71 2.37 101 2.37 103 2.37 127 2.37
 105  0.062  0.312  0.812-  10 2.37 106 2.37 108 2.37 114 2.37
 106  0.000  0.250  0.750-  73 2.37  97 2.37 105 2.37 111 2.37
 107  0.312  0.312  0.812-  12 2.37 108 2.37 110 2.37 116 2.37
 108  0.250  0.250  0.750-  75 2.37  99 2.37 105 2.37 107 2.37
 109  0.562  0.312  0.812-  14 2.37 110 2.37 112 2.37 118 2.37
 110  0.500  0.250  0.750-  77 2.37 101 2.37 107 2.37 109 2.37
 111  0.812  0.312  0.812-  16 2.37 106 2.37 112 2.37 120 2.37
 112  0.750  0.250  0.750-  79 2.37 103 2.37 109 2.37 111 2.37
 113  0.062  0.562  0.812-  18 2.37 114 2.37 116 2.37 122 2.37
 114  0.000  0.500  0.750-  81 2.37 105 2.37 113 2.37 119 2.37
 115  0.312  0.562  0.812-  20 2.37 116 2.37 118 2.37 124 2.37
 116  0.250  0.500  0.750-  83 2.37 107 2.37 113 2.37 115 2.37
 117  0.562  0.562  0.812-  22 2.37 118 2.37 120 2.37 126 2.37
 118  0.500  0.500  0.750-  85 2.37 109 2.37 115 2.37 117 2.37
 119  0.812  0.562  0.812-  24 2.37 114 2.37 120 2.37 128 2.37
 120  0.750  0.500  0.750-  87 2.37 111 2.37 117 2.37 119 2.37
 121  0.062  0.812  0.812-  26 2.37  98 2.37 122 2.37 124 2.37
 122  0.000  0.750  0.750-  89 2.37 113 2.37 121 2.37 127 2.37
 123  0.312  0.812  0.812-  28 2.37 100 2.37 124 2.37 126 2.37
 124  0.250  0.750  0.750-  91 2.37 115 2.37 121 2.37 123 2.37
 125  0.562  0.812  0.812-  30 2.37 102 2.37 126 2.37 128 2.37
 126  0.500  0.750  0.750-  93 2.37 117 2.37 123 2.37 125 2.37
 127  0.812  0.812  0.812-  32 2.37 104 2.37 122 2.37 128 2.37
 128  0.750  0.750  0.750-  95 2.37 119 2.37 125 2.37 127 2.37
 

IMPORTANT INFORMATION: All symmetrisations will be switched off!
NOSYMM: (Re-)initialisation of all symmetry stuff for point group C_1.

 
 
 KPOINTS: K-Spacing Value to Generate K-Mesh: 0.03

Automatic generation of k-mesh.
Space group operators:
 irot       det(A)        alpha          n_x          n_y          n_z        tau_x        tau_y        tau_z
    1     1.000000     0.000000     1.000000     0.000000     0.000000     0.000000     0.000000     0.000000
 
 Subroutine IBZKPT returns following result:
 ===========================================
 
 Found      1 irreducible k-points:
 
 Following reciprocal coordinates:
            Coordinates               Weight
  0.000000  0.000000  0.000000      1.000000
 
 Following cartesian coordinates:
            Coordinates               Weight
  0.000000  0.000000  0.000000      1.000000
 


--------------------------------------------------------------------------------------------------------




 Dimension of arrays:
   k-points           NKPTS =      1   k-points in BZ     NKDIM =      1   number of bands    NBANDS=    322
   number of dos      NEDOS =    301   number of ions     NIONS =    128
   non local maximal  LDIM  =      4   non local SUM 2l+1 LMDIM =      8
   total plane-waves  NPLWV = ******
   max r-space proj   IRMAX =      1   max aug-charges    IRDMAX= 176819
   dimension x,y,z NGX =   120 NGY =  120 NGZ =  120
   dimension x,y,z NGXF=   240 NGYF=  240 NGZF=  240
   support grid    NGXF=   480 NGYF=  480 NGZF=  480
   ions per type =             128
   NGX,Y,Z   is equivalent  to a cutoff of  12.90, 12.90, 12.90 a.u.
   NGXF,Y,Z  is equivalent  to a cutoff of  25.80, 25.80, 25.80 a.u.

 SYSTEM =  unknown system                          
 POSCAR =  Si                                      

 Startparameter for this run:
   NWRITE =      2    write-flag & timer
   PREC   = accura    normal or accurate (medium, high low for compatibility)
   ISTART =      0    job   : 0-new  1-cont  2-samecut
   ICHARG =      2    charge: 1-file 2-atom 10-const
   ISPIN  =      1    spin polarized calculation?
   LNONCOLLINEAR =      F non collinear calculations
   LSORBIT =      F    spin-orbit coupling
   INIWAV =      1    electr: 0-lowe 1-rand  2-diag
   LASPH  =      F    aspherical Exc in radial PAW
   METAGGA=      F    non-selfconsistent MetaGGA calc.

 Electronic Relaxation 1
   ENCUT  =  500.0 eV  36.75 Ry    6.06 a.u.  28.20 28.20 28.20*2*pi/ulx,y,z
   ENINI  =  500.0     initial cutoff
   ENAUG  =  322.1 eV  augmentation charge cutoff
   NELM   =     60;   NELMIN=  2; NELMDL= -5     # of ELM steps 
   EDIFF  = 0.1E-07   stopping-criterion for ELM
   LREAL  =      F    real-space projection
   NLSPLINE    = F    spline interpolate recip. space projectors
   LCOMPAT=      F    compatible to vasp.4.4
   GGA_COMPAT  = T    GGA compatible to vasp.4.4-vasp.4.6
   LMAXPAW     = -100 max onsite density
   LMAXMIX     =    2 max onsite mixed and CHGCAR
   VOSKOWN=      0    Vosko Wilk Nusair interpolation
   ROPT   =    0.00000
 Ionic relaxation
   EDIFFG = 0.1E-06   stopping-criterion for IOM
   NSW    =      0    number of steps for IOM
   NBLOCK =      1;   KBLOCK =      1    inner block; outer block 
   IBRION =     -1    ionic relax: 0-MD 1-quasi-New 2-CG
   NFREE  =      0    steps in history (QN), initial steepest desc. (CG)
   ISIF   =      2    stress and relaxation
   IWAVPR =     10    prediction:  0-non 1-charg 2-wave 3-comb
   ISYM   =      0    0-nonsym 1-usesym 2-fastsym
   LCORR  =      T    Harris-Foulkes like correction to forces

   POTIM  = 0.5000    time-step for ionic-motion
   TEIN   =    0.0    initial temperature
   TEBEG  =    0.0;   TEEND  =   0.0 temperature during run
   SMASS  =  -3.00    Nose mass-parameter (am)
   estimated Nose-frequenzy (Omega)   =  0.10E-29 period in steps =****** mass=  -0.547E-26a.u.
   SCALEE = 1.0000    scale energy and forces
   NPACO  =    256;   APACO  = 16.0  distance and # of slots for P.C.
   PSTRESS=    0.0 pullay stress

  Mass of Ions in am
   POMASS =  28.09
  Ionic Valenz
   ZVAL   =   4.00
  Atomic Wigner-Seitz radii
   RWIGS  =  -1.00
  virtual crystal weights 
   VCA    =   1.00
   NELECT =     512.0000    total number of electrons
   NUPDOWN=      -1.0000    fix difference up-down

 DOS related values:
   EMIN   =  10.00;   EMAX   =-10.00  energy-range for DOS
   EFERMI =   0.00
   ISMEAR =     0;   SIGMA  =   0.05  broadening in eV -4-tet -1-fermi 0-gaus

 Electronic relaxation 2 (details)
   IALGO  =     38    algorithm
   LDIAG  =      T    sub-space diagonalisation (order eigenvalues)
   LSUBROT=      F    optimize rotation matrix (better conditioning)
   TURBO    =      0    0=normal 1=particle mesh
   IRESTART =      0    0=no restart 2=restart with 2 vectors
   NREBOOT  =      0    no. of reboots
   NMIN     =      0    reboot dimension
   EREF     =   0.00    reference energy to select bands
   IMIX   =      4    mixing-type and parameters
     AMIX     =   0.40;   BMIX     =  1.00
     AMIX_MAG =   1.60;   BMIX_MAG =  1.00
     AMIN     =   0.10
     WC   =   100.;   INIMIX=   1;  MIXPRE=   1;  MAXMIX= -45

 Intra band minimization:
   WEIMIN = 0.0000     energy-eigenvalue tresh-hold
   EBREAK =  0.78E-11  absolut break condition
   DEPER  =   0.30     relativ break condition  

   TIME   =   0.40     timestep for ELM

  volume/ion in A,a.u.               =      20.44       137.95
  Fermi-wavevector in a.u.,A,eV,Ry     =   0.950423  1.796039 12.290193  0.903304
  Thomas-Fermi vector in A             =   2.078798
 
 Write flags
   LWAVE        =      F    write WAVECAR
   LDOWNSAMPLE  =      F    k-point downsampling of WAVECAR
   LCHARG       =      F    write CHGCAR
   LVTOT        =      F    write LOCPOT, total local potential
   LVHAR        =      F    write LOCPOT, Hartree potential only
   LELF         =      F    write electronic localiz. function (ELF)
   LORBIT       =      0    0 simple, 1 ext, 2 COOP (PROOUT), +10 PAW based schemes


 Dipole corrections
   LMONO  =      F    monopole corrections only (constant potential shift)
   LDIPOL =      F    correct potential (dipole corrections)
   IDIPOL =      0    1-x, 2-y, 3-z, 4-all directions 
   EPSILON=  1.0000000 bulk dielectric constant

 Exchange correlation treatment:
   GGA     =    --    GGA type
   LEXCH   =     8    internal setting for exchange type
   VOSKOWN=      0    Vosko Wilk Nusair interpolation
   LHFCALC =     F    Hartree Fock is set to
   LHFONE  =     F    Hartree Fock one center treatment
   AEXX    =    0.0000 exact exchange contribution

 Linear response parameters
   LEPSILON=     F    determine dielectric tensor
   LRPA    =     F    only Hartree local field effects (RPA)
   LNABLA  =     F    use nabla operator in PAW spheres
   LVEL    =     F    velocity operator in full k-point grid
   LINTERFAST=   F  fast interpolation
   KINTER  =     0    interpolate to denser k-point grid
   CSHIFT  =0.1000    complex shift for real part using Kramers Kronig
   OMEGAMAX=  -1.0    maximum frequency
   DEG_THRESHOLD= 0.2000000E-02 threshold for treating states as degnerate
   RTIME   =   -0.100 relaxation time in fs
  (WPLASMAI=    0.000 imaginary part of plasma frequency in eV, 0.658/RTIME)
   DFIELD  = 0.0000000 0.0000000 0.0000000 field for delta impulse in time
 
 Orbital magnetization related:
   ORBITALMAG=     F  switch on orbital magnetization
   LCHIMAG   =     F  perturbation theory with respect to B field
   DQ        =  0.001000  dq finite difference perturbation B field
   LLRAUG    =     F  two centre corrections for induced B field



--------------------------------------------------------------------------------------------------------


 Static calculation
 charge density and potential will be updated during run
 non-spin polarized calculation
 Variant of blocked Davidson
 Davidson routine will perform the subspace rotation
 perform sub-space diagonalisation
    after iterative eigenvector-optimisation
 modified Broyden-mixing scheme, WC =      100.0
 initial mixing is a Kerker type mixing with AMIX =  0.4000 and BMIX =      1.0000
 Hartree-type preconditioning will be used
 using additional bands           66
 reciprocal scheme for non local part
 use partial core corrections
 calculate Harris-corrections to forces 
   (improved forces if not selfconsistent)
 use gradient corrections 
 use of overlap-Matrix (Vanderbilt PP)
 Gauss-broadening in eV      SIGMA  =   0.05


--------------------------------------------------------------------------------------------------------


  energy-cutoff  :      500.00
  volume of cell :     2616.64
      direct lattice vectors                 reciprocal lattice vectors
     0.000000000 10.937160696 10.937160696    -0.045715704  0.045715704  0.045715704
    10.937160696  0.000000000 10.937160696     0.045715704 -0.045715704  0.045715704
    10.937160696 10.937160696  0.000000000     0.045715704  0.045715704 -0.045715704

  length of vectors
    15.467480990 15.467480990 15.467480990     0.079181922  0.079181922  0.079181922


 
 k-points in units of 2pi/SCALE and weight: K-Spacing Value to Generate K-Mesh: 0.03
   0.00000000  0.00000000  0.00000000       1.000
 
 k-points in reciprocal lattice and weights: K-Spacing Value to Generate K-Mesh: 0.03
   0.00000000  0.00000000  0.00000000       1.000
 
 position of ions in fractional coordinates (direct lattice) 
   0.06295716  0.06204284  0.06295716
   0.00045716  0.99954284  0.99954284
   0.31250000  0.06250000  0.06250000
   0.25000000  0.00000000  0.00000000
   0.56250000  0.06250000  0.06250000
   0.50000000  0.00000000  0.00000000
   0.81250000  0.06250000  0.06250000
   0.75000000  0.00000000  0.00000000
   0.06250000  0.31250000  0.06250000
   0.00000000  0.25000000  0.00000000
   0.31250000  0.31250000  0.06250000
   0.25000000  0.25000000  0.00000000
   0.56250000  0.31250000  0.06250000
   0.50000000  0.25000000  0.00000000
   0.81250000  0.31250000  0.06250000
   0.75000000  0.25000000  0.00000000
   0.06250000  0.56250000  0.06250000
   0.00000000  0.50000000  0.00000000
   0.31250000  0.56250000  0.06250000
   0.25000000  0.50000000  0.00000000
   0.56250000  0.56250000  0.06250000
   0.50000000  0.50000000  0.00000000
   0.81250000  0.56250000  0.06250000
   0.75000000  0.50000000  0.00000000
   0.06250000  0.81250000  0.06250000
   0.00000000  0.75000000  0.00000000
   0.31250000  0.81250000  0.06250000
   0.25000000  0.75000000  0.00000000
   0.56250000  0.81250000  0.06250000
   0.50000000  0.75000000  0.00000000
   0.81250000  0.81250000  0.06250000
   0.75000000  0.75000000  0.00000000
   0.06250000  0.06250000  0.31250000
   0.00000000  0.00000000  0.25000000
   0.31250000  0.06250000  0.31250000
   0.25000000  0.00000000  0.25000000
   0.56250000  0.06250000  0.31250000
   0.50000000  0.00000000  0.25000000
   0.81250000  0.06250000  0.31250000
   0.75000000  0.00000000  0.25000000
   0.06250000  0.31250000  0.31250000
   0.00000000  0.25000000  0.25000000
   0.31250000  0.31250000  0.31250000
   0.25000000  0.25000000  0.25000000
   0.56250000  0.31250000  0.31250000
   0.50000000  0.25000000  0.25000000
   0.81250000  0.31250000  0.31250000
   0.75000000  0.25000000  0.25000000
   0.06250000  0.56250000  0.31250000
   0.00000000  0.50000000  0.25000000
   0.31250000  0.56250000  0.31250000
   0.25000000  0.50000000  0.25000000
   0.56250000  0.56250000  0.31250000
   0.50000000  0.50000000  0.25000000
   0.81250000  0.56250000  0.31250000
   0.75000000  0.50000000  0.25000000
   0.06250000  0.81250000  0.31250000
   0.00000000  0.75000000  0.25000000
   0.31250000  0.81250000  0.31250000
   0.25000000  0.75000000  0.25000000
   0.56250000  0.81250000  0.31250000
   0.50000000  0.75000000  0.25000000
   0.81250000  0.81250000  0.31250000
   0.75000000  0.75000000  0.25000000
   0.06250000  0.06250000  0.56250000
   0.00000000  0.00000000  0.50000000
   0.31250000  0.06250000  0.56250000
   0.25000000  0.00000000  0.50000000
   0.56250000  0.06250000  0.56250000
   0.50000000  0.00000000  0.50000000
   0.81250000  0.06250000  0.56250000
   0.75000000  0.00000000  0.50000000
   0.06250000  0.31250000  0.56250000
   0.00000000  0.25000000  0.50000000
   0.31250000  0.31250000  0.56250000
   0.25000000  0.25000000  0.50000000
   0.56250000  0.31250000  0.56250000
   0.50000000  0.25000000  0.50000000
   0.81250000  0.31250000  0.56250000
   0.75000000  0.25000000  0.50000000
   0.06250000  0.56250000  0.56250000
   0.00000000  0.50000000  0.50000000
   0.31250000  0.56250000  0.56250000
   0.25000000  0.50000000  0.50000000
   0.56250000  0.56250000  0.56250000
   0.50000000  0.50000000  0.50000000
   0.81250000  0.56250000  0.56250000
   0.75000000  0.50000000  0.50000000
   0.06250000  0.81250000  0.56250000
   0.00000000  0.75000000  0.50000000
   0.31250000  0.81250000  0.56250000
   0.25000000  0.75000000  0.50000000
   0.56250000  0.81250000  0.56250000
   0.50000000  0.75000000  0.50000000
   0.81250000  0.81250000  0.56250000
   0.75000000  0.75000000  0.50000000
   0.06250000  0.06250000  0.81250000
   0.00000000  0.00000000  0.75000000
   0.31250000  0.06250000  0.81250000
   0.25000000  0.00000000  0.75000000
   0.56250000  0.06250000  0.81250000
   0.50000000  0.00000000  0.75000000
   0.81250000  0.06250000  0.81250000
   0.75000000  0.00000000  0.75000000
   0.06250000  0.31250000  0.81250000
   0.00000000  0.25000000  0.75000000
   0.31250000  0.31250000  0.81250000
   0.25000000  0.25000000  0.75000000
   0.56250000  0.31250000  0.81250000
   0.50000000  0.25000000  0.75000000
   0.81250000  0.31250000  0.81250000
   0.75000000  0.25000000  0.75000000
   0.06250000  0.56250000  0.81250000
   0.00000000  0.50000000  0.75000000
   0.31250000  0.56250000  0.81250000
   0.25000000  0.50000000  0.75000000
   0.56250000  0.56250000  0.81250000
   0.50000000  0.50000000  0.75000000
   0.81250000  0.56250000  0.81250000
   0.75000000  0.50000000  0.75000000
   0.06250000  0.81250000  0.81250000
   0.00000000  0.75000000  0.75000000
   0.31250000  0.81250000  0.81250000
   0.25000000  0.75000000  0.75000000
   0.56250000  0.81250000  0.81250000
   0.50000000  0.75000000  0.75000000
   0.81250000  0.81250000  0.81250000
   0.75000000  0.75000000  0.75000000
 
 position of ions in cartesian coordinates  (Angst):
   1.36714509  1.37714509  1.36714509
  21.86432139 10.93716070 10.93716070
   1.36714509  4.10143526  4.10143526
   0.00000000  2.73429017  2.73429017
   1.36714509  6.83572544  6.83572544
   0.00000000  5.46858035  5.46858035
   1.36714509  9.57001561  9.57001561
   0.00000000  8.20287052  8.20287052
   4.10143526  1.36714509  4.10143526
   2.73429017  0.00000000  2.73429017
   4.10143526  4.10143526  6.83572544
   2.73429017  2.73429017  5.46858035
   4.10143526  6.83572544  9.57001561
   2.73429017  5.46858035  8.20287052
   4.10143526  9.57001561 12.30430578
   2.73429017  8.20287052 10.93716070
   6.83572544  1.36714509  6.83572544
   5.46858035  0.00000000  5.46858035
   6.83572544  4.10143526  9.57001561
   5.46858035  2.73429017  8.20287052
   6.83572544  6.83572544 12.30430578
   5.46858035  5.46858035 10.93716070
   6.83572544  9.57001561 15.03859596
   5.46858035  8.20287052 13.67145087
   9.57001561  1.36714509  9.57001561
   8.20287052  0.00000000  8.20287052
   9.57001561  4.10143526 12.30430578
   8.20287052  2.73429017 10.93716070
   9.57001561  6.83572544 15.03859596
   8.20287052  5.46858035 13.67145087
   9.57001561  9.57001561 17.77288613
   8.20287052  8.20287052 16.40574104
   4.10143526  4.10143526  1.36714509
   2.73429017  2.73429017  0.00000000
   4.10143526  6.83572544  4.10143526
   2.73429017  5.46858035  2.73429017
   4.10143526  9.57001561  6.83572544
   2.73429017  8.20287052  5.46858035
   4.10143526 12.30430578  9.57001561
   2.73429017 10.93716070  8.20287052
   6.83572544  4.10143526  4.10143526
   5.46858035  2.73429017  2.73429017
   6.83572544  6.83572544  6.83572544
   5.46858035  5.46858035  5.46858035
   6.83572544  9.57001561  9.57001561
   5.46858035  8.20287052  8.20287052
   6.83572544 12.30430578 12.30430578
   5.46858035 10.93716070 10.93716070
   9.57001561  4.10143526  6.83572544
   8.20287052  2.73429017  5.46858035
   9.57001561  6.83572544  9.57001561
   8.20287052  5.46858035  8.20287052
   9.57001561  9.57001561 12.30430578
   8.20287052  8.20287052 10.93716070
   9.57001561 12.30430578 15.03859596
   8.20287052 10.93716070 13.67145087
  12.30430578  4.10143526  9.57001561
  10.93716070  2.73429017  8.20287052
  12.30430578  6.83572544 12.30430578
  10.93716070  5.46858035 10.93716070
  12.30430578  9.57001561 15.03859596
  10.93716070  8.20287052 13.67145087
  12.30430578 12.30430578 17.77288613
  10.93716070 10.93716070 16.40574104
   6.83572544  6.83572544  1.36714509
   5.46858035  5.46858035  0.00000000
   6.83572544  9.57001561  4.10143526
   5.46858035  8.20287052  2.73429017
   6.83572544 12.30430578  6.83572544
   5.46858035 10.93716070  5.46858035
   6.83572544 15.03859596  9.57001561
   5.46858035 13.67145087  8.20287052
   9.57001561  6.83572544  4.10143526
   8.20287052  5.46858035  2.73429017
   9.57001561  9.57001561  6.83572544
   8.20287052  8.20287052  5.46858035
   9.57001561 12.30430578  9.57001561
   8.20287052 10.93716070  8.20287052
   9.57001561 15.03859596 12.30430578
   8.20287052 13.67145087 10.93716070
  12.30430578  6.83572544  6.83572544
  10.93716070  5.46858035  5.46858035
  12.30430578  9.57001561  9.57001561
  10.93716070  8.20287052  8.20287052
  12.30430578 12.30430578 12.30430578
  10.93716070 10.93716070 10.93716070
  12.30430578 15.03859596 15.03859596
  10.93716070 13.67145087 13.67145087
  15.03859596  6.83572544  9.57001561
  13.67145087  5.46858035  8.20287052
  15.03859596  9.57001561 12.30430578
  13.67145087  8.20287052 10.93716070
  15.03859596 12.30430578 15.03859596
  13.67145087 10.93716070 13.67145087
  15.03859596 15.03859596 17.77288613
  13.67145087 13.67145087 16.40574104
   9.57001561  9.57001561  1.36714509
   8.20287052  8.20287052  0.00000000
   9.57001561 12.30430578  4.10143526
   8.20287052 10.93716070  2.73429017
   9.57001561 15.03859596  6.83572544
   8.20287052 13.67145087  5.46858035
   9.57001561 17.77288613  9.57001561
   8.20287052 16.40574104  8.20287052
  12.30430578  9.57001561  4.10143526
  10.93716070  8.20287052  2.73429017
  12.30430578 12.30430578  6.83572544
  10.93716070 10.93716070  5.46858035
  12.30430578 15.03859596  9.57001561
  10.93716070 13.67145087  8.20287052
  12.30430578 17.77288613 12.30430578
  10.93716070 16.40574104 10.93716070
  15.03859596  9.57001561  6.83572544
  13.67145087  8.20287052  5.46858035
  15.03859596 12.30430578  9.57001561
  13.67145087 10.93716070  8.20287052
  15.03859596 15.03859596 12.30430578
  13.67145087 13.67145087 10.93716070
  15.03859596 17.77288613 15.03859596
  13.67145087 16.40574104 13.67145087
  17.77288613  9.57001561  9.57001561
  16.40574104  8.20287052  8.20287052
  17.77288613 12.30430578 12.30430578
  16.40574104 10.93716070 10.93716070
  17.77288613 15.03859596 15.03859596
  16.40574104 13.67145087 13.67145087
  17.77288613 17.77288613 17.77288613
  16.40574104 16.40574104 16.40574104
 


--------------------------------------------------------------------------------------------------------


 k-point  1 :   0.0000 0.0000 0.0000  plane waves:   66299

 maximum and minimum number of plane-waves per node :      3320     3310

 maximum number of plane-waves:     66299
 maximum index in each direction: 
   IXMAX=   28   IYMAX=   28   IZMAX=   28
   IXMIN=  -28   IYMIN=  -28   IZMIN=  -28


 parallel 3D FFT for wavefunctions:
    minimum data exchange during FFTs selected (reduces bandwidth)
 parallel 3D FFT for charge:
    minimum data exchange during FFTs selected (reduces bandwidth)


 total amount of memory used by VASP MPI-rank0   118934. kBytes
=======================================================================

   base      :      30000. kBytes
   nonl-proj :       7011. kBytes
   fftplans  :      53058. kBytes
   grid      :      20148. kBytes
   one-center:         21. kBytes
   wavefun   :       8696. kBytes
 
     INWAV:  cpu time    0.0000: real time    0.0000
 Broyden mixing: mesh for mixing (old mesh)
   NGX = 57   NGY = 57   NGZ = 57
  (NGX  =240   NGY  =240   NGZ  =240)
  gives a total of 185193 points

 initial charge density was supplied:
 charge density of overlapping atoms calculated
 number of electron     512.0000000 magnetization 
 keeping initial charge density in first step


--------------------------------------------------------------------------------------------------------


 Maximum index for augmentation-charges         4417 (set IRDMAX)


--------------------------------------------------------------------------------------------------------


 First call to EWALD:  gamma=   0.129
 Maximum number of real-space cells 3x 3x 3
 Maximum number of reciprocal cells 3x 3x 3

    FEWALD:  cpu time    0.0049: real time    0.0050


--------------------------------------- Iteration      1(   1)  ---------------------------------------


    POTLOK:  cpu time    0.2262: real time    0.2335
    SETDIJ:  cpu time    0.2836: real time    0.2844
     EDDAV:  cpu time    4.8174: real time    4.8294
       DOS:  cpu time    0.0005: real time    0.0005
    --------------------------------------------
      LOOP:  cpu time    5.3278: real time    5.3478

 eigenvalue-minimisations  :   644
 total energy-change (2. order) : 0.1374899E+04  (-0.1908717E+05)
 number of electron     512.0000000 magnetization 
 augmentation part      512.0000000 magnetization 

 Free energy of the ion-electron system (eV)
  ---------------------------------------------------
  alpha Z        PSCENC =       210.78028765
  Ewald energy   TEWEN  =    -14524.86349259
  -Hartree energ DENC   =      -724.62138770
  -exchange      EXHF   =         0.00000000
  -V(xc)+E(xc)   XCENC  =     -1195.83144779
  PAW double counting   =      4221.13331941    -1969.18571412
  entropy T*S    EENTRO =        -0.01588000
  eigenvalues    EBANDS =      2165.02284366
  atomic energy  EATOM  =     13192.48085998
  Solvation  Ediel_sol  =         0.00000000
  ---------------------------------------------------
  free energy    TOTEN  =      1374.89938851 eV

  energy without entropy =     1374.91526851  energy(sigma->0) =     1374.90732851


--------------------------------------------------------------------------------------------------------




--------------------------------------- Iteration      1(   2)  ---------------------------------------


     EDDAV:  cpu time    5.4487: real time    5.4624
       DOS:  cpu time    0.0005: real time    0.0005
    --------------------------------------------
      LOOP:  cpu time    5.4492: real time    5.4629

 eigenvalue-minimisations  :   758
 total energy-change (2. order) :-0.1911922E+04  (-0.1811846E+04)
 number of electron     512.0000000 magnetization 
 augmentation part      512.0000000 magnetization 

 Free energy of the ion-electron system (eV)
  ---------------------------------------------------
  alpha Z        PSCENC =       210.78028765
  Ewald energy   TEWEN  =    -14524.86349259
  -Hartree energ DENC   =      -724.62138770
  -exchange      EXHF   =         0.00000000
  -V(xc)+E(xc)   XCENC  =     -1195.83144779
  PAW double counting   =      4221.13331941    -1969.18571412
  entropy T*S    EENTRO =        -0.00000188
  eigenvalues    EBANDS =       253.08510968
  atomic energy  EATOM  =     13192.48085998
  Solvation  Ediel_sol  =         0.00000000
  ---------------------------------------------------
  free energy    TOTEN  =      -537.02246736 eV

  energy without entropy =     -537.02246548  energy(sigma->0) =     -537.02246642


--------------------------------------------------------------------------------------------------------




--------------------------------------- Iteration      1(   3)  ---------------------------------------


     EDDAV:  cpu time    5.4926: real time    5.5064
       DOS:  cpu time    0.0003: real time    0.0003
    --------------------------------------------
      LOOP:  cpu time    5.4929: real time    5.5067

 eigenvalue-minimisations  :   768
 total energy-change (2. order) :-0.1530016E+03  (-0.1483219E+03)
 number of electron     512.0000000 magnetization 
 augmentation part      512.0000000 magnetization 

 Free energy of the ion-electron system (eV)
  ---------------------------------------------------
  alpha Z        PSCENC =       210.78028765
  Ewald energy   TEWEN  =    -14524.86349259
  -Hartree energ DENC   =      -724.62138770
  -exchange      EXHF   =         0.00000000
  -V(xc)+E(xc)   XCENC  =     -1195.83144779
  PAW double counting   =      4221.13331941    -1969.18571412
  entropy T*S    EENTRO =        -0.00000000
  eigenvalues    EBANDS =       100.08345895
  atomic energy  EATOM  =     13192.48085998
  Solvation  Ediel_sol  =         0.00000000
  ---------------------------------------------------
  free energy    TOTEN  =      -690.02411621 eV

  energy without entropy =     -690.02411621  energy(sigma->0) =     -690.02411621


--------------------------------------------------------------------------------------------------------




--------------------------------------- Iteration      1(   4)  ---------------------------------------


     EDDAV:  cpu time    5.4694: real time    5.4823
       DOS:  cpu time    0.0003: real time    0.0003
    --------------------------------------------
      LOOP:  cpu time    5.4697: real time    5.4827

 eigenvalue-minimisations  :   752
 total energy-change (2. order) :-0.4508984E+01  (-0.4453087E+01)
 number of electron     512.0000000 magnetization 
 augmentation part      512.0000000 magnetization 

 Free energy of the ion-electron system (eV)
  ---------------------------------------------------
  alpha Z        PSCENC =       210.78028765
  Ewald energy   TEWEN  =    -14524.86349259
  -Hartree energ DENC   =      -724.62138770
  -exchange      EXHF   =         0.00000000
  -V(xc)+E(xc)   XCENC  =     -1195.83144779
  PAW double counting   =      4221.13331941    -1969.18571412
  entropy T*S    EENTRO =        -0.00000000
  eigenvalues    EBANDS =        95.57447491
  atomic energy  EATOM  =     13192.48085998
  Solvation  Ediel_sol  =         0.00000000
  ---------------------------------------------------
  free energy    TOTEN  =      -694.53310025 eV

  energy without entropy =     -694.53310025  energy(sigma->0) =     -694.53310025


--------------------------------------------------------------------------------------------------------




--------------------------------------- Iteration      1(   5)  ---------------------------------------


     EDDAV:  cpu time    5.3889: real time    5.4033
       DOS:  cpu time    0.0004: real time    0.0005
    CHARGE:  cpu time    0.5032: real time    0.5044
    MIXING:  cpu time    0.0107: real time    0.0110
    --------------------------------------------
      LOOP:  cpu time    5.9034: real time    5.9192

 eigenvalue-minimisations  :   744
 total energy-change (2. order) :-0.1654178E+00  (-0.1646599E+00)
 number of electron     511.9999999 magnetization 
 augmentation part      -29.7895613 magnetization 

 Broyden mixing:
  rms(total) = 0.24757E+01    rms(broyden)= 0.24757E+01
  rms(prec ) = 0.29957E+01
  weight for this iteration     100.00

 Free energy of the ion-electron system (eV)
  ---------------------------------------------------
  alpha Z        PSCENC =       210.78028765
  Ewald energy   TEWEN  =    -14524.86349259
  -Hartree energ DENC   =      -724.62138770
  -exchange      EXHF   =         0.00000000
  -V(xc)+E(xc)   XCENC  =     -1195.83144779
  PAW double counting   =      4221.13331941    -1969.18571412
  entropy T*S    EENTRO =        -0.00000000
  eigenvalues    EBANDS =        95.40905713
  atomic energy  EATOM  =     13192.48085998
  Solvation  Ediel_sol  =         0.00000000
  ---------------------------------------------------
  free energy    TOTEN  =      -694.69851802 eV

  energy without entropy =     -694.69851802  energy(sigma->0) =     -694.69851802


--------------------------------------------------------------------------------------------------------




--------------------------------------- Iteration      1(   6)  ---------------------------------------


    POTLOK:  cpu time    0.2226: real time    0.2496
    SETDIJ:  cpu time    0.2740: real time    0.2746
     EDDAV:  cpu time    5.0533: real time    5.0652
       DOS:  cpu time    0.0004: real time    0.0004
    CHARGE:  cpu time    0.4922: real time    0.4934
    MIXING:  cpu time    0.0109: real time    0.0109
    --------------------------------------------
      LOOP:  cpu time    6.0534: real time    6.0941

 eigenvalue-minimisations  :   688
 total energy-change (2. order) : 0.8398788E+01  (-0.4784060E+00)
 number of electron     511.9999999 magnetization 
 augmentation part      -29.4083901 magnetization 

 Broyden mixing:
  rms(total) = 0.14788E+01    rms(broyden)= 0.14788E+01
  rms(prec ) = 0.17864E+01
  weight for this iteration     100.00

 eigenvalues of (default mixing * dielectric matrix)
  average eigenvalue GAMMA=   2.4618
  2.4618

 Free energy of the ion-electron system (eV)
  ---------------------------------------------------
  alpha Z        PSCENC =       210.78028765
  Ewald energy   TEWEN  =    -14524.86349259
  -Hartree energ DENC   =      -824.84973052
  -exchange      EXHF   =         0.00000000
  -V(xc)+E(xc)   XCENC  =     -1180.31913253
  PAW double counting   =      4464.76408505    -2219.65097647
  entropy T*S    EENTRO =        -0.00000000
  eigenvalues    EBANDS =       195.35836923
  atomic energy  EATOM  =     13192.48085998
  Solvation  Ediel_sol  =         0.00000000
  ---------------------------------------------------
  free energy    TOTEN  =      -686.29973019 eV

  energy without entropy =     -686.29973019  energy(sigma->0) =     -686.29973019


--------------------------------------------------------------------------------------------------------




--------------------------------------- Iteration      1(   7)  ---------------------------------------


    POTLOK:  cpu time    0.2216: real time    0.2223
    SETDIJ:  cpu time    0.2744: real time    0.2750
     EDDAV:  cpu time    4.9284: real time    4.9400
       DOS:  cpu time    0.0004: real time    0.0004
    CHARGE:  cpu time    0.4915: real time    0.4927
    MIXING:  cpu time    0.0110: real time    0.0110
    --------------------------------------------
      LOOP:  cpu time    5.9274: real time    5.9414

 eigenvalue-minimisations  :   664
 total energy-change (2. order) : 0.3872924E+01  (-0.9699039E+00)
 number of electron     511.9999999 magnetization 
 augmentation part      -28.9141089 magnetization 

 Broyden mixing:
  rms(total) = 0.13039E+00    rms(broyden)= 0.13039E+00
  rms(prec ) = 0.15182E+00
  weight for this iteration     100.00

 eigenvalues of (default mixing * dielectric matrix)
  average eigenvalue GAMMA=   2.4932
  2.4932  2.4932

 Free energy of the ion-electron system (eV)
  ---------------------------------------------------
  alpha Z        PSCENC =       210.78028765
  Ewald energy   TEWEN  =    -14524.86349259
  -Hartree energ DENC   =      -991.88478888
  -exchange      EXHF   =         0.00000000
  -V(xc)+E(xc)   XCENC  =     -1153.93879457
  PAW double counting   =      4789.67180671    -2553.37042224
  entropy T*S    EENTRO =        -0.00000000
  eigenvalues    EBANDS =       348.69773822
  atomic energy  EATOM  =     13192.48085998
  Solvation  Ediel_sol  =         0.00000000
  ---------------------------------------------------
  free energy    TOTEN  =      -682.42680572 eV

  energy without entropy =     -682.42680572  energy(sigma->0) =     -682.42680572


--------------------------------------------------------------------------------------------------------




--------------------------------------- Iteration      1(   8)  ---------------------------------------


    POTLOK:  cpu time    0.2216: real time    0.2222
    SETDIJ:  cpu time    0.2738: real time    0.2744
     EDDAV:  cpu time    5.0461: real time    5.0579
       DOS:  cpu time    0.0004: real time    0.0004
    CHARGE:  cpu time    0.5100: real time    0.5112
    MIXING:  cpu time    0.0117: real time    0.0117
    --------------------------------------------
      LOOP:  cpu time    6.0635: real time    6.0778

 eigenvalue-minimisations  :   688
 total energy-change (2. order) :-0.1320645E+00  (-0.4947118E-01)
 number of electron     511.9999999 magnetization 
 augmentation part      -28.9853338 magnetization 

 Broyden mixing:
  rms(total) = 0.28113E-01    rms(broyden)= 0.28113E-01
  rms(prec ) = 0.37983E-01
  weight for this iteration     100.00

 eigenvalues of (default mixing * dielectric matrix)
  average eigenvalue GAMMA=   2.1009
  1.4524  2.7603  2.0901

 Free energy of the ion-electron system (eV)
  ---------------------------------------------------
  alpha Z        PSCENC =       210.78028765
  Ewald energy   TEWEN  =    -14524.86349259
  -Hartree energ DENC   =      -986.33259246
  -exchange      EXHF   =         0.00000000
  -V(xc)+E(xc)   XCENC  =     -1153.99538666
  PAW double counting   =      4718.74410411    -2480.22533230
  entropy T*S    EENTRO =        -0.00000000
  eigenvalues    EBANDS =       340.85268207
  atomic energy  EATOM  =     13192.48085998
  Solvation  Ediel_sol  =         0.00000000
  ---------------------------------------------------
  free energy    TOTEN  =      -682.55887021 eV

  energy without entropy =     -682.55887021  energy(sigma->0) =     -682.55887021


--------------------------------------------------------------------------------------------------------




--------------------------------------- Iteration      1(   9)  ---------------------------------------


    POTLOK:  cpu time    0.2247: real time    0.2276
    SETDIJ:  cpu time    0.2727: real time    0.2733
     EDDAV:  cpu time    5.4891: real time    5.5033
       DOS:  cpu time    0.0004: real time    0.0004
    CHARGE:  cpu time    0.4949: real time    0.4961
    MIXING:  cpu time    0.0115: real time    0.0115
    --------------------------------------------
      LOOP:  cpu time    6.4932: real time    6.5122

 eigenvalue-minimisations  :   768
 total energy-change (2. order) :-0.6430462E-02  (-0.2455887E-02)
 number of electron     511.9999999 magnetization 
 augmentation part      -28.9800522 magnetization 

 Broyden mixing:
  rms(total) = 0.15925E-01    rms(broyden)= 0.15925E-01
  rms(prec ) = 0.18149E-01
  weight for this iteration     100.00

 eigenvalues of (default mixing * dielectric matrix)
  average eigenvalue GAMMA=   2.2874
  1.0207  3.3882  2.7011  2.0394

 Free energy of the ion-electron system (eV)
  ---------------------------------------------------
  alpha Z        PSCENC =       210.78028765
  Ewald energy   TEWEN  =    -14524.86349259
  -Hartree energ DENC   =      -991.21555306
  -exchange      EXHF   =         0.00000000
  -V(xc)+E(xc)   XCENC  =     -1153.27689872
  PAW double counting   =      4725.24610857    -2486.96519216
  entropy T*S    EENTRO =        -0.00000000
  eigenvalues    EBANDS =       345.24857965
  atomic energy  EATOM  =     13192.48085998
  Solvation  Ediel_sol  =         0.00000000
  ---------------------------------------------------
  free energy    TOTEN  =      -682.56530067 eV

  energy without entropy =     -682.56530067  energy(sigma->0) =     -682.56530067


--------------------------------------------------------------------------------------------------------




--------------------------------------- Iteration      1(  10)  ---------------------------------------


    POTLOK:  cpu time    0.2224: real time    0.2247
    SETDIJ:  cpu time    0.2730: real time    0.2738
     EDDAV:  cpu time    4.9999: real time    5.0135
       DOS:  cpu time    0.0004: real time    0.0004
    CHARGE:  cpu time    0.4943: real time    0.4956
    MIXING:  cpu time    0.0117: real time    0.0118
    --------------------------------------------
      LOOP:  cpu time    6.0017: real time    6.0197

 eigenvalue-minimisations  :   680
 total energy-change (2. order) :-0.2685677E-02  (-0.5900557E-03)
 number of electron     511.9999999 magnetization 
 augmentation part      -28.9811189 magnetization 

 Broyden mixing:
  rms(total) = 0.47849E-02    rms(broyden)= 0.47849E-02
  rms(prec ) = 0.57360E-02
  weight for this iteration     100.00

 eigenvalues of (default mixing * dielectric matrix)
  average eigenvalue GAMMA=   1.9841
  3.2357  2.6094  2.1617  1.0597  0.8538

 Free energy of the ion-electron system (eV)
  ---------------------------------------------------
  alpha Z        PSCENC =       210.78028765
  Ewald energy   TEWEN  =    -14524.86349259
  -Hartree energ DENC   =      -991.22021907
  -exchange      EXHF   =         0.00000000
  -V(xc)+E(xc)   XCENC  =     -1153.35169705
  PAW double counting   =      4721.46756193    -2483.16813771
  entropy T*S    EENTRO =        -0.00000000
  eigenvalues    EBANDS =       345.30685050
  atomic energy  EATOM  =     13192.48085998
  Solvation  Ediel_sol  =         0.00000000
  ---------------------------------------------------
  free energy    TOTEN  =      -682.56798635 eV

  energy without entropy =     -682.56798635  energy(sigma->0) =     -682.56798635


--------------------------------------------------------------------------------------------------------




--------------------------------------- Iteration      1(  11)  ---------------------------------------


    POTLOK:  cpu time    0.2229: real time    0.2253
    SETDIJ:  cpu time    0.2728: real time    0.2736
     EDDAV:  cpu time    5.3908: real time    5.4055
       DOS:  cpu time    0.0004: real time    0.0004
    CHARGE:  cpu time    0.4936: real time    0.4949
    MIXING:  cpu time    0.0115: real time    0.0115
    --------------------------------------------
      LOOP:  cpu time    6.3920: real time    6.4112

 eigenvalue-minimisations  :   752
 total energy-change (2. order) :-0.1359996E-04  (-0.2046710E-04)
 number of electron     511.9999999 magnetization 
 augmentation part      -28.9796016 magnetization 

 Broyden mixing:
  rms(total) = 0.48968E-03    rms(broyden)= 0.48958E-03
  rms(prec ) = 0.56199E-03
  weight for this iteration     100.00

 eigenvalues of (default mixing * dielectric matrix)
  average eigenvalue GAMMA=   2.0250
  3.3642  2.6877  2.1725  1.9515  0.9870  0.9870

 Free energy of the ion-electron system (eV)
  ---------------------------------------------------
  alpha Z        PSCENC =       210.78028765
  Ewald energy   TEWEN  =    -14524.86349259
  -Hartree energ DENC   =      -991.70011184
  -exchange      EXHF   =         0.00000000
  -V(xc)+E(xc)   XCENC  =     -1153.28717391
  PAW double counting   =      4723.34067169    -2485.08677095
  entropy T*S    EENTRO =        -0.00000000
  eigenvalues    EBANDS =       345.76773001
  atomic energy  EATOM  =     13192.48085998
  Solvation  Ediel_sol  =         0.00000000
  ---------------------------------------------------
  free energy    TOTEN  =      -682.56799995 eV

  energy without entropy =     -682.56799995  energy(sigma->0) =     -682.56799995


--------------------------------------------------------------------------------------------------------




--------------------------------------- Iteration      1(  12)  ---------------------------------------


    POTLOK:  cpu time    0.2222: real time    0.2229
    SETDIJ:  cpu time    0.2745: real time    0.2751
     EDDAV:  cpu time    5.4325: real time    5.4452
       DOS:  cpu time    0.0004: real time    0.0004
    CHARGE:  cpu time    0.4945: real time    0.4957
    MIXING:  cpu time    0.0121: real time    0.0121
    --------------------------------------------
      LOOP:  cpu time    6.4362: real time    6.4514

 eigenvalue-minimisations  :   760
 total energy-change (2. order) :-0.3226722E-05  (-0.1290692E-05)
 number of electron     511.9999999 magnetization 
 augmentation part      -28.9793832 magnetization 

 Broyden mixing:
  rms(total) = 0.26095E-03    rms(broyden)= 0.26077E-03
  rms(prec ) = 0.29361E-03
  weight for this iteration     100.00

 eigenvalues of (default mixing * dielectric matrix)
  average eigenvalue GAMMA=   1.9174
  3.3075  2.6866  2.2420  2.2420  1.0261  1.0261  0.8915

 Free energy of the ion-electron system (eV)
  ---------------------------------------------------
  alpha Z        PSCENC =       210.78028765
  Ewald energy   TEWEN  =    -14524.86349259
  -Hartree energ DENC   =      -991.73326895
  -exchange      EXHF   =         0.00000000
  -V(xc)+E(xc)   XCENC  =     -1153.28730014
  PAW double counting   =      4723.41038702    -2485.15193115
  entropy T*S    EENTRO =        -0.00000000
  eigenvalues    EBANDS =       345.79645499
  atomic energy  EATOM  =     13192.48085998
  Solvation  Ediel_sol  =         0.00000000
  ---------------------------------------------------
  free energy    TOTEN  =      -682.56800317 eV

  energy without entropy =     -682.56800317  energy(sigma->0) =     -682.56800317


--------------------------------------------------------------------------------------------------------




--------------------------------------- Iteration      1(  13)  ---------------------------------------


    POTLOK:  cpu time    0.2222: real time    0.2229
    SETDIJ:  cpu time    0.2726: real time    0.2733
     EDDAV:  cpu time    5.3900: real time    5.4027
       DOS:  cpu time    0.0004: real time    0.0004
    CHARGE:  cpu time    0.4938: real time    0.4950
    MIXING:  cpu time    0.0128: real time    0.0128
    --------------------------------------------
      LOOP:  cpu time    6.3918: real time    6.4070

 eigenvalue-minimisations  :   752
 total energy-change (2. order) : 0.2979981E-05  (-0.5984052E-07)
 number of electron     511.9999999 magnetization 
 augmentation part      -28.9794769 magnetization 

 Broyden mixing:
  rms(total) = 0.85026E-04    rms(broyden)= 0.84485E-04
  rms(prec ) = 0.99246E-04
  weight for this iteration     100.00

 eigenvalues of (default mixing * dielectric matrix)
  average eigenvalue GAMMA=   1.8717
  3.3139  2.7008  2.4740  2.1294  0.9638  0.9638  1.2140  1.2140

 Free energy of the ion-electron system (eV)
  ---------------------------------------------------
  alpha Z        PSCENC =       210.78028765
  Ewald energy   TEWEN  =    -14524.86349259
  -Hartree energ DENC   =      -991.72956800
  -exchange      EXHF   =         0.00000000
  -V(xc)+E(xc)   XCENC  =     -1153.28668448
  PAW double counting   =      4723.39485832    -2485.13350927
  entropy T*S    EENTRO =        -0.00000000
  eigenvalues    EBANDS =       345.78924819
  atomic energy  EATOM  =     13192.48085998
  Solvation  Ediel_sol  =         0.00000000
  ---------------------------------------------------
  free energy    TOTEN  =      -682.56800019 eV

  energy without entropy =     -682.56800019  energy(sigma->0) =     -682.56800019


--------------------------------------------------------------------------------------------------------




--------------------------------------- Iteration      1(  14)  ---------------------------------------


    POTLOK:  cpu time    0.2224: real time    0.2230
    SETDIJ:  cpu time    0.2730: real time    0.2737
     EDDAV:  cpu time    5.3943: real time    5.4077
       DOS:  cpu time    0.0005: real time    0.0005
    CHARGE:  cpu time    0.4967: real time    0.4979
    MIXING:  cpu time    0.0126: real time    0.0126
    --------------------------------------------
      LOOP:  cpu time    6.3995: real time    6.4154

 eigenvalue-minimisations  :   736
 total energy-change (2. order) :-0.7574599E-06  (-0.1448804E-07)
 number of electron     511.9999999 magnetization 
 augmentation part      -28.9794368 magnetization 

 Broyden mixing:
  rms(total) = 0.41603E-04    rms(broyden)= 0.40486E-04
  rms(prec ) = 0.53033E-04
  weight for this iteration     100.00

 eigenvalues of (default mixing * dielectric matrix)
  average eigenvalue GAMMA=   1.8167
  3.2918  2.7277  2.4294  2.2612  0.9328  1.0145  1.0145  1.3391  1.3391

 Free energy of the ion-electron system (eV)
  ---------------------------------------------------
  alpha Z        PSCENC =       210.78028765
  Ewald energy   TEWEN  =    -14524.86349259
  -Hartree energ DENC   =      -991.74056891
  -exchange      EXHF   =         0.00000000
  -V(xc)+E(xc)   XCENC  =     -1153.28536248
  PAW double counting   =      4723.43262145    -2485.17147764
  entropy T*S    EENTRO =        -0.00000000
  eigenvalues    EBANDS =       345.79913158
  atomic energy  EATOM  =     13192.48085998
  Solvation  Ediel_sol  =         0.00000000
  ---------------------------------------------------
  free energy    TOTEN  =      -682.56800095 eV

  energy without entropy =     -682.56800095  energy(sigma->0) =     -682.56800095


--------------------------------------------------------------------------------------------------------




--------------------------------------- Iteration      1(  15)  ---------------------------------------


    POTLOK:  cpu time    0.2219: real time    0.2241
    SETDIJ:  cpu time    0.2737: real time    0.2744
     EDDAV:  cpu time    4.3176: real time    4.3278
       DOS:  cpu time    0.0004: real time    0.0004
    CHARGE:  cpu time    0.4949: real time    0.4961
    MIXING:  cpu time    0.0123: real time    0.0123
    --------------------------------------------
      LOOP:  cpu time    5.3209: real time    5.3350

 eigenvalue-minimisations  :   552
 total energy-change (2. order) : 0.1172992E-05  (-0.3534040E-08)
 number of electron     511.9999999 magnetization 
 augmentation part      -28.9794704 magnetization 

 Broyden mixing:
  rms(total) = 0.11604E-04    rms(broyden)= 0.65561E-05
  rms(prec ) = 0.71811E-05
  weight for this iteration     100.00
  WARNING: grid for Broyden might be to small

 eigenvalues of (default mixing * dielectric matrix)
  average eigenvalue GAMMA=   1.8233
  3.2949  2.6751  2.5855  2.0988  2.0595  0.9407  0.9855  1.0358  1.2783  1.2783

 Free energy of the ion-electron system (eV)
  ---------------------------------------------------
  alpha Z        PSCENC =       210.78028765
  Ewald energy   TEWEN  =    -14524.86349259
  -Hartree energ DENC   =      -991.73417714
  -exchange      EXHF   =         0.00000000
  -V(xc)+E(xc)   XCENC  =     -1153.28597808
  PAW double counting   =      4723.40854978    -2485.14655856
  entropy T*S    EENTRO =        -0.00000000
  eigenvalues    EBANDS =       345.79250917
  atomic energy  EATOM  =     13192.48085998
  Solvation  Ediel_sol  =         0.00000000
  ---------------------------------------------------
  free energy    TOTEN  =      -682.56799978 eV

  energy without entropy =     -682.56799978  energy(sigma->0) =     -682.56799978


--------------------------------------------------------------------------------------------------------




--------------------------------------- Iteration      1(  16)  ---------------------------------------


    POTLOK:  cpu time    0.2225: real time    0.2326
    SETDIJ:  cpu time    0.2739: real time    0.2745
     EDDAV:  cpu time    3.3562: real time    3.3641
       DOS:  cpu time    0.0004: real time    0.0004
    CHARGE:  cpu time    0.4940: real time    0.4952
    MIXING:  cpu time    0.0131: real time    0.0131
    --------------------------------------------
      LOOP:  cpu time    4.3601: real time    4.3800

 eigenvalue-minimisations  :   376
 total energy-change (2. order) :-0.9161158E-07  (-0.1992004E-09)
 number of electron     511.9999999 magnetization 
 augmentation part      -28.9794710 magnetization 

 Broyden mixing:
  rms(total) = 0.10142E-04    rms(broyden)= 0.33446E-05
  rms(prec ) = 0.42363E-05
  weight for this iteration     100.00
  WARNING: grid for Broyden might be to small

 eigenvalues of (default mixing * dielectric matrix)
  average eigenvalue GAMMA=   1.8121
  3.2822  2.7935  2.5326  2.3000  2.3000  1.3252  1.3252  1.1998  0.9827  0.9459
  0.9459

 Free energy of the ion-electron system (eV)
  ---------------------------------------------------
  alpha Z        PSCENC =       210.78028765
  Ewald energy   TEWEN  =    -14524.86349259
  -Hartree energ DENC   =      -991.73463132
  -exchange      EXHF   =         0.00000000
  -V(xc)+E(xc)   XCENC  =     -1153.28589314
  PAW double counting   =      4723.40961139    -2485.14774730
  entropy T*S    EENTRO =        -0.00000000
  eigenvalues    EBANDS =       345.79300545
  atomic energy  EATOM  =     13192.48085998
  Solvation  Ediel_sol  =         0.00000000
  ---------------------------------------------------
  free energy    TOTEN  =      -682.56799987 eV

  energy without entropy =     -682.56799987  energy(sigma->0) =     -682.56799987


--------------------------------------------------------------------------------------------------------




--------------------------------------- Iteration      1(  17)  ---------------------------------------


    POTLOK:  cpu time    0.2213: real time    0.2219
    SETDIJ:  cpu time    0.2741: real time    0.2747
     EDDAV:  cpu time    3.3632: real time    3.3711
       DOS:  cpu time    0.0004: real time    0.0004
    CHARGE:  cpu time    0.4948: real time    0.4960
    MIXING:  cpu time    0.0127: real time    0.0127
    --------------------------------------------
      LOOP:  cpu time    4.3665: real time    4.3769

 eigenvalue-minimisations  :   376
 total energy-change (2. order) :-0.1385160E-07  (-0.3224654E-10)
 number of electron     511.9999999 magnetization 
 augmentation part      -28.9794724 magnetization 

 Broyden mixing:
  rms(total) = 0.96187E-05    rms(broyden)= 0.91702E-06
  rms(prec ) = 0.11716E-05
  weight for this iteration     100.00
  WARNING: grid for Broyden might be to small

 eigenvalues of (default mixing * dielectric matrix)
  average eigenvalue GAMMA=   1.7960
  3.2906  2.7334  2.5933  2.1439  2.1385  2.1385  1.2625  1.2625  1.0434  1.0434
  0.9613  0.9403

 Free energy of the ion-electron system (eV)
  ---------------------------------------------------
  alpha Z        PSCENC =       210.78028765
  Ewald energy   TEWEN  =    -14524.86349259
  -Hartree energ DENC   =      -991.73432689
  -exchange      EXHF   =         0.00000000
  -V(xc)+E(xc)   XCENC  =     -1153.28593397
  PAW double counting   =      4723.40925424    -2485.14741598
  entropy T*S    EENTRO =        -0.00000000
  eigenvalues    EBANDS =       345.79276768
  atomic energy  EATOM  =     13192.48085998
  Solvation  Ediel_sol  =         0.00000000
  ---------------------------------------------------
  free energy    TOTEN  =      -682.56799988 eV

  energy without entropy =     -682.56799988  energy(sigma->0) =     -682.56799988


--------------------------------------------------------------------------------------------------------




--------------------------------------- Iteration      1(  18)  ---------------------------------------


    POTLOK:  cpu time    0.2211: real time    0.2217
    SETDIJ:  cpu time    0.2742: real time    0.2748
     EDDAV:  cpu time    3.2271: real time    3.2347
       DOS:  cpu time    0.0004: real time    0.0004
    CHARGE:  cpu time    0.4936: real time    0.4947
    MIXING:  cpu time    0.0126: real time    0.0127
    --------------------------------------------
      LOOP:  cpu time    4.2290: real time    4.2391

 eigenvalue-minimisations  :   352
 total energy-change (2. order) : 0.1822627E-07  (-0.1225414E-10)
 number of electron     511.9999999 magnetization 
 augmentation part      -28.9794729 magnetization 

 Broyden mixing:
  rms(total) = 0.95861E-05    rms(broyden)= 0.46177E-06
  rms(prec ) = 0.59380E-06
  weight for this iteration     100.00
  WARNING: grid for Broyden might be to small

 eigenvalues of (default mixing * dielectric matrix)
  average eigenvalue GAMMA=   1.7903
  3.2913  2.6830  2.6830  2.3412  2.3412  2.1493  1.4181  1.2519  1.2519  1.0533
  1.0026  0.9354  0.8718

 Free energy of the ion-electron system (eV)
  ---------------------------------------------------
  alpha Z        PSCENC =       210.78028765
  Ewald energy   TEWEN  =    -14524.86349259
  -Hartree energ DENC   =      -991.73430231
  -exchange      EXHF   =         0.00000000
  -V(xc)+E(xc)   XCENC  =     -1153.28593585
  PAW double counting   =      4723.40878263    -2485.14693458
  entropy T*S    EENTRO =        -0.00000000
  eigenvalues    EBANDS =       345.79273519
  atomic energy  EATOM  =     13192.48085998
  Solvation  Ediel_sol  =         0.00000000
  ---------------------------------------------------
  free energy    TOTEN  =      -682.56799986 eV

  energy without entropy =     -682.56799986  energy(sigma->0) =     -682.56799986


--------------------------------------------------------------------------------------------------------




--------------------------------------- Iteration      1(  19)  ---------------------------------------


    POTLOK:  cpu time    0.2211: real time    0.2217
    SETDIJ:  cpu time    0.2731: real time    0.2738
     EDDAV:  cpu time    3.2316: real time    3.2392
       DOS:  cpu time    0.0003: real time    0.0003
    --------------------------------------------
      LOOP:  cpu time    3.7261: real time    3.7350

 eigenvalue-minimisations  :   352
 total energy-change (2. order) : 0.9822543E-09  (-0.2119527E-11)
 number of electron     511.9999999 magnetization 
 augmentation part      -28.9794729 magnetization 

 Free energy of the ion-electron system (eV)
  ---------------------------------------------------
  alpha Z        PSCENC =       210.78028765
  Ewald energy   TEWEN  =    -14524.86349259
  -Hartree energ DENC   =      -991.73429672
  -exchange      EXHF   =         0.00000000
  -V(xc)+E(xc)   XCENC  =     -1153.28593758
  PAW double counting   =      4723.40870432    -2485.14685722
  entropy T*S    EENTRO =        -0.00000000
  eigenvalues    EBANDS =       345.79273230
  atomic energy  EATOM  =     13192.48085998
  Solvation  Ediel_sol  =         0.00000000
  ---------------------------------------------------
  free energy    TOTEN  =      -682.56799986 eV

  energy without entropy =     -682.56799986  energy(sigma->0) =     -682.56799986


--------------------------------------------------------------------------------------------------------




 average (electrostatic) potential at core
  the test charge radii are     0.9892
  (the norm of the test charge is              1.0000)
       1 -83.4139       2 -83.4139       3 -83.4121       4 -83.4114       5 -83.4122
       6 -83.4125       7 -83.4140       8 -83.4116       9 -83.4116      10 -83.4140
      11 -83.4133      12 -83.4131      13 -83.4136      14 -83.4132      15 -83.4135
      16 -83.4135      17 -83.4125      18 -83.4122      19 -83.4134      20 -83.4133
      21 -83.4135      22 -83.4135      23 -83.4132      24 -83.4136      25 -83.4114
      26 -83.4121      27 -83.4133      28 -83.4133      29 -83.4133      30 -83.4134
      31 -83.4131      32 -83.4133      33 -83.4137      34 -83.4137      35 -83.4137
      36 -83.4137      37 -83.4140      38 -83.4136      39 -83.4156      40 -83.4141
      41 -83.4137      42 -83.4135      43 -83.4139      44 -83.4137      45 -83.4139
      46 -83.4139      47 -83.4137      48 -83.4139      49 -83.4150      50 -83.4138
      51 -83.4140      52 -83.4140      53 -83.4137      54 -83.4139      55 -83.4137
      56 -83.4136      57 -83.4139      58 -83.4157      59 -83.4138      60 -83.4140
      61 -83.4137      62 -83.4137      63 -83.4140      64 -83.4137      65 -83.4136
      66 -83.4136      67 -83.4138      68 -83.4138      69 -83.4147      70 -83.4140
      71 -83.4139      72 -83.4151      73 -83.4151      74 -83.4139      75 -83.4140
      76 -83.4141      77 -83.4138      78 -83.4140      79 -83.4138      80 -83.4138
      81 -83.4140      82 -83.4147      83 -83.4137      84 -83.4140      85 -83.4137
      86 -83.4137      87 -83.4140      88 -83.4138      89 -83.4138      90 -83.4138
      91 -83.4137      92 -83.4137      93 -83.4140      94 -83.4137      95 -83.4141
      96 -83.4140      97 -83.4137      98 -83.4137      99 -83.4157     100 -83.4139
     101 -83.4138     102 -83.4150     103 -83.4135     104 -83.4137     105 -83.4141
     106 -83.4156     107 -83.4137     108 -83.4140     109 -83.4136     110 -83.4137
     111 -83.4139     112 -83.4137     113 -83.4136     114 -83.4140     115 -83.4137
     116 -83.4137     117 -83.4139     118 -83.4137     119 -83.4139     120 -83.4139
     121 -83.4137     122 -83.4137     123 -83.4140     124 -83.4138     125 -83.4140
     126 -83.4140     127 -83.4137     128 -83.4139
 
 
 
 E-fermi :   5.9203     XC(G=0):  -9.3007     alpha+bet :-11.7327


 k-point     1 :       0.0000    0.0000    0.0000
  band No.  band energies     occupation 
      1      -6.1630      2.00000
      2      -5.3784      2.00000
      3      -5.3783      2.00000
      4      -5.3778      2.00000
      5      -5.3776      2.00000
      6      -5.3775      2.00000
      7      -5.3774      2.00000
      8      -5.3771      2.00000
      9      -5.3757      2.00000
     10      -5.1004      2.00000
     11      -5.1003      2.00000
     12      -5.0999      2.00000
     13      -5.0997      2.00000
     14      -5.0994      2.00000
     15      -5.0981      2.00000
     16      -4.1591      2.00000
     17      -4.1580      2.00000
     18      -4.1576      2.00000
     19      -4.1575      2.00000
     20      -4.1571      2.00000
     21      -4.1570      2.00000
     22      -4.1570      2.00000
     23      -4.1569      2.00000
     24      -4.1569      2.00000
     25      -4.1568      2.00000
     26      -4.1560      2.00000
     27      -4.1536      2.00000
     28      -3.8820      2.00000
     29      -3.8816      2.00000
     30      -3.8807      2.00000
     31      -3.8804      2.00000
     32      -3.5011      2.00000
     33      -3.4977      2.00000
     34      -3.4975      2.00000
     35      -3.4975      2.00000
     36      -3.4966      2.00000
     37      -3.4966      2.00000
     38      -3.4965      2.00000
     39      -3.4964      2.00000
     40      -3.4964      2.00000
     41      -3.4963      2.00000
     42      -3.4963      2.00000
     43      -3.4963      2.00000
     44      -3.4963      2.00000
     45      -3.4962      2.00000
     46      -3.4962      2.00000
     47      -3.4962      2.00000
     48      -3.4962      2.00000
     49      -3.4962      2.00000
     50      -3.4961      2.00000
     51      -3.4960      2.00000
     52      -3.4960      2.00000
     53      -3.4958      2.00000
     54      -3.4935      2.00000
     55      -3.4895      2.00000
     56      -2.0925      2.00000
     57      -2.0914      2.00000
     58      -2.0914      2.00000
     59      -2.0909      2.00000
     60      -2.0901      2.00000
     61      -2.0893      2.00000
     62      -1.9382      2.00000
     63      -1.9364      2.00000
     64      -1.9364      2.00000
     65      -1.9356      2.00000
     66      -1.9356      2.00000
     67      -1.9354      2.00000
     68      -1.9354      2.00000
     69      -1.9354      2.00000
     70      -1.9353      2.00000
     71      -1.9353      2.00000
     72      -1.9337      2.00000
     73      -1.9321      2.00000
     74      -1.2193      2.00000
     75      -1.2186      2.00000
     76      -1.2183      2.00000
     77      -1.2175      2.00000
     78      -0.6737      2.00000
     79      -0.6707      2.00000
     80      -0.6707      2.00000
     81      -0.6693      2.00000
     82      -0.6690      2.00000
     83      -0.6689      2.00000
     84      -0.6689      2.00000
     85      -0.6689      2.00000
     86      -0.6688      2.00000
     87      -0.6688      2.00000
     88      -0.6688      2.00000
     89      -0.6687      2.00000
     90      -0.6687      2.00000
     91      -0.6686      2.00000
     92      -0.6686      2.00000
     93      -0.6686      2.00000
     94      -0.6685      2.00000
     95      -0.6684      2.00000
     96      -0.6684      2.00000
     97      -0.6684      2.00000
     98      -0.6683      2.00000
     99      -0.6677      2.00000
    100      -0.6653      2.00000
    101      -0.6624      2.00000
    102       0.2145      2.00000
    103       0.2154      2.00000
    104       0.2155      2.00000
    105       0.2165      2.00000
    106       0.2167      2.00000
    107       0.2167      2.00000
    108       0.2167      2.00000
    109       0.2168      2.00000
    110       0.2168      2.00000
    111       0.2172      2.00000
    112       0.2186      2.00000
    113       0.2196      2.00000
    114       1.7665      2.00000
    115       1.7669      2.00000
    116       1.7675      2.00000
    117       1.7676      2.00000
    118       1.7677      2.00000
    119       1.7681      2.00000
    120       1.7690      2.00000
    121       1.7694      2.00000
    122       1.8849      2.00000
    123       1.8850      2.00000
    124       1.8857      2.00000
    125       1.8858      2.00000
    126       1.8859      2.00000
    127       1.8859      2.00000
    128       1.8859      2.00000
    129       1.8860      2.00000
    130       1.8861      2.00000
    131       1.8864      2.00000
    132       1.8867      2.00000
    133       1.8877      2.00000
    134       1.9776      2.00000
    135       1.9781      2.00000
    136       1.9783      2.00000
    137       1.9784      2.00000
    138       1.9784      2.00000
    139       1.9786      2.00000
    140       1.9789      2.00000
    141       1.9790      2.00000
    142       1.9791      2.00000
    143       1.9797      2.00000
    144       1.9802      2.00000
    145       1.9803      2.00000
    146       2.1398      2.00000
    147       2.1400      2.00000
    148       2.1408      2.00000
    149       2.1413      2.00000
    150       2.1420      2.00000
    151       2.1425      2.00000
    152       2.1844      2.00000
    153       2.1848      2.00000
    154       2.1857      2.00000
    155       2.1858      2.00000
    156       2.1861      2.00000
    157       2.1865      2.00000
    158       2.1866      2.00000
    159       2.1867      2.00000
    160       2.1867      2.00000
    161       2.1868      2.00000
    162       2.1868      2.00000
    163       2.1868      2.00000
    164       2.1869      2.00000
    165       2.1869      2.00000
    166       2.1869      2.00000
    167       2.1869      2.00000
    168       2.1870      2.00000
    169       2.1870      2.00000
    170       2.1871      2.00000
    171       2.1874      2.00000
    172       2.1878      2.00000
    173       2.1891      2.00000
    174       2.1891      2.00000
    175       2.1904      2.00000
    176       2.8561      2.00000
    177       2.8563      2.00000
    178       2.8565      2.00000
    179       2.8566      2.00000
    180       2.8567      2.00000
    181       2.8574      2.00000
    182       3.4901      2.00000
    183       3.4902      2.00000
    184       3.4916      2.00000
    185       3.4916      2.00000
    186       3.4921      2.00000
    187       3.4922      2.00000
    188       3.4922      2.00000
    189       3.4923      2.00000
    190       3.4923      2.00000
    191       3.4924      2.00000
    192       3.4924      2.00000
    193       3.4924      2.00000
    194       3.4925      2.00000
    195       3.4925      2.00000
    196       3.4925      2.00000
    197       3.4926      2.00000
    198       3.4926      2.00000
    199       3.4926      2.00000
    200       3.4926      2.00000
    201       3.4928      2.00000
    202       3.4929      2.00000
    203       3.4941      2.00000
    204       3.4942      2.00000
    205       3.4966      2.00000
    206       3.8019      2.00000
    207       3.8029      2.00000
    208       3.8033      2.00000
    209       3.8036      2.00000
    210       3.8037      2.00000
    211       3.8037      2.00000
    212       3.8039      2.00000
    213       3.8039      2.00000
    214       3.8041      2.00000
    215       3.8041      2.00000
    216       3.8048      2.00000
    217       3.8062      2.00000
    218       4.3508      2.00000
    219       4.3512      2.00000
    220       4.3524      2.00000
    221       4.3525      2.00000
    222       4.3526      2.00000
    223       4.3526      2.00000
    224       4.3527      2.00000
    225       4.3528      2.00000
    226       4.3529      2.00000
    227       4.3537      2.00000
    228       4.3540      2.00000
    229       4.3554      2.00000
    230       4.4763      2.00000
    231       4.4765      2.00000
    232       4.4774      2.00000
    233       4.4775      2.00000
    234       4.4777      2.00000
    235       4.4781      2.00000
    236       4.4784      2.00000
    237       4.4797      2.00000
    238       4.9079      2.00000
    239       4.9101      2.00000
    240       4.9113      2.00000
    241       4.9114      2.00000
    242       4.9116      2.00000
    243       4.9116      2.00000
    244       4.9117      2.00000
    245       4.9117      2.00000
    246       4.9118      2.00000
    247       4.9118      2.00000
    248       4.9119      2.00000
    249       4.9119      2.00000
    250       4.9120      2.00000
    251       4.9124      2.00000
    252       4.9132      2.00000
    253       4.9163      2.00000
    254       5.6594      2.00000
    255       5.6604      2.00000
    256       5.6615      2.00000
    257       6.3943      0.00000
    258       6.3944      0.00000
    259       6.3947      0.00000
    260       6.3952      0.00000
    261       6.3960      0.00000
    262       6.3961      0.00000
    263       6.7951      0.00000
    264       6.7957      0.00000
    265       6.7957      0.00000
    266       6.7963      0.00000
    267       6.7973      0.00000
    268       6.7975      0.00000
    269       7.1206      0.00000
    270       7.1208      0.00000
    271       7.1208      0.00000
    272       7.1211      0.00000
    273       7.1828      0.00000
    274       7.1834      0.00000
    275       7.1843      0.00000
    276       7.1846      0.00000
    277       7.1856      0.00000
    278       7.1857      0.00000
    279       7.1858      0.00000
    280       7.1858      0.00000
    281       7.1859      0.00000
    282       7.1859      0.00000
    283       7.1859      0.00000
    284       7.1860      0.00000
    285       7.1860      0.00000
    286       7.1860      0.00000
    287       7.1860      0.00000
    288       7.1861      0.00000
    289       7.1861      0.00000
    290       7.1861      0.00000
    291       7.1862      0.00000
    292       7.1862      0.00000
    293       7.1863      0.00000
    294       7.1873      0.00000
    295       7.1897      0.00000
    296       7.1904      0.00000
    297       7.6116      0.00000
    298       7.6117      0.00000
    299       7.6118      0.00000
    300       7.6121      0.00000
    301       7.6122      0.00000
    302       7.6124      0.00000
    303       7.6128      0.00000
    304       7.6132      0.00000
    305       8.0811      0.00000
    306       8.0817      0.00000
    307       8.0818      0.00000
    308       8.0825      0.00000
    309       8.0828      0.00000
    310       8.0828      0.00000
    311       8.0829      0.00000
    312       8.0831      0.00000
    313       8.0831      0.00000
    314       8.0836      0.00000
    315       8.0848      0.00000
    316       8.0850      0.00000
    317       8.1987      0.00000
    318       8.1993      0.00000
    319       8.2000      0.00000
    320       8.7788      0.00000
    321       8.7792      0.00000
    322       8.7874      0.00000


--------------------------------------------------------------------------------------------------------


 soft charge-density along one line, spin component           1
         0         1         2         3         4         5         6         7         8         9
 total charge-density along one line
 
 pseudopotential strength for first ion, spin component:           1
 18.431  -0.001   0.000  -0.000   0.000  -0.000  -0.000  -0.000
 -0.001   0.006  -0.000  -0.000  -0.000   0.000   0.000   0.000
  0.000  -0.000   4.180  -0.000  -0.000  -0.004   0.000   0.000
 -0.000  -0.000  -0.000   4.180  -0.000   0.000  -0.004   0.000
  0.000  -0.000  -0.000  -0.000   4.180   0.000   0.000  -0.004
 -0.000   0.000  -0.004   0.000   0.000   0.005  -0.000  -0.000
 -0.000   0.000   0.000  -0.004   0.000  -0.000   0.005  -0.000
 -0.000   0.000   0.000   0.000  -0.004  -0.000  -0.000   0.005
 total augmentation occupancy for first ion, spin component:           1
  1.464  -0.790   0.003   0.000   0.001  -0.005  -0.001  -0.001
 -0.790   0.729  -0.004  -0.002  -0.001   0.006   0.002   0.001
  0.003  -0.004   1.036  -0.001  -0.001  -0.549   0.001   0.001
  0.000  -0.002  -0.001   1.036  -0.005   0.001  -0.549   0.005
  0.001  -0.001  -0.001  -0.005   1.036   0.001   0.005  -0.550
 -0.005   0.006  -0.549   0.001   0.001   0.349  -0.001  -0.001
 -0.001   0.002   0.001  -0.549   0.005  -0.001   0.350  -0.005
 -0.001   0.001   0.001   0.005  -0.550  -0.001  -0.005   0.350


------------------------ aborting loop because EDIFF is reached ----------------------------------------


    CHARGE:  cpu time    0.4943: real time    0.4955
    FORLOC:  cpu time    0.1975: real time    0.1980
    FORNL :  cpu time    5.4080: real time    5.4206
    STRESS:  cpu time    8.7195: real time    8.7414
    FORCOR:  cpu time    0.4059: real time    0.4070
    FORHAR:  cpu time    0.2441: real time    0.2447
    MIXING:  cpu time    0.0099: real time    0.0100
    OFIELD:  cpu time    0.0001: real time    0.0001

  FORCE on cell =-STRESS in cart. coord.  units (eV):
  Direction    XX          YY          ZZ          XY          YZ          ZX
  --------------------------------------------------------------------------------------
  Alpha Z   210.78029   210.78029   210.78029
  Ewald   -4841.67434 -4841.67434 -4841.66160     0.00115    -0.77371    -0.77371
  Hartree   330.57725   330.57725   330.57977     0.00034    -0.08851    -0.08851
  E(xc)   -1619.14457 -1619.14457 -1619.14469    -0.00001     0.00661     0.00661
  Local   -1899.80286 -1899.80286 -1899.81757    -0.00102     0.81797     0.81797
  n-local  4936.76719  4936.76719  4936.76964     0.00033    -0.15863    -0.15863
  augment  -736.53097  -736.53097  -736.53111    -0.00029     0.00672     0.00672
  Kinetic  3628.38951  3628.38951  3628.38887     0.00005     0.10321     0.10321
  Fock        0.00000     0.00000     0.00000     0.00000     0.00000     0.00000
  -------------------------------------------------------------------------------------
  Total       9.36150     9.36150     9.36360     0.00054    -0.08633    -0.08633
  in kB       5.73208     5.73208     5.73337     0.00033    -0.05286    -0.05286
  external pressure =        5.73 kB  Pullay stress =        0.00 kB


 VOLUME and BASIS-vectors are now :
 -----------------------------------------------------------------------------
  energy-cutoff  :      500.00
  volume of cell :     2616.64
      direct lattice vectors                 reciprocal lattice vectors
     0.000000000 10.937160696 10.937160696    -0.045715704  0.045715704  0.045715704
    10.937160696  0.000000000 10.937160696     0.045715704 -0.045715704  0.045715704
    10.937160696 10.937160696  0.000000000     0.045715704  0.045715704 -0.045715704

  length of vectors
    15.467480990 15.467480990 15.467480990     0.079181922  0.079181922  0.079181922


 FORCES acting on ions
    electron-ion (+dipol)            ewald-force                    non-local-force                 convergence-correction
 -----------------------------------------------------------------------------------------------
   0.438E-02 0.725E+00 0.198E+00   -.369E-02 -.641E+00 -.171E+00   -.327E-01 -.234E+00 -.466E-01   0.522E-06 -.176E-05 -.561E-06
   -.725E+00 -.438E-02 -.198E+00   0.641E+00 0.369E-02 0.171E+00   0.234E+00 0.327E-01 0.466E-01   0.179E-05 -.490E-06 0.456E-06
   -.129E-01 -.230E-01 -.578E-01   0.576E-02 0.189E-01 0.558E-01   0.416E-02 0.621E-02 0.456E-02   0.203E-06 0.211E-06 0.681E-06
   0.177E+00 -.893E-02 -.207E+00   -.138E+00 0.273E-02 0.174E+00   -.547E-01 0.400E-01 0.549E-01   -.373E-06 -.579E-06 0.325E-06
   -.121E-01 -.101E-01 -.144E-01   0.576E-02 0.122E-01 0.174E-01   0.429E-02 -.242E-02 -.308E-02   0.261E-06 -.258E-06 -.632E-07
   0.660E-02 -.872E-02 -.183E-01   -.708E-03 0.841E-02 0.169E-01   -.375E-02 0.520E-03 0.159E-02   0.805E-07 -.196E-06 0.112E-06
   0.616E-02 -.226E+00 -.260E+00   -.453E-02 0.197E+00 0.233E+00   -.332E-01 0.507E-01 0.491E-01   0.442E-06 0.568E-06 0.119E-05
   -.304E-01 -.312E-02 -.127E-01   0.407E-01 0.854E-02 0.170E-01   -.586E-02 -.616E-02 -.509E-02   0.907E-07 0.426E-08 0.400E-06
   0.312E-02 0.304E-01 0.127E-01   -.854E-02 -.407E-01 -.170E-01   0.616E-02 0.586E-02 0.509E-02   0.697E-07 0.170E-07 -.331E-06
   0.226E+00 -.616E-02 0.260E+00   -.197E+00 0.453E-02 -.233E+00   -.507E-01 0.332E-01 -.491E-01   -.559E-06 -.463E-06 -.120E-05
   0.972E-03 -.461E-02 -.418E-02   -.141E-02 0.349E-02 0.499E-02   0.416E-03 0.841E-03 -.275E-03   -.740E-07 0.144E-06 -.549E-07
   -.454E-02 0.158E-01 -.144E-01   0.605E-02 -.163E-01 0.124E-01   -.127E-02 0.512E-03 0.148E-02   -.170E-06 0.276E-06 0.211E-06
   0.161E-01 -.281E-01 -.131E-01   -.164E-01 0.270E-01 0.127E-01   -.426E-04 0.131E-02 0.140E-03   0.977E-07 0.216E-06 -.101E-06
   0.171E-02 -.136E-01 -.126E-01   -.157E-02 0.144E-01 0.113E-01   -.926E-04 -.480E-03 0.937E-03   0.394E-07 0.360E-07 -.455E-07
   0.979E-01 -.462E-01 0.203E-01   -.989E-01 0.440E-01 -.204E-01   -.907E-03 0.334E-02 -.446E-03   -.913E-06 0.441E-06 -.312E-06
   0.462E-01 -.979E-01 -.203E-01   -.440E-01 0.989E-01 0.204E-01   -.334E-02 0.907E-03 0.446E-03   -.446E-06 0.931E-06 0.256E-06
   0.872E-02 -.660E-02 0.183E-01   -.841E-02 0.708E-03 -.169E-01   -.520E-03 0.375E-02 -.159E-02   0.158E-06 -.359E-07 -.168E-06
   0.101E-01 0.121E-01 0.144E-01   -.122E-01 -.576E-02 -.174E-01   0.242E-02 -.429E-02 0.308E-02   0.318E-06 -.134E-06 0.905E-07
   0.165E-01 -.193E-01 0.826E-02   -.164E-01 0.174E-01 -.694E-02   -.442E-03 0.222E-02 -.572E-03   0.186E-06 0.179E-06 0.276E-06
   0.114E-01 -.632E-02 0.549E-02   -.112E-01 0.645E-02 -.696E-02   -.451E-04 -.509E-04 0.116E-02   0.462E-07 0.601E-07 -.160E-07
   0.188E-01 -.173E-01 0.173E-02   -.191E-01 0.165E-01 -.109E-02   -.178E-03 0.897E-03 -.480E-03   0.111E-06 -.171E-06 -.150E-08
   0.173E-01 -.188E-01 -.173E-02   -.165E-01 0.191E-01 0.109E-02   -.897E-03 0.178E-03 0.480E-03   0.226E-06 -.432E-07 0.988E-07
   0.136E-01 -.171E-02 0.126E-01   -.144E-01 0.157E-02 -.113E-01   0.480E-03 0.926E-04 -.937E-03   0.851E-07 -.937E-07 -.106E-07
   0.281E-01 -.161E-01 0.131E-01   -.270E-01 0.164E-01 -.127E-01   -.131E-02 0.425E-04 -.140E-03   -.877E-07 -.161E-06 0.108E-06
   0.893E-02 -.177E+00 0.207E+00   -.273E-02 0.138E+00 -.174E+00   -.400E-01 0.547E-01 -.549E-01   0.561E-06 0.398E-06 -.271E-06
   0.230E-01 0.129E-01 0.578E-01   -.189E-01 -.576E-02 -.558E-01   -.621E-02 -.416E-02 -.456E-02   -.232E-06 -.103E-06 -.668E-06
   0.473E-01 -.466E-01 -.374E-02   -.464E-01 0.440E-01 0.653E-02   -.267E-02 0.392E-02 -.149E-02   -.854E-06 0.330E-06 -.345E-06
   0.466E-01 -.473E-01 0.374E-02   -.440E-01 0.464E-01 -.653E-02   -.392E-02 0.267E-02 0.149E-02   -.314E-06 0.803E-06 0.271E-06
   0.632E-02 -.114E-01 -.549E-02   -.645E-02 0.112E-01 0.696E-02   0.509E-04 0.450E-04 -.116E-02   -.221E-06 0.425E-07 -.118E-06
   0.193E-01 -.165E-01 -.826E-02   -.174E-01 0.164E-01 0.694E-02   -.222E-02 0.442E-03 0.572E-03   -.268E-06 -.465E-07 -.205E-06
   -.158E-01 0.454E-02 0.144E-01   0.163E-01 -.605E-02 -.124E-01   -.512E-03 0.127E-02 -.148E-02   -.217E-06 0.240E-06 -.260E-06
   0.461E-02 -.972E-03 0.418E-02   -.349E-02 0.141E-02 -.499E-02   -.841E-03 -.416E-03 0.275E-03   -.199E-06 0.535E-07 -.135E-06
   -.511E-01 -.677E-02 0.492E-02   0.520E-01 0.661E-02 -.463E-02   0.971E-03 0.155E-02 -.772E-03   0.728E-06 -.117E-06 -.338E-07
   -.177E+00 0.561E-01 0.201E+00   0.150E+00 -.573E-01 -.174E+00   0.452E-01 0.320E-01 -.485E-01   0.417E-06 -.110E-05 -.579E-06
   -.387E-02 -.619E-02 -.110E-01   0.435E-02 0.711E-02 0.111E-01   -.204E-04 -.482E-03 -.251E-03   0.154E-06 -.883E-07 0.946E-07
   -.212E-01 -.314E-01 -.179E-01   0.201E-01 0.310E-01 0.183E-01   0.622E-03 0.122E-03 -.433E-03   0.296E-06 0.200E-06 0.241E-06
   0.113E-01 -.672E-02 -.261E-01   -.107E-01 0.511E-02 0.249E-01   -.484E-03 0.123E-02 0.152E-02   0.386E-06 -.457E-08 0.256E-06
   -.174E-02 -.972E-02 -.165E-01   0.615E-03 0.863E-02 0.170E-01   0.863E-03 0.878E-03 -.418E-03   0.166E-06 -.108E-06 0.570E-07
   0.442E-01 0.457E-01 -.269E-01   -.389E-01 -.565E-01 0.205E-01   -.616E-02 0.622E-02 0.696E-02   -.112E-06 -.261E-06 0.209E-06
   0.297E-01 0.132E-01 -.812E-01   -.302E-01 -.139E-01 0.806E-01   -.146E-02 0.140E-02 0.227E-02   0.206E-06 0.320E-06 0.966E-06
   -.432E-02 0.265E-02 0.109E-02   0.435E-02 -.258E-02 -.741E-03   0.374E-03 0.418E-03 -.233E-03   0.981E-07 0.106E-06 -.149E-06
   -.121E-01 0.199E-01 0.281E-02   0.103E-01 -.220E-01 -.149E-02   0.138E-02 0.170E-02 -.113E-02   0.259E-06 0.110E-06 -.379E-06
   0.349E-02 -.739E-02 -.363E-02   -.368E-02 0.672E-02 0.303E-02   0.442E-03 0.391E-03 0.210E-03   0.259E-07 0.158E-06 -.574E-07
   -.247E-02 -.416E-02 -.553E-02   0.192E-02 0.368E-02 0.561E-02   0.468E-03 0.381E-03 -.604E-04   0.139E-06 0.909E-07 -.536E-07
   0.203E-01 -.499E-02 -.652E-02   -.204E-01 0.451E-02 0.632E-02   0.318E-04 0.602E-03 -.532E-04   -.208E-06 0.150E-06 -.178E-06
   0.150E-01 -.115E-01 -.129E-01   -.157E-01 0.117E-01 0.136E-01   0.655E-03 -.137E-03 -.579E-03   0.175E-07 0.196E-06 0.279E-07
   0.125E-01 0.143E-01 0.444E-02   -.124E-01 -.136E-01 -.403E-02   -.332E-04 -.464E-03 -.431E-03   -.218E-06 0.230E-06 -.207E-06
   0.513E-01 0.124E-01 -.456E-02   -.506E-01 -.139E-01 0.655E-02   -.486E-03 0.118E-02 -.165E-02   -.612E-06 0.332E-06 -.335E-06
   -.960E-02 -.304E-02 0.987E-02   0.351E-02 0.508E-02 -.127E-01   0.431E-02 -.241E-02 0.311E-02   0.401E-06 -.201E-07 0.387E-07
   -.193E-02 -.218E-02 0.902E-02   0.641E-03 0.687E-03 -.912E-02   0.103E-02 0.114E-02 0.468E-04   0.151E-06 0.770E-08 -.599E-07
   0.719E-02 -.138E-01 0.782E-02   -.738E-02 0.142E-01 -.807E-02   0.137E-03 -.326E-03 0.397E-04   0.297E-07 -.113E-06 0.157E-07
   0.548E-02 -.113E-01 0.876E-02   -.605E-02 0.117E-01 -.790E-02   0.447E-03 -.306E-03 -.612E-03   0.163E-06 0.432E-07 0.711E-07
   0.865E-02 -.636E-02 0.126E-02   -.845E-02 0.655E-02 -.102E-02   -.924E-04 -.120E-03 -.231E-03   0.819E-08 -.590E-07 -.536E-07
   0.146E-01 -.111E-01 0.187E-02   -.145E-01 0.111E-01 -.110E-02   -.705E-04 0.846E-04 -.626E-03   0.203E-07 -.116E-06 -.184E-07
   -.385E-03 0.410E-04 0.415E-02   0.663E-03 0.424E-04 -.402E-02   -.135E-03 0.506E-04 -.131E-03   0.402E-07 0.116E-06 0.933E-07
   0.919E-02 0.336E-04 0.506E-02   -.956E-02 -.649E-03 -.478E-02   0.257E-03 0.472E-03 -.294E-03   -.105E-07 0.313E-07 0.318E-07
   -.116E-01 -.339E-02 0.553E-01   0.139E-01 0.298E-02 -.539E-01   -.102E-02 0.233E-02 -.313E-02   -.131E-06 -.169E-06 -.910E-06
   -.202E-01 0.184E-01 0.157E-01   0.295E-01 -.141E-01 -.203E-01   -.480E-02 -.556E-02 0.595E-02   0.504E-06 0.344E-06 -.363E-06
   -.169E-03 -.258E-01 0.437E-03   0.649E-03 0.262E-01 -.233E-04   -.324E-03 -.255E-03 -.421E-03   -.736E-07 0.386E-06 -.154E-06
   0.108E-01 -.385E-01 0.216E-01   -.110E-01 0.390E-01 -.206E-01   0.258E-03 -.565E-03 -.697E-03   -.422E-06 0.284E-06 -.441E-06
   -.307E-03 -.568E-02 -.862E-02   0.649E-03 0.556E-02 0.883E-02   -.174E-03 0.218E-03 -.181E-03   -.202E-07 0.161E-06 -.172E-06
   0.352E-02 -.127E-01 -.380E-02   -.407E-02 0.124E-01 0.406E-02   0.401E-03 0.221E-03 -.220E-03   -.934E-07 0.142E-06 -.172E-06
   -.129E-01 0.149E-01 -.217E-01   0.139E-01 -.161E-01 0.206E-01   -.722E-03 0.115E-02 0.797E-03   -.485E-07 0.632E-06 0.249E-06
   -.107E-01 -.294E-03 -.402E-02   0.958E-02 -.649E-03 0.410E-02   0.916E-03 0.787E-03 -.552E-04   -.159E-06 0.286E-06 -.969E-07
   -.361E-02 0.103E-01 -.572E-02   0.432E-02 -.944E-02 0.465E-02   -.547E-03 -.961E-03 0.597E-03   0.226E-06 -.204E-06 0.216E-08
   -.103E-01 0.361E-02 0.572E-02   0.944E-02 -.432E-02 -.465E-02   0.961E-03 0.547E-03 -.597E-03   0.282E-06 -.158E-06 -.184E-07
   0.890E-03 0.472E-02 -.158E-01   -.372E-03 -.417E-02 0.147E-01   -.579E-03 0.279E-04 0.162E-02   0.339E-06 0.880E-07 0.270E-06
   0.156E-03 0.884E-03 -.911E-02   -.115E-02 -.171E-02 0.914E-02   0.864E-03 0.730E-03 -.415E-04   0.234E-06 -.947E-07 0.355E-07
   0.647E-02 0.865E-03 -.933E-02   -.632E-02 -.503E-02 0.898E-02   -.205E-03 0.265E-02 0.265E-03   0.380E-07 -.662E-07 0.461E-07
   0.610E-02 0.103E-02 -.142E-01   -.641E-02 -.159E-02 0.138E-01   0.771E-05 0.478E-03 0.616E-03   0.312E-06 0.890E-07 0.116E-06
   -.666E-03 0.938E-02 0.151E-02   0.171E-02 -.854E-02 -.120E-02   -.893E-03 -.655E-03 -.195E-03   -.847E-07 -.160E-06 0.501E-07
   0.775E-02 0.195E-01 -.528E-02   -.550E-02 -.138E-01 0.339E-02   -.277E-02 -.382E-02 0.257E-02   -.151E-06 -.192E-06 0.207E-06
   -.195E-01 -.775E-02 0.528E-02   0.138E-01 0.550E-02 -.339E-02   0.382E-02 0.277E-02 -.257E-02   0.939E-07 0.197E-06 -.175E-06
   -.938E-02 0.666E-03 -.151E-02   0.854E-02 -.171E-02 0.120E-02   0.655E-03 0.893E-03 0.195E-03   0.611E-07 0.166E-06 -.566E-07
   -.273E-02 -.576E-03 0.387E-02   0.296E-02 0.457E-03 -.401E-02   -.344E-03 0.215E-03 0.744E-05   -.238E-06 0.624E-07 -.263E-06
   -.556E-02 -.945E-03 -.162E-02   0.515E-02 0.141E-02 0.243E-02   0.326E-03 -.290E-03 -.625E-03   0.896E-07 0.146E-06 -.184E-06
   0.421E-02 0.160E-02 -.915E-03   -.369E-02 -.997E-03 0.101E-02   -.406E-03 -.451E-03 -.107E-03   -.185E-06 0.679E-07 -.114E-06
   0.711E-02 0.117E-02 -.273E-02   -.660E-02 -.159E-02 0.366E-02   -.442E-03 0.324E-03 -.767E-03   -.202E-06 0.135E-06 -.135E-06
   -.482E-02 -.126E-02 -.299E-03   0.542E-02 0.148E-02 0.241E-04   -.448E-03 -.144E-03 0.270E-03   -.137E-06 0.227E-06 0.158E-07
   0.126E-02 0.482E-02 0.299E-03   -.148E-02 -.542E-02 -.241E-04   0.144E-03 0.448E-03 -.270E-03   -.242E-06 0.579E-07 -.115E-06
   -.103E-02 -.610E-02 0.142E-01   0.159E-02 0.641E-02 -.138E-01   -.478E-03 -.774E-05 -.616E-03   -.716E-07 -.308E-06 -.676E-07
   -.865E-03 -.647E-02 0.933E-02   0.503E-02 0.632E-02 -.898E-02   -.265E-02 0.205E-03 -.265E-03   0.111E-06 -.380E-07 0.395E-07
   0.416E-02 -.411E-02 0.577E-02   -.370E-02 0.451E-02 -.579E-02   -.367E-03 -.282E-03 0.449E-04   0.286E-07 -.216E-08 0.895E-07
   0.126E-02 -.629E-02 0.956E-02   -.111E-02 0.634E-02 -.901E-02   -.109E-03 0.212E-04 -.459E-03   -.140E-07 -.188E-06 -.656E-08
   0.402E-02 -.445E-02 -.113E-02   -.370E-02 0.471E-02 0.102E-02   -.219E-03 -.171E-03 0.800E-04   0.276E-07 -.101E-06 0.166E-07
   0.445E-02 -.402E-02 0.113E-02   -.471E-02 0.370E-02 -.102E-02   0.171E-03 0.219E-03 -.800E-04   0.924E-07 -.167E-07 -.167E-08
   -.117E-02 -.711E-02 0.273E-02   0.159E-02 0.660E-02 -.366E-02   -.324E-03 0.442E-03 0.767E-03   -.542E-07 0.888E-07 0.266E-06
   -.160E-02 -.421E-02 0.915E-03   0.997E-03 0.369E-02 -.101E-02   0.451E-03 0.406E-03 0.107E-03   -.175E-07 0.554E-07 0.168E-06
   -.884E-03 -.156E-03 0.911E-02   0.171E-02 0.115E-02 -.914E-02   -.730E-03 -.864E-03 0.415E-04   0.277E-07 -.849E-07 -.677E-07
   -.472E-02 -.890E-03 0.158E-01   0.417E-02 0.372E-03 -.147E-01   -.278E-04 0.579E-03 -.162E-02   -.162E-06 -.253E-06 -.266E-06
   0.786E-02 -.125E-02 -.413E-02   -.764E-02 0.149E-02 0.405E-02   -.160E-03 -.168E-03 0.116E-03   -.119E-06 0.697E-07 -.818E-07
   0.125E-02 -.786E-02 0.413E-02   -.149E-02 0.764E-02 -.405E-02   0.168E-03 0.160E-03 -.116E-03   -.808E-07 0.153E-06 -.994E-07
   0.629E-02 -.126E-02 -.956E-02   -.634E-02 0.111E-02 0.901E-02   -.212E-04 0.109E-03 0.459E-03   0.658E-07 0.132E-06 0.935E-07
   0.411E-02 -.416E-02 -.577E-02   -.451E-02 0.370E-02 0.579E-02   0.282E-03 0.367E-03 -.448E-04   -.644E-07 0.120E-06 -.982E-07
   0.946E-03 0.556E-02 0.162E-02   -.141E-02 -.515E-02 -.243E-02   0.290E-03 -.326E-03 0.625E-03   -.157E-06 -.146E-06 0.883E-07
   0.576E-03 0.273E-02 -.387E-02   -.457E-03 -.296E-02 0.401E-02   -.215E-03 0.344E-03 -.740E-05   -.718E-07 0.198E-06 0.215E-06
   -.561E-01 0.177E+00 -.201E+00   0.573E-01 -.150E+00 0.174E+00   -.320E-01 -.452E-01 0.485E-01   0.101E-05 -.433E-06 0.528E-06
   0.677E-02 0.511E-01 -.492E-02   -.661E-02 -.520E-01 0.463E-02   -.155E-02 -.971E-03 0.772E-03   0.306E-07 -.755E-06 0.848E-07
   -.184E-01 0.202E-01 -.157E-01   0.141E-01 -.295E-01 0.203E-01   0.556E-02 0.480E-02 -.595E-02   -.394E-06 -.487E-06 0.361E-06
   0.339E-02 0.116E-01 -.553E-01   -.298E-02 -.139E-01 0.539E-01   -.233E-02 0.102E-02 0.313E-02   0.177E-06 0.119E-06 0.926E-06
   0.218E-02 0.193E-02 -.902E-02   -.687E-03 -.641E-03 0.912E-02   -.114E-02 -.103E-02 -.469E-04   -.125E-06 -.242E-06 0.418E-07
   0.304E-02 0.960E-02 -.987E-02   -.508E-02 -.351E-02 0.127E-01   0.241E-02 -.431E-02 -.311E-02   0.113E-07 -.357E-06 -.324E-07
   -.199E-01 0.121E-01 -.281E-02   0.220E-01 -.103E-01 0.149E-02   -.170E-02 -.138E-02 0.113E-02   -.128E-06 -.224E-06 0.468E-06
   -.265E-02 0.432E-02 -.109E-02   0.258E-02 -.435E-02 0.741E-03   -.418E-03 -.375E-03 0.233E-03   -.160E-06 -.174E-06 0.155E-06
   -.132E-01 -.297E-01 0.812E-01   0.139E-01 0.302E-01 -.806E-01   -.140E-02 0.146E-02 -.227E-02   -.309E-06 -.231E-06 -.907E-06
   -.457E-01 -.442E-01 0.269E-01   0.565E-01 0.389E-01 -.205E-01   -.622E-02 0.616E-02 -.696E-02   0.272E-06 0.143E-06 -.174E-06
   0.294E-03 0.107E-01 0.402E-02   0.649E-03 -.958E-02 -.410E-02   -.787E-03 -.916E-03 0.553E-04   -.203E-06 0.120E-06 0.105E-06
   -.149E-01 0.129E-01 0.217E-01   0.161E-01 -.139E-01 -.206E-01   -.115E-02 0.722E-03 -.797E-03   -.581E-06 0.495E-07 -.302E-06
   -.335E-04 -.919E-02 -.506E-02   0.649E-03 0.956E-02 0.478E-02   -.472E-03 -.257E-03 0.294E-03   -.913E-07 -.117E-07 -.157E-07
   -.410E-04 0.385E-03 -.415E-02   -.424E-04 -.663E-03 0.402E-02   -.506E-04 0.135E-03 0.131E-03   -.165E-06 -.660E-07 -.340E-07
   -.124E-01 -.513E-01 0.456E-02   0.139E-01 0.506E-01 -.655E-02   -.118E-02 0.486E-03 0.165E-02   -.303E-06 0.671E-06 0.248E-06
   -.143E-01 -.125E-01 -.444E-02   0.136E-01 0.124E-01 0.403E-02   0.464E-03 0.332E-04 0.431E-03   -.249E-06 0.255E-06 0.152E-06
   0.972E-02 0.174E-02 0.165E-01   -.863E-02 -.615E-03 -.170E-01   -.878E-03 -.863E-03 0.418E-03   -.111E-08 -.142E-06 0.756E-07
   0.672E-02 -.113E-01 0.261E-01   -.511E-02 0.107E-01 -.249E-01   -.123E-02 0.484E-03 -.152E-02   -.416E-07 -.380E-06 -.191E-06
   0.127E-01 -.352E-02 0.380E-02   -.124E-01 0.407E-02 -.406E-02   -.221E-03 -.401E-03 0.220E-03   -.180E-06 -.101E-06 0.743E-07
   0.568E-02 0.307E-03 0.862E-02   -.556E-02 -.649E-03 -.883E-02   -.218E-03 0.174E-03 0.181E-03   -.808E-07 -.657E-07 0.206E-06
   0.111E-01 -.146E-01 -.187E-02   -.111E-01 0.145E-01 0.110E-02   -.847E-04 0.705E-04 0.626E-03   0.131E-06 0.358E-07 0.108E-06
   0.636E-02 -.865E-02 -.126E-02   -.655E-02 0.845E-02 0.102E-02   0.120E-03 0.925E-04 0.231E-03   -.493E-07 -.956E-07 0.786E-07
   0.115E-01 -.150E-01 0.129E-01   -.117E-01 0.157E-01 -.136E-01   0.137E-03 -.655E-03 0.580E-03   -.112E-06 -.680E-07 -.231E-07
   0.499E-02 -.203E-01 0.652E-02   -.451E-02 0.204E-01 -.632E-02   -.602E-03 -.318E-04 0.532E-04   -.281E-07 0.211E-06 0.233E-06
   0.314E-01 0.212E-01 0.179E-01   -.310E-01 -.201E-01 -.183E-01   -.122E-03 -.622E-03 0.433E-03   -.286E-06 -.319E-06 -.127E-06
   0.619E-02 0.387E-02 0.110E-01   -.711E-02 -.435E-02 -.111E-01   0.482E-03 0.204E-04 0.251E-03   -.284E-07 -.125E-06 0.869E-08
   0.385E-01 -.108E-01 -.216E-01   -.390E-01 0.110E-01 0.206E-01   0.565E-03 -.258E-03 0.697E-03   -.150E-06 0.404E-06 0.368E-06
   0.258E-01 0.169E-03 -.437E-03   -.262E-01 -.649E-03 0.233E-04   0.255E-03 0.324E-03 0.421E-03   -.374E-06 -.655E-07 0.421E-07
   0.113E-01 -.548E-02 -.876E-02   -.117E-01 0.605E-02 0.790E-02   0.306E-03 -.447E-03 0.612E-03   -.503E-07 -.670E-07 -.693E-08
   0.138E-01 -.719E-02 -.782E-02   -.142E-01 0.738E-02 0.807E-02   0.326E-03 -.137E-03 -.397E-04   0.102E-06 0.562E-07 0.108E-06
   0.416E-02 0.247E-02 0.553E-02   -.368E-02 -.192E-02 -.561E-02   -.381E-03 -.468E-03 0.604E-04   -.119E-06 -.203E-06 -.610E-07
   0.739E-02 -.349E-02 0.363E-02   -.672E-02 0.368E-02 -.303E-02   -.391E-03 -.442E-03 -.210E-03   -.714E-07 -.409E-07 -.320E-07
 -----------------------------------------------------------------------------------------------
   -.159E-03 0.160E-03 -.177E-05   0.337E-12 -.533E-12 -.167E-12   0.160E-03 -.161E-03 0.208E-05   -.110E-06 0.432E-07 -.194E-07
 
 
 POSITION                                       TOTAL-FORCE (eV/Angst)
 -----------------------------------------------------------------------------------
      1.36715      1.37715      1.36715        -0.032000     -0.149693     -0.019177
     21.86432     10.93716     10.93716         0.149693      0.032000      0.019177
      1.36715      4.10144      4.10144        -0.002994      0.002058      0.002516
      0.00000      2.73429      2.73429        -0.015607      0.033816      0.021454
      1.36715      6.83573      6.83573        -0.002039     -0.000328     -0.000101
      0.00000      5.46858      5.46858         0.002142      0.000210      0.000199
      1.36715      9.57002      9.57002        -0.031615      0.021518      0.021984
      0.00000      8.20287      8.20287         0.004444     -0.000738     -0.000750
      4.10144      1.36715      4.10144         0.000738     -0.004444      0.000750
      2.73429      0.00000      2.73429        -0.021518      0.031615     -0.021984
      4.10144      4.10144      6.83573        -0.000019     -0.000284      0.000537
      2.73429      2.73429      5.46858         0.000234      0.000022     -0.000552
      4.10144      6.83573      9.57002        -0.000416      0.000242     -0.000265
      2.73429      5.46858      8.20287         0.000054      0.000264     -0.000351
      4.10144      9.57002     12.30431        -0.001942      0.001227     -0.000605
      2.73429      8.20287     10.93716        -0.001227      0.001942      0.000605
      6.83573      1.36715      6.83573        -0.000210     -0.002142     -0.000199
      5.46858      0.00000      5.46858         0.000328      0.002039      0.000101
      6.83573      4.10144      9.57002        -0.000359      0.000301      0.000741
      5.46858      2.73429      8.20287         0.000112      0.000073     -0.000307
      6.83573      6.83573     12.30431        -0.000426      0.000061      0.000158
      5.46858      5.46858     10.93716        -0.000061      0.000426     -0.000158
      6.83573      9.57002     15.03860        -0.000264     -0.000054      0.000351
      5.46858      8.20287     13.67145        -0.000242      0.000416      0.000265
      9.57002      1.36715      9.57002        -0.033816      0.015607     -0.021454
      8.20287      0.00000      8.20287        -0.002058      0.002994     -0.002516
      9.57002      4.10144     12.30431        -0.001778      0.001237      0.001298
      8.20287      2.73429     10.93716        -0.001237      0.001778     -0.001298
      9.57002      6.83573     15.03860        -0.000073     -0.000112      0.000307
      8.20287      5.46858     13.67145        -0.000301      0.000359     -0.000741
      9.57002      9.57002     17.77289        -0.000022     -0.000234      0.000552
      8.20287      8.20287     16.40574         0.000284      0.000019     -0.000537
      4.10144      4.10144      1.36715         0.001830      0.001386     -0.000484
      2.73429      2.73429      0.00000         0.018949      0.030840     -0.021485
      4.10144      6.83573      4.10144         0.000459      0.000434     -0.000180
      2.73429      5.46858      2.73429        -0.000445     -0.000286     -0.000070
      4.10144      9.57002      6.83573         0.000064     -0.000371      0.000346
      2.73429      8.20287      5.46858        -0.000263     -0.000216      0.000129
      4.10144     12.30431      9.57002        -0.000886     -0.004574      0.000622
      2.73429     10.93716      8.20287        -0.001916      0.000700      0.001678
      6.83573      4.10144      4.10144         0.000400      0.000490      0.000116
      5.46858      2.73429      2.73429        -0.000392     -0.000401      0.000188
      6.83573      6.83573      6.83573         0.000250     -0.000281     -0.000386
      5.46858      5.46858      5.46858        -0.000085     -0.000099      0.000019
      6.83573      9.57002      9.57002        -0.000086      0.000126     -0.000250
      5.46858      8.20287      8.20287        -0.000067      0.000051      0.000169
      6.83573     12.30431     12.30431         0.000064      0.000231     -0.000022
      5.46858     10.93716     10.93716         0.000175     -0.000250      0.000344
      9.57002      4.10144      6.83573        -0.001786     -0.000372      0.000327
      8.20287      2.73429      5.46858        -0.000262     -0.000349     -0.000050
      9.57002      6.83573      9.57002        -0.000053      0.000069     -0.000216
      8.20287      5.46858      8.20287        -0.000123      0.000109      0.000253
      9.57002      9.57002     12.30431         0.000105      0.000070      0.000012
      8.20287      8.20287     10.93716        -0.000014      0.000057      0.000147
      9.57002     12.30431     15.03860         0.000143      0.000134     -0.000010
      8.20287     10.93716     13.67145        -0.000116     -0.000144     -0.000009
     12.30431      4.10144      9.57002         0.001211      0.001925     -0.001688
     10.93716      2.73429      8.20287         0.004586     -0.001220      0.001311
     12.30431      6.83573     12.30431         0.000156      0.000145     -0.000007
     10.93716      5.46858     10.93716         0.000089     -0.000076      0.000341
     12.30431      9.57002     15.03860         0.000168      0.000102      0.000023
     10.93716      8.20287     13.67145        -0.000148     -0.000077      0.000035
     12.30431     12.30431     17.77289         0.000250     -0.000092     -0.000342
     10.93716     10.93716     16.40574        -0.000245     -0.000156      0.000022
      6.83573      6.83573      1.36715         0.000162     -0.000054     -0.000472
      5.46858      5.46858      0.00000         0.000054     -0.000162      0.000472
      6.83573      9.57002      4.10144        -0.000060      0.000579      0.000471
      5.46858      8.20287      2.73429        -0.000125     -0.000094     -0.000009
      6.83573     12.30431      6.83573        -0.000054     -0.001521     -0.000081
      5.46858     10.93716      5.46858        -0.000302     -0.000080      0.000212
      6.83573     15.03860      9.57002         0.000152      0.000184      0.000114
      5.46858     13.67145      8.20287        -0.000519      0.001846      0.000683
      9.57002      6.83573      4.10144        -0.001847      0.000519     -0.000683
      8.20287      5.46858      2.73429        -0.000184     -0.000152     -0.000114
      9.57002      9.57002      6.83573        -0.000117      0.000096     -0.000128
      8.20287      8.20287      5.46858        -0.000085      0.000173      0.000189
      9.57002     12.30431      9.57002         0.000118      0.000151     -0.000012
      8.20287     10.93716      8.20287         0.000065     -0.000091      0.000161
      9.57002     15.03860     12.30431         0.000157      0.000072     -0.000005
      8.20287     13.67145     10.93716        -0.000072     -0.000157      0.000005
     12.30431      6.83573      6.83573         0.000080      0.000302     -0.000212
     10.93716      5.46858      5.46858         0.001521      0.000054      0.000081
     12.30431      9.57002      9.57002         0.000094      0.000118      0.000023
     10.93716      8.20287      8.20287         0.000033      0.000067      0.000092
     12.30431     12.30431     12.30431         0.000106      0.000090     -0.000024
     10.93716     10.93716     10.93716        -0.000090     -0.000106      0.000024
     12.30431     15.03860     15.03860         0.000091     -0.000065     -0.000161
     10.93716     13.67145     13.67145        -0.000151     -0.000118      0.000012
     15.03860      6.83573      9.57002         0.000094      0.000125      0.000009
     13.67145      5.46858      8.20287        -0.000579      0.000060     -0.000471
     15.03860      9.57002     12.30431         0.000066      0.000072      0.000035
     13.67145      8.20287     10.93716        -0.000072     -0.000066     -0.000035
     15.03860     12.30431     15.03860        -0.000067     -0.000033     -0.000092
     13.67145     10.93716     13.67145        -0.000118     -0.000094     -0.000023
     15.03860     15.03860     17.77289        -0.000173      0.000085     -0.000189
     13.67145     13.67145     16.40574        -0.000096      0.000117      0.000128
      9.57002      9.57002      1.36715        -0.030840     -0.018949      0.021485
      8.20287      8.20287      0.00000        -0.001386     -0.001830      0.000484
      9.57002     12.30431      4.10144         0.001220     -0.004586     -0.001311
      8.20287     10.93716      2.73429        -0.001925     -0.001211      0.001688
      9.57002     15.03860      6.83573         0.000349      0.000262      0.000050
      8.20287     13.67145      5.46858         0.000372      0.001786     -0.000327
      9.57002     17.77289      9.57002         0.000401      0.000392     -0.000188
      8.20287     16.40574      8.20287        -0.000490     -0.000400     -0.000116
     12.30431      9.57002      4.10144        -0.000700      0.001916     -0.001678
     10.93716      8.20287      2.73429         0.004575      0.000886     -0.000622
     12.30431     12.30431      6.83573         0.000156      0.000245     -0.000022
     10.93716     10.93716      5.46858         0.000092     -0.000250      0.000342
     12.30431     15.03860      9.57002         0.000144      0.000116      0.000009
     10.93716     13.67145      8.20287        -0.000134     -0.000143      0.000010
     12.30431     17.77289     12.30431         0.000250     -0.000175     -0.000344
     10.93716     16.40574     10.93716        -0.000231     -0.000064      0.000022
     15.03860      9.57002      6.83573         0.000216      0.000263     -0.000129
     13.67145      8.20287      5.46858         0.000371     -0.000064     -0.000346
     15.03860     12.30431      9.57002         0.000077      0.000148     -0.000035
     13.67145     10.93716      8.20287        -0.000102     -0.000168     -0.000023
     15.03860     15.03860     12.30431        -0.000057      0.000014     -0.000147
     13.67145     13.67145     10.93716        -0.000070     -0.000105     -0.000012
     15.03860     17.77289     15.03860        -0.000051      0.000067     -0.000169
     13.67145     16.40574     13.67145        -0.000126      0.000086      0.000250
     17.77289      9.57002      9.57002         0.000286      0.000445      0.000070
     16.40574      8.20287      8.20287        -0.000434     -0.000459      0.000180
     17.77289     12.30431     12.30431         0.000076     -0.000089     -0.000341
     16.40574     10.93716     10.93716        -0.000145     -0.000156      0.000007
     17.77289     15.03860     15.03860        -0.000109      0.000123     -0.000253
     16.40574     13.67145     13.67145        -0.000069      0.000053      0.000216
     17.77289     17.77289     17.77289         0.000099      0.000085     -0.000019
     16.40574     16.40574     16.40574         0.000281     -0.000250      0.000386
 -----------------------------------------------------------------------------------
    total drift:                                0.000001     -0.000001      0.000000


--------------------------------------------------------------------------------------------------------



  FREE ENERGIE OF THE ION-ELECTRON SYSTEM (eV)
  ---------------------------------------------------
  free  energy   TOTEN  =      -682.56799986 eV

  energy  without entropy=     -682.56799986  energy(sigma->0) =     -682.56799986
 


--------------------------------------------------------------------------------------------------------


    POTLOK:  cpu time    0.4956: real time    0.4968


--------------------------------------------------------------------------------------------------------


     LOOP+:  cpu time  122.1985: real time  122.5564
    4ORBIT:  cpu time    0.0000: real time    0.0000

 total amount of memory used by VASP MPI-rank0   118934. kBytes
=======================================================================

   base      :      30000. kBytes
   nonl-proj :       7011. kBytes
   fftplans  :      53058. kBytes
   grid      :      20148. kBytes
   one-center:         21. kBytes
   wavefun   :       8696. kBytes
 
  
  
 General timing and accounting informations for this job:
 ========================================================
  
                  Total CPU time used (sec):      129.970
                            User time (sec):      127.980
                          System time (sec):        1.990
                         Elapsed time (sec):      130.406
  
                   Maximum memory used (kb):      241816.
                   Average memory used (kb):           0.
  
                          Minor page faults:        80182
                          Major page faults:            0
                 Voluntary context switches:          506
