<?xml version="1.0" encoding="ISO-8859-1"?>
<modeling>
 <generator>
  <i name="program" type="string">vasp </i>
  <i name="version" type="string">5.4.4.18Apr17-6-g9f103f2a35  </i>
  <i name="subversion" type="string">(build Aug 16 2020 16:33:06) complex            parallel </i>
  <i name="platform" type="string">LinuxIFC </i>
  <i name="date" type="string">2026 08 15 </i>
  <i name="time" type="string">15:51:58 </i>
 </generator>
 <incar>
  <i type="string" name="PREC">accurate</i>
  <i type="logical" name="ADDGRID"> T  </i>
  <i type="int" name="IBRION">    -1</i>
  <i name="EDIFF">      0.00000001</i>
  <i type="int" name="ISYM">     0</i>
  <i name="ENCUT">    500.00000000</i>
  <i type="logical" name="LREAL"> F  </i>
  <i type="int" name="ISMEAR">     0</i>
  <i name="SIGMA">      0.05000000</i>
  <i type="logical" name="LWAVE"> F  </i>
  <i type="logical" name="LCHARG"> F  </i>
  <v type="int" name="KPOINT_BSE">    -1     0     0     0</v>
 </incar>
 <structure name="primitive_cell" >
  <crystal>
   <varray name="basis" >
    <v>       0.00000000      10.93716070      10.93716070 </v>
    <v>      10.93716070       0.00000000      10.93716070 </v>
    <v>      10.93716070      10.93716070       0.00000000 </v>
   </varray>
   <i name="volume">   2616.63878844 </i>
   <varray name="rec_basis" >
    <v>      -0.04571570       0.04571570       0.04571570 </v>
    <v>       0.04571570      -0.04571570       0.04571570 </v>
    <v>       0.04571570       0.04571570      -0.04571570 </v>
   </varray>
  </crystal>
  <varray name="positions" >
   <v>       0.06204284       0.06295716       0.06295716 </v>
   <v>       0.00000000       0.25000000       0.00000000 </v>
   <v>       0.00000000       0.00000000       0.25000000 </v>
   <v>       0.00000000       0.00000000       0.00000000 </v>
   <v>       0.25000000       0.00000000       0.00000000 </v>
   <v>       0.06250000       0.31250000       0.06250000 </v>
   <v>      -0.18750000       0.31250000       0.06250000 </v>
   <v>       0.06250000       0.06250000       0.31250000 </v>
   <v>      -0.18750000       0.06250000       0.31250000 </v>
   <v>       0.31204284       0.06295716       0.06204284 </v>
   <v>      -0.18750000       0.06250000       0.06250000 </v>
   <v>       0.06250000      -0.18750000       0.31250000 </v>
   <v>       0.06250000       0.31250000      -0.18750000 </v>
   <v>       0.06250000      -0.18750000       0.06250000 </v>
   <v>       0.31250000      -0.18750000       0.06250000 </v>
   <v>       0.06250000       0.06250000      -0.18750000 </v>
   <v>       0.31250000       0.06250000      -0.18750000 </v>
   <v>       0.00000000       0.25000000       0.25000000 </v>
   <v>      -0.25000000       0.25000000       0.25000000 </v>
   <v>       0.25000000       0.25000000       0.00000000 </v>
   <v>      -0.25000000       0.25000000       0.00000000 </v>
   <v>       0.25000000       0.00000000       0.25000000 </v>
   <v>      -0.25000000       0.00000000       0.25000000 </v>
   <v>       0.25000000      -0.25000000       0.25000000 </v>
   <v>       0.25000000       0.25000000      -0.25000000 </v>
   <v>       0.00000000      -0.25000000       0.25000000 </v>
   <v>       0.00000000       0.25000000      -0.25000000 </v>
   <v>       0.25000000      -0.25000000       0.00000000 </v>
   <v>       0.25000000       0.00000000      -0.25000000 </v>
   <v>      -0.18750000       0.31250000       0.31250000 </v>
   <v>       0.31250000      -0.18750000       0.31250000 </v>
   <v>      -0.18750000      -0.18750000       0.31250000 </v>
   <v>       0.31250000       0.31250000      -0.18750000 </v>
   <v>      -0.18750000       0.31250000      -0.18750000 </v>
   <v>       0.31250000      -0.18750000      -0.18750000 </v>
   <v>       0.00000000      -0.50000000       0.00000000 </v>
   <v>      -0.25000000      -0.50000000       0.00000000 </v>
   <v>       0.00000000       0.00000000      -0.50000000 </v>
   <v>      -0.25000000       0.00000000      -0.50000000 </v>
   <v>       0.00000000      -0.25000000      -0.50000000 </v>
   <v>       0.00000000      -0.50000000      -0.25000000 </v>
   <v>      -0.50000000       0.00000000       0.00000000 </v>
   <v>      -0.25000000       0.00000000       0.00000000 </v>
   <v>      -0.50000000      -0.25000000       0.00000000 </v>
   <v>      -0.50000000       0.00000000      -0.25000000 </v>
   <v>       0.00000000      -0.25000000       0.00000000 </v>
   <v>       0.00000000       0.00000000      -0.25000000 </v>
   <v>      -0.18750000      -0.43750000       0.06250000 </v>
   <v>       0.06250000       0.31250000       0.31250000 </v>
   <v>      -0.43750000       0.31250000       0.31250000 </v>
   <v>      -0.18750000       0.06250000      -0.43750000 </v>
   <v>      -0.43750000       0.31250000       0.06250000 </v>
   <v>       0.31250000       0.06250000       0.31250000 </v>
   <v>       0.06250000      -0.18750000      -0.43750000 </v>
   <v>      -0.18750000      -0.43750000      -0.18750000 </v>
   <v>       0.31250000       0.31250000       0.06250000 </v>
   <v>      -0.43750000       0.06250000       0.31250000 </v>
   <v>      -0.18750000      -0.18750000      -0.43750000 </v>
   <v>       0.06250000      -0.43750000      -0.18750000 </v>
   <v>      -0.43750000      -0.18750000       0.06250000 </v>
   <v>      -0.18750000      -0.18750000       0.06250000 </v>
   <v>       0.06250000      -0.43750000       0.31250000 </v>
   <v>       0.31250000      -0.43750000       0.31250000 </v>
   <v>       0.06250000       0.31250000      -0.43750000 </v>
   <v>       0.31250000       0.31250000      -0.43750000 </v>
   <v>      -0.43750000       0.06250000      -0.18750000 </v>
   <v>      -0.18750000       0.06250000      -0.18750000 </v>
   <v>       0.31250000      -0.43750000       0.06250000 </v>
   <v>       0.31250000       0.06250000      -0.43750000 </v>
   <v>       0.06250000      -0.18750000      -0.18750000 </v>
   <v>      -0.43750000      -0.18750000      -0.18750000 </v>
   <v>      -0.25000000      -0.50000000       0.25000000 </v>
   <v>      -0.25000000       0.25000000      -0.50000000 </v>
   <v>       0.25000000       0.25000000       0.25000000 </v>
   <v>      -0.50000000       0.25000000       0.25000000 </v>
   <v>       0.25000000      -0.25000000      -0.50000000 </v>
   <v>       0.25000000      -0.50000000      -0.25000000 </v>
   <v>      -0.25000000      -0.25000000      -0.50000000 </v>
   <v>      -0.25000000      -0.50000000      -0.25000000 </v>
   <v>      -0.50000000       0.25000000      -0.25000000 </v>
   <v>      -0.50000000      -0.25000000       0.25000000 </v>
   <v>      -0.25000000      -0.25000000       0.25000000 </v>
   <v>      -0.25000000       0.25000000      -0.25000000 </v>
   <v>       0.25000000       0.25000000      -0.50000000 </v>
   <v>       0.25000000      -0.50000000       0.25000000 </v>
   <v>       0.25000000      -0.25000000      -0.25000000 </v>
   <v>      -0.50000000      -0.25000000      -0.25000000 </v>
   <v>       0.06250000      -0.43750000       0.06250000 </v>
   <v>      -0.43750000      -0.43750000       0.06250000 </v>
   <v>       0.06250000       0.06250000      -0.43750000 </v>
   <v>      -0.43750000       0.06250000      -0.43750000 </v>
   <v>      -0.43750000       0.06250000       0.06250000 </v>
   <v>       0.06250000      -0.43750000      -0.43750000 </v>
   <v>       0.00000000      -0.50000000       0.25000000 </v>
   <v>       0.00000000       0.25000000      -0.50000000 </v>
   <v>      -0.50000000      -0.50000000       0.25000000 </v>
   <v>      -0.50000000       0.25000000      -0.50000000 </v>
   <v>       0.25000000      -0.50000000       0.00000000 </v>
   <v>      -0.50000000      -0.50000000       0.00000000 </v>
   <v>       0.25000000       0.00000000      -0.50000000 </v>
   <v>      -0.50000000       0.00000000      -0.50000000 </v>
   <v>      -0.50000000       0.25000000       0.00000000 </v>
   <v>      -0.50000000       0.00000000       0.25000000 </v>
   <v>       0.00000000      -0.50000000      -0.50000000 </v>
   <v>       0.25000000      -0.50000000      -0.50000000 </v>
   <v>      -0.43750000      -0.43750000       0.31250000 </v>
   <v>      -0.18750000      -0.43750000       0.31250000 </v>
   <v>      -0.43750000       0.31250000      -0.43750000 </v>
   <v>      -0.18750000       0.31250000      -0.43750000 </v>
   <v>       0.31250000      -0.18750000      -0.43750000 </v>
   <v>      -0.43750000      -0.18750000      -0.43750000 </v>
   <v>       0.31250000      -0.43750000      -0.18750000 </v>
   <v>      -0.43750000      -0.43750000      -0.18750000 </v>
   <v>      -0.43750000      -0.18750000       0.31250000 </v>
   <v>       0.31250000      -0.43750000      -0.43750000 </v>
   <v>      -0.18750000      -0.43750000      -0.43750000 </v>
   <v>      -0.43750000       0.31250000      -0.18750000 </v>
   <v>      -0.25000000      -0.25000000       0.00000000 </v>
   <v>      -0.25000000       0.00000000      -0.25000000 </v>
   <v>       0.00000000      -0.25000000      -0.25000000 </v>
   <v>      -0.25000000      -0.25000000      -0.25000000 </v>
   <v>       0.31250000       0.31250000       0.31250000 </v>
   <v>      -0.18750000      -0.18750000      -0.18750000 </v>
   <v>      -0.50000000      -0.50000000      -0.50000000 </v>
   <v>      -0.25000000      -0.50000000      -0.50000000 </v>
   <v>      -0.50000000      -0.25000000      -0.50000000 </v>
   <v>      -0.50000000      -0.50000000      -0.25000000 </v>
   <v>      -0.43750000      -0.43750000      -0.43750000 </v>
  </varray>
 </structure>
 <varray name="primitive_index" >
  <v type="int" >        1 </v>
  <v type="int" >       69 </v>
  <v type="int" >       81 </v>
  <v type="int" >       65 </v>
  <v type="int" >       66 </v>
  <v type="int" >        5 </v>
  <v type="int" >        8 </v>
  <v type="int" >       17 </v>
  <v type="int" >       20 </v>
  <v type="int" >        2 </v>
  <v type="int" >        4 </v>
  <v type="int" >       29 </v>
  <v type="int" >       53 </v>
  <v type="int" >       13 </v>
  <v type="int" >       14 </v>
  <v type="int" >       49 </v>
  <v type="int" >       50 </v>
  <v type="int" >       85 </v>
  <v type="int" >       88 </v>
  <v type="int" >       70 </v>
  <v type="int" >       72 </v>
  <v type="int" >       82 </v>
  <v type="int" >       84 </v>
  <v type="int" >       94 </v>
  <v type="int" >      118 </v>
  <v type="int" >       93 </v>
  <v type="int" >      117 </v>
  <v type="int" >       78 </v>
  <v type="int" >      114 </v>
  <v type="int" >       24 </v>
  <v type="int" >       30 </v>
  <v type="int" >       32 </v>
  <v type="int" >       54 </v>
  <v type="int" >       56 </v>
  <v type="int" >       62 </v>
  <v type="int" >       73 </v>
  <v type="int" >       76 </v>
  <v type="int" >       97 </v>
  <v type="int" >      100 </v>
  <v type="int" >      109 </v>
  <v type="int" >      121 </v>
  <v type="int" >       67 </v>
  <v type="int" >       68 </v>
  <v type="int" >       79 </v>
  <v type="int" >      115 </v>
  <v type="int" >       77 </v>
  <v type="int" >      113 </v>
  <v type="int" >       12 </v>
  <v type="int" >       21 </v>
  <v type="int" >       23 </v>
  <v type="int" >       36 </v>
  <v type="int" >        7 </v>
  <v type="int" >       18 </v>
  <v type="int" >       45 </v>
  <v type="int" >       60 </v>
  <v type="int" >        6 </v>
  <v type="int" >       19 </v>
  <v type="int" >       48 </v>
  <v type="int" >       57 </v>
  <v type="int" >       15 </v>
  <v type="int" >       16 </v>
  <v type="int" >       25 </v>
  <v type="int" >       26 </v>
  <v type="int" >       37 </v>
  <v type="int" >       38 </v>
  <v type="int" >       51 </v>
  <v type="int" >       52 </v>
  <v type="int" >       10 </v>
  <v type="int" >       34 </v>
  <v type="int" >       61 </v>
  <v type="int" >       63 </v>
  <v type="int" >       92 </v>
  <v type="int" >      104 </v>
  <v type="int" >       86 </v>
  <v type="int" >       87 </v>
  <v type="int" >      110 </v>
  <v type="int" >      122 </v>
  <v type="int" >      112 </v>
  <v type="int" >      124 </v>
  <v type="int" >      119 </v>
  <v type="int" >       95 </v>
  <v type="int" >       96 </v>
  <v type="int" >      120 </v>
  <v type="int" >      102 </v>
  <v type="int" >       90 </v>
  <v type="int" >      126 </v>
  <v type="int" >      127 </v>
  <v type="int" >        9 </v>
  <v type="int" >       11 </v>
  <v type="int" >       33 </v>
  <v type="int" >       35 </v>
  <v type="int" >        3 </v>
  <v type="int" >       41 </v>
  <v type="int" >       89 </v>
  <v type="int" >      101 </v>
  <v type="int" >       91 </v>
  <v type="int" >      103 </v>
  <v type="int" >       74 </v>
  <v type="int" >       75 </v>
  <v type="int" >       98 </v>
  <v type="int" >       99 </v>
  <v type="int" >       71 </v>
  <v type="int" >       83 </v>
  <v type="int" >      105 </v>
  <v type="int" >      106 </v>
  <v type="int" >       27 </v>
  <v type="int" >       28 </v>
  <v type="int" >       39 </v>
  <v type="int" >       40 </v>
  <v type="int" >       46 </v>
  <v type="int" >       47 </v>
  <v type="int" >       58 </v>
  <v type="int" >       59 </v>
  <v type="int" >       31 </v>
  <v type="int" >       42 </v>
  <v type="int" >       44 </v>
  <v type="int" >       55 </v>
  <v type="int" >       80 </v>
  <v type="int" >      116 </v>
  <v type="int" >      125 </v>
  <v type="int" >      128 </v>
  <v type="int" >       22 </v>
  <v type="int" >       64 </v>
  <v type="int" >      107 </v>
  <v type="int" >      108 </v>
  <v type="int" >      111 </v>
  <v type="int" >      123 </v>
  <v type="int" >       43 </v>
 </varray>
 <kpoints>
  <generation param="Gamma">
   <v type="int" name="divisions">       1        1        1 </v>
   <v name="usershift">      0.00000000       0.00000000       0.00000000 </v>
   <v name="genvec1">      1.00000000       0.00000000       0.00000000 </v>
   <v name="genvec2">      0.00000000       1.00000000       0.00000000 </v>
   <v name="genvec3">      0.00000000       0.00000000       1.00000000 </v>
   <v name="shift">      0.00000000       0.00000000       0.00000000 </v>
  </generation>
  <varray name="kpointlist" >
   <v>       0.00000000       0.00000000       0.00000000 </v>
  </varray>
  <varray name="weights" >
   <v>       1.00000000 </v>
  </varray>
 </kpoints>
 <parameters>
  <separator name="general" >
   <i type="string" name="SYSTEM">unknown system</i>
   <i type="logical" name="LCOMPAT"> F  </i>
  </separator>
  <separator name="electronic" >
   <i type="string" name="PREC">accura</i>
   <i name="ENMAX">    500.00000000</i>
   <i name="ENAUG">    322.06900000</i>
   <i name="EDIFF">      0.00000001</i>
   <i type="int" name="IALGO">    38</i>
   <i type="int" name="IWAVPR">    10</i>
   <i type="int" name="NBANDS">   322</i>
   <i name="NELECT">    512.00000000</i>
   <i type="int" name="TURBO">     0</i>
   <i type="int" name="IRESTART">     0</i>
   <i type="int" name="NREBOOT">     0</i>
   <i type="int" name="NMIN">     0</i>
   <i name="EREF">      0.00000000</i>
   <separator name="electronic smearing" >
    <i type="int" name="ISMEAR">     0</i>
    <i name="SIGMA">      0.05000000</i>
    <i name="KSPACING">      0.50000000</i>
    <i type="logical" name="KGAMMA"> T  </i>
   </separator>
   <separator name="electronic projectors" >
    <i type="logical" name="LREAL"> F  </i>
    <v name="ROPT">      0.00000000</v>
    <i type="int" name="LMAXPAW">  -100</i>
    <i type="int" name="LMAXMIX">     2</i>
    <i type="logical" name="NLSPLINE"> F  </i>
   </separator>
   <separator name="electronic startup" >
    <i type="int" name="ISTART">     0</i>
    <i type="int" name="ICHARG">     2</i>
    <i type="int" name="INIWAV">     1</i>
   </separator>
   <separator name="electronic spin" >
    <i type="int" name="ISPIN">     1</i>
    <i type="logical" name="LNONCOLLINEAR"> F  </i>
    <v name="MAGMOM">      1.00000000      1.00000000      1.00000000      1.00000000      1.00000000      1.00000000      1.00000000      1.00000000      1.00000000      1.00000000      1.00000000      1.00000000      1.00000000      1.00000000      1.00000000      1.00000000      1.00000000      1.00000000      1.00000000      1.00000000
      1.00000000      1.00000000      1.00000000      1.00000000      1.00000000      1.00000000      1.00000000      1.00000000      1.00000000      1.00000000      1.00000000      1.00000000      1.00000000      1.00000000      1.00000000      1.00000000      1.00000000      1.00000000      1.00000000      1.00000000
      1.00000000      1.00000000      1.00000000      1.00000000      1.00000000      1.00000000      1.00000000      1.00000000      1.00000000      1.00000000      1.00000000      1.00000000      1.00000000      1.00000000      1.00000000      1.00000000      1.00000000      1.00000000      1.00000000      1.00000000
      1.00000000      1.00000000      1.00000000      1.00000000      1.00000000      1.00000000      1.00000000      1.00000000      1.00000000      1.00000000      1.00000000      1.00000000      1.00000000      1.00000000      1.00000000      1.00000000      1.00000000      1.00000000      1.00000000      1.00000000
      1.00000000      1.00000000      1.00000000      1.00000000      1.00000000      1.00000000      1.00000000      1.00000000      1.00000000      1.00000000      1.00000000      1.00000000      1.00000000      1.00000000      1.00000000      1.00000000      1.00000000      1.00000000      1.00000000      1.00000000
      1.00000000      1.00000000      1.00000000      1.00000000      1.00000000      1.00000000      1.00000000      1.00000000      1.00000000      1.00000000      1.00000000      1.00000000      1.00000000      1.00000000      1.00000000      1.00000000      1.00000000      1.00000000      1.00000000      1.00000000
      1.00000000      1.00000000      1.00000000      1.00000000      1.00000000      1.00000000      1.00000000      1.00000000</v>
    <i name="NUPDOWN">     -1.00000000</i>
    <i type="logical" name="LSORBIT"> F  </i>
    <v name="SAXIS">      0.00000000      0.00000000      1.00000000</v>
    <i type="logical" name="LSPIRAL"> F  </i>
    <v name="QSPIRAL">      0.00000000      0.00000000      0.00000000</v>
    <i type="logical" name="LZEROZ"> F  </i>
   </separator>
   <separator name="electronic exchange-correlation" >
    <i type="logical" name="LASPH"> F  </i>
    <i type="logical" name="LMETAGGA"> F  </i>
   </separator>
   <separator name="electronic convergence" >
    <i type="int" name="NELM">    60</i>
    <i type="int" name="NELMDL">    -5</i>
    <i type="int" name="NELMIN">     2</i>
    <i name="ENINI">    500.00000000</i>
    <separator name="electronic convergence detail" >
     <i type="logical" name="LDIAG"> T  </i>
     <i type="logical" name="LSUBROT"> F  </i>
     <i name="WEIMIN">      0.00000000</i>
     <i name="EBREAK">      0.00000000</i>
     <i name="DEPER">      0.30000000</i>
     <i type="int" name="NRMM">     4</i>
     <i name="TIME">      0.40000000</i>
    </separator>
   </separator>
   <separator name="electronic mixer" >
    <i name="AMIX">      0.40000000</i>
    <i name="BMIX">      1.00000000</i>
    <i name="AMIN">      0.10000000</i>
    <i name="AMIX_MAG">      1.60000000</i>
    <i name="BMIX_MAG">      1.00000000</i>
    <separator name="electronic mixer details" >
     <i type="int" name="IMIX">     4</i>
     <i type="logical" name="MIXFIRST"> F  </i>
     <i type="int" name="MAXMIX">   -45</i>
     <i name="WC">    100.00000000</i>
     <i type="int" name="INIMIX">     1</i>
     <i type="int" name="MIXPRE">     1</i>
     <i type="int" name="MREMOVE">     5</i>
    </separator>
   </separator>
   <separator name="electronic dipolcorrection" >
    <i type="logical" name="LDIPOL"> F  </i>
    <i type="logical" name="LMONO"> F  </i>
    <i type="int" name="IDIPOL">     0</i>
    <i name="EPSILON">      1.00000000</i>
    <v name="DIPOL">   -100.00000000   -100.00000000   -100.00000000</v>
    <i name="EFIELD">      0.00000000</i>
   </separator>
  </separator>
  <separator name="grids" >
   <i type="int" name="NGX">   120</i>
   <i type="int" name="NGY">   120</i>
   <i type="int" name="NGZ">   120</i>
   <i type="int" name="NGXF">   240</i>
   <i type="int" name="NGYF">   240</i>
   <i type="int" name="NGZF">   240</i>
   <i type="logical" name="ADDGRID"> T  </i>
  </separator>
  <separator name="ionic" >
   <i type="int" name="NSW">     0</i>
   <i type="int" name="IBRION">    -1</i>
   <i type="int" name="MDALGO">     0</i>
   <i type="int" name="ISIF">     2</i>
   <i name="PSTRESS">      0.00000000</i>
   <i name="EDIFFG">      0.00000010</i>
   <i type="int" name="NFREE">     0</i>
   <i name="POTIM">      0.50000000</i>
   <i name="SMASS">     -3.00000000</i>
   <i name="SCALEE">      1.00000000</i>
  </separator>
  <separator name="ionic md" >
   <i name="TEBEG">      0.00010000</i>
   <i name="TEEND">      0.00010000</i>
   <i type="int" name="NBLOCK">     1</i>
   <i type="int" name="KBLOCK">     1</i>
   <i type="int" name="NPACO">   256</i>
   <i name="APACO">     16.00000000</i>
  </separator>
  <separator name="symmetry" >
   <i type="int" name="ISYM">     0</i>
   <i name="SYMPREC">      0.00001000</i>
  </separator>
  <separator name="dos" >
   <i type="int" name="LORBIT">     0</i>
   <v name="RWIGS">     -1.00000000</v>
   <i type="int" name="NEDOS">   301</i>
   <i name="EMIN">     10.00000000</i>
   <i name="EMAX">    -10.00000000</i>
   <i name="EFERMI">      0.00000000</i>
  </separator>
  <separator name="writing" >
   <i type="int" name="NWRITE">     2</i>
   <i type="logical" name="LWAVE"> F  </i>
   <i type="logical" name="LDOWNSAMPLE"> F  </i>
   <i type="logical" name="LCHARG"> F  </i>
   <i type="logical" name="LPARD"> F  </i>
   <i type="logical" name="LVTOT"> F  </i>
   <i type="logical" name="LVHAR"> F  </i>
   <i type="logical" name="LELF"> F  </i>
   <i type="logical" name="LOPTICS"> F  </i>
   <v name="STM">      0.00000000      0.00000000      0.00000000      0.00000000      0.00000000      0.00000000      0.00000000</v>
  </separator>
  <separator name="performance" >
   <i type="int" name="NPAR">     2</i>
   <i type="int" name="NSIM">     4</i>
   <i type="int" name="NBLK">    -1</i>
   <i type="logical" name="LPLANE"> T  </i>
   <i type="logical" name="LSCALAPACK"> T  </i>
   <i type="logical" name="LSCAAWARE"> F  </i>
   <i type="logical" name="LSCALU"> F  </i>
   <i type="logical" name="LASYNC"> F  </i>
   <i type="logical" name="LORBITALREAL"> F  </i>
  </separator>
  <separator name="miscellaneous" >
   <i type="int" name="IDIOT">     3</i>
   <i type="int" name="ISPECIAL">     0</i>
   <i type="logical" name="LMUSIC"> F  </i>
   <v name="POMASS">     28.08500000</v>
   <v name="DARWINR">      0.00000000</v>
   <v name="DARWINV">      1.00000000</v>
   <i type="logical" name="LCORR"> T  </i>
  </separator>
  <i type="logical" name="GGA_COMPAT"> T  </i>
  <i type="logical" name="LBERRY"> F  </i>
  <i type="int" name="ICORELEVEL">     0</i>
  <i type="logical" name="LDAU"> F  </i>
  <i type="int" name="I_CONSTRAINED_M">     0</i>
  <separator name="electronic exchange-correlation" >
   <i type="string" name="GGA">--</i>
   <i type="int" name="VOSKOWN">     0</i>
   <i type="logical" name="LHFCALC"> F  </i>
   <i type="string" name="PRECFOCK"></i>
   <i type="logical" name="LSYMGRAD"> F  </i>
   <i type="logical" name="LHFONE"> F  </i>
   <i type="logical" name="LRHFCALC"> F  </i>
   <i type="logical" name="LTHOMAS"> F  </i>
   <i type="logical" name="LMODELHF"> F  </i>
   <i name="ENCUT4O">     -1.00000000</i>
   <i type="int" name="EXXOEP">     0</i>
   <i type="int" name="FOURORBIT">     0</i>
   <i name="AEXX">      0.00000000</i>
   <i name="HFALPHA">      0.00000000</i>
   <i name="MCALPHA">      0.00000000</i>
   <i name="ALDAX">      1.00000000</i>
   <i name="AGGAX">      1.00000000</i>
   <i name="ALDAC">      1.00000000</i>
   <i name="AGGAC">      1.00000000</i>
   <i type="int" name="NKREDX">     1</i>
   <i type="int" name="NKREDY">     1</i>
   <i type="int" name="NKREDZ">     1</i>
   <i type="logical" name="SHIFTRED"> F  </i>
   <i type="logical" name="ODDONLY"> F  </i>
   <i type="logical" name="EVENONLY"> F  </i>
   <i type="int" name="LMAXFOCK">     0</i>
   <i type="int" name="NMAXFOCKAE">     0</i>
   <i type="logical" name="LFOCKAEDFT"> F  </i>
   <i name="HFSCREEN">      0.00000000</i>
   <i name="HFSCREENC">      0.00000000</i>
   <i type="int" name="NBANDSGWLOW">     0</i>
  </separator>
  <separator name="vdW DFT" >
   <i type="logical" name="LUSE_VDW"> F  </i>
   <i name="Zab_VDW">     -0.84910000</i>
   <i name="PARAM1">      0.12340000</i>
   <i name="PARAM2">      1.00000000</i>
   <i name="PARAM3">      0.00000000</i>
  </separator>
  <separator name="model GW" >
   <i type="int" name="MODEL_GW">     0</i>
   <i name="MODEL_EPS0">     12.26549432</i>
   <i name="MODEL_ALPHA">      1.00000000</i>
  </separator>
  <separator name="linear response parameters" >
   <i type="logical" name="LEPSILON"> F  </i>
   <i type="logical" name="LRPA"> F  </i>
   <i type="logical" name="LNABLA"> F  </i>
   <i type="logical" name="LVEL"> F  </i>
   <i type="int" name="KINTER">     0</i>
   <i name="CSHIFT">      0.10000000</i>
   <i name="OMEGAMAX">     -1.00000000</i>
   <i name="DEG_THRESHOLD">      0.00200000</i>
   <i name="RTIME">     -0.10000000</i>
   <i name="WPLASMAI">      0.00000000</i>
   <v name="DFIELD">      0.00000000      0.00000000      0.00000000</v>
   <v name="WPLASMA">      0.00000000      0.00000000      0.00000000      0.00000000      0.00000000      0.00000000      0.00000000      0.00000000      0.00000000</v>
  </separator>
  <separator name="orbital magnetization" >
   <i type="logical" name="NUCIND"> F  </i>
   <v name="MAGPOS">      0.00000000      0.00000000      0.00000000</v>
   <i type="logical" name="LNICSALL"> T  </i>
   <i type="logical" name="ORBITALMAG"> F  </i>
   <i type="logical" name="LMAGBLOCH"> F  </i>
   <i type="logical" name="LCHIMAG"> F  </i>
   <i type="logical" name="LGAUGE"> T  </i>
   <i type="int" name="MAGATOM">     0</i>
   <v name="MAGDIPOL">      0.00000000      0.00000000      0.00000000</v>
   <v name="AVECCONST">      0.00000000      0.00000000      0.00000000</v>
  </separator>
  <separator name="response functions" >
   <i type="logical" name="LADDER"> F  </i>
   <i type="logical" name="LRPAFORCE"> F  </i>
   <i type="logical" name="LFXC"> F  </i>
   <i type="logical" name="LHARTREE"> T  </i>
   <i type="int" name="IBSE">     0</i>
   <v type="int" name="KPOINT">    -1     0     0     0</v>
   <i type="logical" name="LTCTE"> F  </i>
   <i type="logical" name="LTETE"> F  </i>
   <i type="logical" name="LTRIPLET"> F  </i>
   <i type="logical" name="LFXCEPS"> F  </i>
   <i type="logical" name="LFXHEG"> F  </i>
   <i type="int" name="NATURALO">     2</i>
   <i type="logical" name="L2ORDER"> F  </i>
   <i type="logical" name="LMP2LT"> F  </i>
   <i type="logical" name="LUSEW"> F  </i>
   <i name="ENCUTGW">     -2.00000000</i>
   <i name="ENCUTGWSOFT">     -2.00000000</i>
   <i name="ENCUTLF">     -1.00000000</i>
   <i type="int" name="LMAXMP2">    -1</i>
   <i name="SCISSOR">      0.00000000</i>
   <i type="int" name="NOMEGA">     0</i>
   <i type="int" name="NOMEGAR">     0</i>
   <i type="int" name="NBANDSGW">    -1</i>
   <i type="int" name="NBANDSO">    -1</i>
   <i type="int" name="NBANDSV">    -1</i>
   <i type="int" name="NELM">     1</i>
   <i type="int" name="NELMHF">     1</i>
   <i type="int" name="DIM">     3</i>
   <i type="int" name="ANTIRES">     0</i>
   <i name="OMEGAMAX">    -30.00000000</i>
   <i name="OMEGAMIN">    -30.00000000</i>
   <i name="OMEGATL">   -200.00000000</i>
   <i type="int" name="OMEGAGRID">   140</i>
   <i name="CSHIFT">     -0.10000000</i>
   <i type="logical" name="SELFENERGY"> F  </i>
   <i type="logical" name="LSPECTRAL"> F  </i>
   <i type="logical" name="LSPECTRALGW"> F  </i>
   <i type="logical" name="LSINGLES"> F  </i>
   <i type="logical" name="LFERMIGW"> F  </i>
   <i type="logical" name="ODDONLYGW"> F  </i>
   <i type="logical" name="EVENONLYGW"> F  </i>
   <i type="int" name="NKREDLFX">     1</i>
   <i type="int" name="NKREDLFY">     1</i>
   <i type="int" name="NKREDLFZ">     1</i>
   <i type="int" name="MAXMEM">  2800</i>
   <i type="int" name="TELESCOPE">     0</i>
   <i type="int" name="TAUPAR">     1</i>
   <i type="int" name="OMEGAPAR">    -1</i>
   <i name="LAMBDA">      1.00000000</i>
  </separator>
  <separator name="External order field" >
   <i name="OFIELD_KAPPA">      0.00000000</i>
   <v name="OFIELD_K">      0.00000000      0.00000000      0.00000000</v>
   <i name="OFIELD_Q6_NEAR">      0.00000000</i>
   <i name="OFIELD_Q6_FAR">      0.00000000</i>
   <i name="OFIELD_A">      0.00000000</i>
  </separator>
 </parameters>
 <atominfo>
  <atoms>     128 </atoms>
  <types>       1 </types>
  <array name="atoms" >
   <dimension dim="1">ion</dimension>
   <field type="string">element</field>
   <field type="int">atomtype</field>
   <set>
    <rc><c>Si</c><c>   1</c></rc>
    <rc><c>Si</c><c>   1</c></rc>
    <rc><c>Si</c><c>   1</c></rc>
    <rc><c>Si</c><c>   1</c></rc>
    <rc><c>Si</c><c>   1</c></rc>
    <rc><c>Si</c><c>   1</c></rc>
    <rc><c>Si</c><c>   1</c></rc>
    <rc><c>Si</c><c>   1</c></rc>
    <rc><c>Si</c><c>   1</c></rc>
    <rc><c>Si</c><c>   1</c></rc>
    <rc><c>Si</c><c>   1</c></rc>
    <rc><c>Si</c><c>   1</c></rc>
    <rc><c>Si</c><c>   1</c></rc>
    <rc><c>Si</c><c>   1</c></rc>
    <rc><c>Si</c><c>   1</c></rc>
    <rc><c>Si</c><c>   1</c></rc>
    <rc><c>Si</c><c>   1</c></rc>
    <rc><c>Si</c><c>   1</c></rc>
    <rc><c>Si</c><c>   1</c></rc>
    <rc><c>Si</c><c>   1</c></rc>
    <rc><c>Si</c><c>   1</c></rc>
    <rc><c>Si</c><c>   1</c></rc>
    <rc><c>Si</c><c>   1</c></rc>
    <rc><c>Si</c><c>   1</c></rc>
    <rc><c>Si</c><c>   1</c></rc>
    <rc><c>Si</c><c>   1</c></rc>
    <rc><c>Si</c><c>   1</c></rc>
    <rc><c>Si</c><c>   1</c></rc>
    <rc><c>Si</c><c>   1</c></rc>
    <rc><c>Si</c><c>   1</c></rc>
    <rc><c>Si</c><c>   1</c></rc>
    <rc><c>Si</c><c>   1</c></rc>
    <rc><c>Si</c><c>   1</c></rc>
    <rc><c>Si</c><c>   1</c></rc>
    <rc><c>Si</c><c>   1</c></rc>
    <rc><c>Si</c><c>   1</c></rc>
    <rc><c>Si</c><c>   1</c></rc>
    <rc><c>Si</c><c>   1</c></rc>
    <rc><c>Si</c><c>   1</c></rc>
    <rc><c>Si</c><c>   1</c></rc>
    <rc><c>Si</c><c>   1</c></rc>
    <rc><c>Si</c><c>   1</c></rc>
    <rc><c>Si</c><c>   1</c></rc>
    <rc><c>Si</c><c>   1</c></rc>
    <rc><c>Si</c><c>   1</c></rc>
    <rc><c>Si</c><c>   1</c></rc>
    <rc><c>Si</c><c>   1</c></rc>
    <rc><c>Si</c><c>   1</c></rc>
    <rc><c>Si</c><c>   1</c></rc>
    <rc><c>Si</c><c>   1</c></rc>
    <rc><c>Si</c><c>   1</c></rc>
    <rc><c>Si</c><c>   1</c></rc>
    <rc><c>Si</c><c>   1</c></rc>
    <rc><c>Si</c><c>   1</c></rc>
    <rc><c>Si</c><c>   1</c></rc>
    <rc><c>Si</c><c>   1</c></rc>
    <rc><c>Si</c><c>   1</c></rc>
    <rc><c>Si</c><c>   1</c></rc>
    <rc><c>Si</c><c>   1</c></rc>
    <rc><c>Si</c><c>   1</c></rc>
    <rc><c>Si</c><c>   1</c></rc>
    <rc><c>Si</c><c>   1</c></rc>
    <rc><c>Si</c><c>   1</c></rc>
    <rc><c>Si</c><c>   1</c></rc>
    <rc><c>Si</c><c>   1</c></rc>
    <rc><c>Si</c><c>   1</c></rc>
    <rc><c>Si</c><c>   1</c></rc>
    <rc><c>Si</c><c>   1</c></rc>
    <rc><c>Si</c><c>   1</c></rc>
    <rc><c>Si</c><c>   1</c></rc>
    <rc><c>Si</c><c>   1</c></rc>
    <rc><c>Si</c><c>   1</c></rc>
    <rc><c>Si</c><c>   1</c></rc>
    <rc><c>Si</c><c>   1</c></rc>
    <rc><c>Si</c><c>   1</c></rc>
    <rc><c>Si</c><c>   1</c></rc>
    <rc><c>Si</c><c>   1</c></rc>
    <rc><c>Si</c><c>   1</c></rc>
    <rc><c>Si</c><c>   1</c></rc>
    <rc><c>Si</c><c>   1</c></rc>
    <rc><c>Si</c><c>   1</c></rc>
    <rc><c>Si</c><c>   1</c></rc>
    <rc><c>Si</c><c>   1</c></rc>
    <rc><c>Si</c><c>   1</c></rc>
    <rc><c>Si</c><c>   1</c></rc>
    <rc><c>Si</c><c>   1</c></rc>
    <rc><c>Si</c><c>   1</c></rc>
    <rc><c>Si</c><c>   1</c></rc>
    <rc><c>Si</c><c>   1</c></rc>
    <rc><c>Si</c><c>   1</c></rc>
    <rc><c>Si</c><c>   1</c></rc>
    <rc><c>Si</c><c>   1</c></rc>
    <rc><c>Si</c><c>   1</c></rc>
    <rc><c>Si</c><c>   1</c></rc>
    <rc><c>Si</c><c>   1</c></rc>
    <rc><c>Si</c><c>   1</c></rc>
    <rc><c>Si</c><c>   1</c></rc>
    <rc><c>Si</c><c>   1</c></rc>
    <rc><c>Si</c><c>   1</c></rc>
    <rc><c>Si</c><c>   1</c></rc>
    <rc><c>Si</c><c>   1</c></rc>
    <rc><c>Si</c><c>   1</c></rc>
    <rc><c>Si</c><c>   1</c></rc>
    <rc><c>Si</c><c>   1</c></rc>
    <rc><c>Si</c><c>   1</c></rc>
    <rc><c>Si</c><c>   1</c></rc>
    <rc><c>Si</c><c>   1</c></rc>
    <rc><c>Si</c><c>   1</c></rc>
    <rc><c>Si</c><c>   1</c></rc>
    <rc><c>Si</c><c>   1</c></rc>
    <rc><c>Si</c><c>   1</c></rc>
    <rc><c>Si</c><c>   1</c></rc>
    <rc><c>Si</c><c>   1</c></rc>
    <rc><c>Si</c><c>   1</c></rc>
    <rc><c>Si</c><c>   1</c></rc>
    <rc><c>Si</c><c>   1</c></rc>
    <rc><c>Si</c><c>   1</c></rc>
    <rc><c>Si</c><c>   1</c></rc>
    <rc><c>Si</c><c>   1</c></rc>
    <rc><c>Si</c><c>   1</c></rc>
    <rc><c>Si</c><c>   1</c></rc>
    <rc><c>Si</c><c>   1</c></rc>
    <rc><c>Si</c><c>   1</c></rc>
    <rc><c>Si</c><c>   1</c></rc>
    <rc><c>Si</c><c>   1</c></rc>
    <rc><c>Si</c><c>   1</c></rc>
    <rc><c>Si</c><c>   1</c></rc>
    <rc><c>Si</c><c>   1</c></rc>
   </set>
  </array>
  <array name="atomtypes" >
   <dimension dim="1">type</dimension>
   <field type="int">atomspertype</field>
   <field type="string">element</field>
   <field>mass</field>
   <field>valence</field>
   <field type="string">pseudopotential</field>
   <set>
    <rc><c> 128</c><c>Si</c><c>     28.08500000</c><c>      4.00000000</c><c> PAW_PBE Si 05Jan2001                   </c></rc>
   </set>
  </array>
 </atominfo>
 <structure name="initialpos" >
  <crystal>
   <varray name="basis" >
    <v>       0.00000000      10.93716070      10.93716070 </v>
    <v>      10.93716070       0.00000000      10.93716070 </v>
    <v>      10.93716070      10.93716070       0.00000000 </v>
   </varray>
   <i name="volume">   2616.63878844 </i>
   <varray name="rec_basis" >
    <v>      -0.04571570       0.04571570       0.04571570 </v>
    <v>       0.04571570      -0.04571570       0.04571570 </v>
    <v>       0.04571570       0.04571570      -0.04571570 </v>
   </varray>
  </crystal>
  <varray name="positions" >
   <v>       0.06204284       0.06295716       0.06295716 </v>
   <v>       0.31204284       0.06295716       0.06204284 </v>
   <v>       0.56250000       0.06250000       0.06250000 </v>
   <v>       0.81250000       0.06250000       0.06250000 </v>
   <v>       0.06250000       0.31250000       0.06250000 </v>
   <v>       0.31250000       0.31250000       0.06250000 </v>
   <v>       0.56250000       0.31250000       0.06250000 </v>
   <v>       0.81250000       0.31250000       0.06250000 </v>
   <v>       0.06250000       0.56250000       0.06250000 </v>
   <v>       0.31250000       0.56250000       0.06250000 </v>
   <v>       0.56250000       0.56250000       0.06250000 </v>
   <v>       0.81250000       0.56250000       0.06250000 </v>
   <v>       0.06250000       0.81250000       0.06250000 </v>
   <v>       0.31250000       0.81250000       0.06250000 </v>
   <v>       0.56250000       0.81250000       0.06250000 </v>
   <v>       0.81250000       0.81250000       0.06250000 </v>
   <v>       0.06250000       0.06250000       0.31250000 </v>
   <v>       0.31250000       0.06250000       0.31250000 </v>
   <v>       0.56250000       0.06250000       0.31250000 </v>
   <v>       0.81250000       0.06250000       0.31250000 </v>
   <v>       0.06250000       0.31250000       0.31250000 </v>
   <v>       0.31250000       0.31250000       0.31250000 </v>
   <v>       0.56250000       0.31250000       0.31250000 </v>
   <v>       0.81250000       0.31250000       0.31250000 </v>
   <v>       0.06250000       0.56250000       0.31250000 </v>
   <v>       0.31250000       0.56250000       0.31250000 </v>
   <v>       0.56250000       0.56250000       0.31250000 </v>
   <v>       0.81250000       0.56250000       0.31250000 </v>
   <v>       0.06250000       0.81250000       0.31250000 </v>
   <v>       0.31250000       0.81250000       0.31250000 </v>
   <v>       0.56250000       0.81250000       0.31250000 </v>
   <v>       0.81250000       0.81250000       0.31250000 </v>
   <v>       0.06250000       0.06250000       0.56250000 </v>
   <v>       0.31250000       0.06250000       0.56250000 </v>
   <v>       0.56250000       0.06250000       0.56250000 </v>
   <v>       0.81250000       0.06250000       0.56250000 </v>
   <v>       0.06250000       0.31250000       0.56250000 </v>
   <v>       0.31250000       0.31250000       0.56250000 </v>
   <v>       0.56250000       0.31250000       0.56250000 </v>
   <v>       0.81250000       0.31250000       0.56250000 </v>
   <v>       0.06250000       0.56250000       0.56250000 </v>
   <v>       0.31250000       0.56250000       0.56250000 </v>
   <v>       0.56250000       0.56250000       0.56250000 </v>
   <v>       0.81250000       0.56250000       0.56250000 </v>
   <v>       0.06250000       0.81250000       0.56250000 </v>
   <v>       0.31250000       0.81250000       0.56250000 </v>
   <v>       0.56250000       0.81250000       0.56250000 </v>
   <v>       0.81250000       0.81250000       0.56250000 </v>
   <v>       0.06250000       0.06250000       0.81250000 </v>
   <v>       0.31250000       0.06250000       0.81250000 </v>
   <v>       0.56250000       0.06250000       0.81250000 </v>
   <v>       0.81250000       0.06250000       0.81250000 </v>
   <v>       0.06250000       0.31250000       0.81250000 </v>
   <v>       0.31250000       0.31250000       0.81250000 </v>
   <v>       0.56250000       0.31250000       0.81250000 </v>
   <v>       0.81250000       0.31250000       0.81250000 </v>
   <v>       0.06250000       0.56250000       0.81250000 </v>
   <v>       0.31250000       0.56250000       0.81250000 </v>
   <v>       0.56250000       0.56250000       0.81250000 </v>
   <v>       0.81250000       0.56250000       0.81250000 </v>
   <v>       0.06250000       0.81250000       0.81250000 </v>
   <v>       0.31250000       0.81250000       0.81250000 </v>
   <v>       0.56250000       0.81250000       0.81250000 </v>
   <v>       0.81250000       0.81250000       0.81250000 </v>
   <v>       0.00000000       0.00000000       0.00000000 </v>
   <v>       0.25000000       0.00000000       0.00000000 </v>
   <v>       0.50000000       0.00000000       0.00000000 </v>
   <v>       0.75000000       0.00000000       0.00000000 </v>
   <v>       0.00000000       0.25000000       0.00000000 </v>
   <v>       0.25000000       0.25000000       0.00000000 </v>
   <v>       0.50000000       0.25000000       0.00000000 </v>
   <v>       0.75000000       0.25000000       0.00000000 </v>
   <v>       0.00000000       0.50000000       0.00000000 </v>
   <v>       0.25000000       0.50000000       0.00000000 </v>
   <v>       0.50000000       0.50000000       0.00000000 </v>
   <v>       0.75000000       0.50000000       0.00000000 </v>
   <v>       0.00000000       0.75000000       0.00000000 </v>
   <v>       0.25000000       0.75000000       0.00000000 </v>
   <v>       0.50000000       0.75000000       0.00000000 </v>
   <v>       0.75000000       0.75000000       0.00000000 </v>
   <v>       0.00000000       0.00000000       0.25000000 </v>
   <v>       0.25000000       0.00000000       0.25000000 </v>
   <v>       0.50000000       0.00000000       0.25000000 </v>
   <v>       0.75000000       0.00000000       0.25000000 </v>
   <v>       0.00000000       0.25000000       0.25000000 </v>
   <v>       0.25000000       0.25000000       0.25000000 </v>
   <v>       0.50000000       0.25000000       0.25000000 </v>
   <v>       0.75000000       0.25000000       0.25000000 </v>
   <v>       0.00000000       0.50000000       0.25000000 </v>
   <v>       0.25000000       0.50000000       0.25000000 </v>
   <v>       0.50000000       0.50000000       0.25000000 </v>
   <v>       0.75000000       0.50000000       0.25000000 </v>
   <v>       0.00000000       0.75000000       0.25000000 </v>
   <v>       0.25000000       0.75000000       0.25000000 </v>
   <v>       0.50000000       0.75000000       0.25000000 </v>
   <v>       0.75000000       0.75000000       0.25000000 </v>
   <v>       0.00000000       0.00000000       0.50000000 </v>
   <v>       0.25000000       0.00000000       0.50000000 </v>
   <v>       0.50000000       0.00000000       0.50000000 </v>
   <v>       0.75000000       0.00000000       0.50000000 </v>
   <v>       0.00000000       0.25000000       0.50000000 </v>
   <v>       0.25000000       0.25000000       0.50000000 </v>
   <v>       0.50000000       0.25000000       0.50000000 </v>
   <v>       0.75000000       0.25000000       0.50000000 </v>
   <v>       0.00000000       0.50000000       0.50000000 </v>
   <v>       0.25000000       0.50000000       0.50000000 </v>
   <v>       0.50000000       0.50000000       0.50000000 </v>
   <v>       0.75000000       0.50000000       0.50000000 </v>
   <v>       0.00000000       0.75000000       0.50000000 </v>
   <v>       0.25000000       0.75000000       0.50000000 </v>
   <v>       0.50000000       0.75000000       0.50000000 </v>
   <v>       0.75000000       0.75000000       0.50000000 </v>
   <v>       0.00000000       0.00000000       0.75000000 </v>
   <v>       0.25000000       0.00000000       0.75000000 </v>
   <v>       0.50000000       0.00000000       0.75000000 </v>
   <v>       0.75000000       0.00000000       0.75000000 </v>
   <v>       0.00000000       0.25000000       0.75000000 </v>
   <v>       0.25000000       0.25000000       0.75000000 </v>
   <v>       0.50000000       0.25000000       0.75000000 </v>
   <v>       0.75000000       0.25000000       0.75000000 </v>
   <v>       0.00000000       0.50000000       0.75000000 </v>
   <v>       0.25000000       0.50000000       0.75000000 </v>
   <v>       0.50000000       0.50000000       0.75000000 </v>
   <v>       0.75000000       0.50000000       0.75000000 </v>
   <v>       0.00000000       0.75000000       0.75000000 </v>
   <v>       0.25000000       0.75000000       0.75000000 </v>
   <v>       0.50000000       0.75000000       0.75000000 </v>
   <v>       0.75000000       0.75000000       0.75000000 </v>
  </varray>
 </structure>
 <calculation>
  <scstep>
   <time name="dav">    4.82    4.84</time>
   <time name="total">    5.36    5.38</time>
   <energy>
    <i name="alphaZ">    210.78028765 </i>
    <i name="ewald"> -14524.86522100 </i>
    <i name="hartreedc">   -724.62052845 </i>
    <i name="XCdc">  -1195.83148030 </i>
    <i name="pawpsdc">   4221.13331941 </i>
    <i name="pawaedc">  -1969.18571412 </i>
    <i name="eentropy">     -0.01553545 </i>
    <i name="bandstr">   2165.01695050 </i>
    <i name="atom">  13192.48085998 </i>
    <i name="e_fr_energy">   1374.89293824 </i>
    <i name="e_wo_entrp">   1374.90847369 </i>
    <i name="e_0_energy">   1374.90070596 </i>
   </energy>
  </scstep>
  <scstep>
   <time name="dav">    5.46    5.48</time>
   <time name="total">    5.46    5.48</time>
   <energy>
    <i name="e_fr_energy">   -537.01997581 </i>
    <i name="e_wo_entrp">   -537.01997405 </i>
    <i name="e_0_energy">   -537.01997493 </i>
   </energy>
  </scstep>
  <scstep>
   <time name="dav">    5.51    5.52</time>
   <time name="total">    5.51    5.52</time>
   <energy>
    <i name="e_fr_energy">   -690.02360370 </i>
    <i name="e_wo_entrp">   -690.02360370 </i>
    <i name="e_0_energy">   -690.02360370 </i>
   </energy>
  </scstep>
  <scstep>
   <time name="dav">    5.41    5.43</time>
   <time name="total">    5.42    5.43</time>
   <energy>
    <i name="e_fr_energy">   -694.53316574 </i>
    <i name="e_wo_entrp">   -694.53316574 </i>
    <i name="e_0_energy">   -694.53316574 </i>
   </energy>
  </scstep>
  <scstep>
   <time name="dav">    5.45    5.47</time>
   <time name="total">    5.99    6.00</time>
   <energy>
    <i name="e_fr_energy">   -694.69877507 </i>
    <i name="e_wo_entrp">   -694.69877507 </i>
    <i name="e_0_energy">   -694.69877507 </i>
   </energy>
  </scstep>
  <scstep>
   <time name="dav">    5.05    5.06</time>
   <time name="total">    6.07    6.09</time>
   <energy>
    <i name="e_fr_energy">   -686.29984921 </i>
    <i name="e_wo_entrp">   -686.29984921 </i>
    <i name="e_0_energy">   -686.29984921 </i>
   </energy>
  </scstep>
  <scstep>
   <time name="dav">    4.98    4.99</time>
   <time name="total">    6.00    6.02</time>
   <energy>
    <i name="e_fr_energy">   -682.42696517 </i>
    <i name="e_wo_entrp">   -682.42696517 </i>
    <i name="e_0_energy">   -682.42696517 </i>
   </energy>
  </scstep>
  <scstep>
   <time name="dav">    5.05    5.06</time>
   <time name="total">    6.08    6.10</time>
   <energy>
    <i name="e_fr_energy">   -682.55903546 </i>
    <i name="e_wo_entrp">   -682.55903546 </i>
    <i name="e_0_energy">   -682.55903546 </i>
   </energy>
  </scstep>
  <scstep>
   <time name="dav">    5.50    5.52</time>
   <time name="total">    6.53    6.56</time>
   <energy>
    <i name="e_fr_energy">   -682.56549140 </i>
    <i name="e_wo_entrp">   -682.56549140 </i>
    <i name="e_0_energy">   -682.56549140 </i>
   </energy>
  </scstep>
  <scstep>
   <time name="dav">    4.97    4.99</time>
   <time name="total">    6.00    6.01</time>
   <energy>
    <i name="e_fr_energy">   -682.56817311 </i>
    <i name="e_wo_entrp">   -682.56817311 </i>
    <i name="e_0_energy">   -682.56817311 </i>
   </energy>
  </scstep>
  <scstep>
   <time name="dav">    5.46    5.48</time>
   <time name="total">    6.48    6.51</time>
   <energy>
    <i name="e_fr_energy">   -682.56818669 </i>
    <i name="e_wo_entrp">   -682.56818669 </i>
    <i name="e_0_energy">   -682.56818669 </i>
   </energy>
  </scstep>
  <scstep>
   <time name="dav">    5.28    5.29</time>
   <time name="total">    6.30    6.32</time>
   <energy>
    <i name="e_fr_energy">   -682.56819115 </i>
    <i name="e_wo_entrp">   -682.56819115 </i>
    <i name="e_0_energy">   -682.56819115 </i>
   </energy>
  </scstep>
  <scstep>
   <time name="dav">    5.41    5.42</time>
   <time name="total">    6.43    6.44</time>
   <energy>
    <i name="e_fr_energy">   -682.56818716 </i>
    <i name="e_wo_entrp">   -682.56818716 </i>
    <i name="e_0_energy">   -682.56818716 </i>
   </energy>
  </scstep>
  <scstep>
   <time name="dav">    5.22    5.24</time>
   <time name="total">    6.26    6.28</time>
   <energy>
    <i name="e_fr_energy">   -682.56818792 </i>
    <i name="e_wo_entrp">   -682.56818792 </i>
    <i name="e_0_energy">   -682.56818792 </i>
   </energy>
  </scstep>
  <scstep>
   <time name="dav">    3.90    3.91</time>
   <time name="total">    4.92    4.94</time>
   <energy>
    <i name="e_fr_energy">   -682.56818689 </i>
    <i name="e_wo_entrp">   -682.56818689 </i>
    <i name="e_0_energy">   -682.56818689 </i>
   </energy>
  </scstep>
  <scstep>
   <time name="dav">    3.32    3.33</time>
   <time name="total">    4.34    4.36</time>
   <energy>
    <i name="e_fr_energy">   -682.56818695 </i>
    <i name="e_wo_entrp">   -682.56818695 </i>
    <i name="e_0_energy">   -682.56818695 </i>
   </energy>
  </scstep>
  <scstep>
   <time name="dav">    3.24    3.25</time>
   <time name="total">    4.26    4.27</time>
   <energy>
    <i name="e_fr_energy">   -682.56818698 </i>
    <i name="e_wo_entrp">   -682.56818698 </i>
    <i name="e_0_energy">   -682.56818698 </i>
   </energy>
  </scstep>
  <scstep>
   <time name="dav">    3.24    3.25</time>
   <time name="total">    4.26    4.27</time>
   <energy>
    <i name="e_fr_energy">   -682.56818696 </i>
    <i name="e_wo_entrp">   -682.56818696 </i>
    <i name="e_0_energy">   -682.56818696 </i>
   </energy>
  </scstep>
  <scstep>
   <time name="dav">    3.26    3.26</time>
   <time name="total">    3.76    3.77</time>
   <energy>
    <i name="alphaZ">    210.78028765 </i>
    <i name="ewald"> -14524.86522100 </i>
    <i name="hartreedc">   -991.73324872 </i>
    <i name="XCdc">  -1153.28598554 </i>
    <i name="pawpsdc">   4723.40770366 </i>
    <i name="pawaedc">  -2485.14583012 </i>
    <i name="eentropy">     -0.00000000 </i>
    <i name="bandstr">    345.79324712 </i>
    <i name="atom">  13192.48085998 </i>
    <i name="e_fr_energy">   -682.56818696 </i>
    <i name="e_wo_entrp">   -682.56818696 </i>
    <i name="e_0_energy">   -682.56818696 </i>
   </energy>
  </scstep>
  <structure>
   <crystal>
    <varray name="basis" >
     <v>       0.00000000      10.93716070      10.93716070 </v>
     <v>      10.93716070       0.00000000      10.93716070 </v>
     <v>      10.93716070      10.93716070       0.00000000 </v>
    </varray>
    <i name="volume">   2616.63878844 </i>
    <varray name="rec_basis" >
     <v>      -0.04571570       0.04571570       0.04571570 </v>
     <v>       0.04571570      -0.04571570       0.04571570 </v>
     <v>       0.04571570       0.04571570      -0.04571570 </v>
    </varray>
   </crystal>
   <varray name="positions" >
    <v>       0.06204284       0.06295716       0.06295716 </v>
    <v>       0.31204284       0.06295716       0.06204284 </v>
    <v>       0.56250000       0.06250000       0.06250000 </v>
    <v>       0.81250000       0.06250000       0.06250000 </v>
    <v>       0.06250000       0.31250000       0.06250000 </v>
    <v>       0.31250000       0.31250000       0.06250000 </v>
    <v>       0.56250000       0.31250000       0.06250000 </v>
    <v>       0.81250000       0.31250000       0.06250000 </v>
    <v>       0.06250000       0.56250000       0.06250000 </v>
    <v>       0.31250000       0.56250000       0.06250000 </v>
    <v>       0.56250000       0.56250000       0.06250000 </v>
    <v>       0.81250000       0.56250000       0.06250000 </v>
    <v>       0.06250000       0.81250000       0.06250000 </v>
    <v>       0.31250000       0.81250000       0.06250000 </v>
    <v>       0.56250000       0.81250000       0.06250000 </v>
    <v>       0.81250000       0.81250000       0.06250000 </v>
    <v>       0.06250000       0.06250000       0.31250000 </v>
    <v>       0.31250000       0.06250000       0.31250000 </v>
    <v>       0.56250000       0.06250000       0.31250000 </v>
    <v>       0.81250000       0.06250000       0.31250000 </v>
    <v>       0.06250000       0.31250000       0.31250000 </v>
    <v>       0.31250000       0.31250000       0.31250000 </v>
    <v>       0.56250000       0.31250000       0.31250000 </v>
    <v>       0.81250000       0.31250000       0.31250000 </v>
    <v>       0.06250000       0.56250000       0.31250000 </v>
    <v>       0.31250000       0.56250000       0.31250000 </v>
    <v>       0.56250000       0.56250000       0.31250000 </v>
    <v>       0.81250000       0.56250000       0.31250000 </v>
    <v>       0.06250000       0.81250000       0.31250000 </v>
    <v>       0.31250000       0.81250000       0.31250000 </v>
    <v>       0.56250000       0.81250000       0.31250000 </v>
    <v>       0.81250000       0.81250000       0.31250000 </v>
    <v>       0.06250000       0.06250000       0.56250000 </v>
    <v>       0.31250000       0.06250000       0.56250000 </v>
    <v>       0.56250000       0.06250000       0.56250000 </v>
    <v>       0.81250000       0.06250000       0.56250000 </v>
    <v>       0.06250000       0.31250000       0.56250000 </v>
    <v>       0.31250000       0.31250000       0.56250000 </v>
    <v>       0.56250000       0.31250000       0.56250000 </v>
    <v>       0.81250000       0.31250000       0.56250000 </v>
    <v>       0.06250000       0.56250000       0.56250000 </v>
    <v>       0.31250000       0.56250000       0.56250000 </v>
    <v>       0.56250000       0.56250000       0.56250000 </v>
    <v>       0.81250000       0.56250000       0.56250000 </v>
    <v>       0.06250000       0.81250000       0.56250000 </v>
    <v>       0.31250000       0.81250000       0.56250000 </v>
    <v>       0.56250000       0.81250000       0.56250000 </v>
    <v>       0.81250000       0.81250000       0.56250000 </v>
    <v>       0.06250000       0.06250000       0.81250000 </v>
    <v>       0.31250000       0.06250000       0.81250000 </v>
    <v>       0.56250000       0.06250000       0.81250000 </v>
    <v>       0.81250000       0.06250000       0.81250000 </v>
    <v>       0.06250000       0.31250000       0.81250000 </v>
    <v>       0.31250000       0.31250000       0.81250000 </v>
    <v>       0.56250000       0.31250000       0.81250000 </v>
    <v>       0.81250000       0.31250000       0.81250000 </v>
    <v>       0.06250000       0.56250000       0.81250000 </v>
    <v>       0.31250000       0.56250000       0.81250000 </v>
    <v>       0.56250000       0.56250000       0.81250000 </v>
    <v>       0.81250000       0.56250000       0.81250000 </v>
    <v>       0.06250000       0.81250000       0.81250000 </v>
    <v>       0.31250000       0.81250000       0.81250000 </v>
    <v>       0.56250000       0.81250000       0.81250000 </v>
    <v>       0.81250000       0.81250000       0.81250000 </v>
    <v>       0.00000000       0.00000000       0.00000000 </v>
    <v>       0.25000000       0.00000000       0.00000000 </v>
    <v>       0.50000000       0.00000000       0.00000000 </v>
    <v>       0.75000000       0.00000000       0.00000000 </v>
    <v>       0.00000000       0.25000000       0.00000000 </v>
    <v>       0.25000000       0.25000000       0.00000000 </v>
    <v>       0.50000000       0.25000000       0.00000000 </v>
    <v>       0.75000000       0.25000000       0.00000000 </v>
    <v>       0.00000000       0.50000000       0.00000000 </v>
    <v>       0.25000000       0.50000000       0.00000000 </v>
    <v>       0.50000000       0.50000000       0.00000000 </v>
    <v>       0.75000000       0.50000000       0.00000000 </v>
    <v>       0.00000000       0.75000000       0.00000000 </v>
    <v>       0.25000000       0.75000000       0.00000000 </v>
    <v>       0.50000000       0.75000000       0.00000000 </v>
    <v>       0.75000000       0.75000000       0.00000000 </v>
    <v>       0.00000000       0.00000000       0.25000000 </v>
    <v>       0.25000000       0.00000000       0.25000000 </v>
    <v>       0.50000000       0.00000000       0.25000000 </v>
    <v>       0.75000000       0.00000000       0.25000000 </v>
    <v>       0.00000000       0.25000000       0.25000000 </v>
    <v>       0.25000000       0.25000000       0.25000000 </v>
    <v>       0.50000000       0.25000000       0.25000000 </v>
    <v>       0.75000000       0.25000000       0.25000000 </v>
    <v>       0.00000000       0.50000000       0.25000000 </v>
    <v>       0.25000000       0.50000000       0.25000000 </v>
    <v>       0.50000000       0.50000000       0.25000000 </v>
    <v>       0.75000000       0.50000000       0.25000000 </v>
    <v>       0.00000000       0.75000000       0.25000000 </v>
    <v>       0.25000000       0.75000000       0.25000000 </v>
    <v>       0.50000000       0.75000000       0.25000000 </v>
    <v>       0.75000000       0.75000000       0.25000000 </v>
    <v>       0.00000000       0.00000000       0.50000000 </v>
    <v>       0.25000000       0.00000000       0.50000000 </v>
    <v>       0.50000000       0.00000000       0.50000000 </v>
    <v>       0.75000000       0.00000000       0.50000000 </v>
    <v>       0.00000000       0.25000000       0.50000000 </v>
    <v>       0.25000000       0.25000000       0.50000000 </v>
    <v>       0.50000000       0.25000000       0.50000000 </v>
    <v>       0.75000000       0.25000000       0.50000000 </v>
    <v>       0.00000000       0.50000000       0.50000000 </v>
    <v>       0.25000000       0.50000000       0.50000000 </v>
    <v>       0.50000000       0.50000000       0.50000000 </v>
    <v>       0.75000000       0.50000000       0.50000000 </v>
    <v>       0.00000000       0.75000000       0.50000000 </v>
    <v>       0.25000000       0.75000000       0.50000000 </v>
    <v>       0.50000000       0.75000000       0.50000000 </v>
    <v>       0.75000000       0.75000000       0.50000000 </v>
    <v>       0.00000000       0.00000000       0.75000000 </v>
    <v>       0.25000000       0.00000000       0.75000000 </v>
    <v>       0.50000000       0.00000000       0.75000000 </v>
    <v>       0.75000000       0.00000000       0.75000000 </v>
    <v>       0.00000000       0.25000000       0.75000000 </v>
    <v>       0.25000000       0.25000000       0.75000000 </v>
    <v>       0.50000000       0.25000000       0.75000000 </v>
    <v>       0.75000000       0.25000000       0.75000000 </v>
    <v>       0.00000000       0.50000000       0.75000000 </v>
    <v>       0.25000000       0.50000000       0.75000000 </v>
    <v>       0.50000000       0.50000000       0.75000000 </v>
    <v>       0.75000000       0.50000000       0.75000000 </v>
    <v>       0.00000000       0.75000000       0.75000000 </v>
    <v>       0.25000000       0.75000000       0.75000000 </v>
    <v>       0.50000000       0.75000000       0.75000000 </v>
    <v>       0.75000000       0.75000000       0.75000000 </v>
   </varray>
  </structure>
  <varray name="forces" >
   <v>      -0.13125244      -0.00157775      -0.00204476 </v>
   <v>      -0.00491986       0.13126647       0.00095106 </v>
   <v>      -0.00071874      -0.00157031      -0.00202105 </v>
   <v>      -0.00491672      -0.00109122      -0.00131824 </v>
   <v>       0.00361897      -0.00254636       0.00299318 </v>
   <v>      -0.00085966       0.00465016      -0.00081571 </v>
   <v>       0.00037552      -0.00025259       0.00012003 </v>
   <v>       0.00179390      -0.00208289       0.00075422 </v>
   <v>       0.00035049      -0.00010519       0.00009887 </v>
   <v>       0.00004551       0.00147130       0.00020862 </v>
   <v>       0.00029266      -0.00047541      -0.00027149 </v>
   <v>       0.00041614      -0.00029099       0.00015213 </v>
   <v>       0.00184430       0.00084787       0.00181102 </v>
   <v>       0.00253716       0.00289977       0.00001057 </v>
   <v>       0.00212142      -0.00177982      -0.00067803 </v>
   <v>       0.00025392      -0.00031856       0.00005876 </v>
   <v>       0.00253245       0.00694704      -0.00191159 </v>
   <v>      -0.00191544      -0.00142185       0.00068340 </v>
   <v>      -0.00010374       0.00022378      -0.00035762 </v>
   <v>       0.00131645       0.00085944      -0.00218378 </v>
   <v>       0.00004706      -0.00004417       0.00020848 </v>
   <v>      -0.00004586      -0.00010360       0.00027164 </v>
   <v>       0.00004652      -0.00031220      -0.00020782 </v>
   <v>       0.00031687      -0.00010379       0.00026942 </v>
   <v>       0.00011685       0.00014522       0.00013751 </v>
   <v>      -0.00016853      -0.00025339      -0.00012221 </v>
   <v>       0.00030291      -0.00004743       0.00019586 </v>
   <v>       0.00009607      -0.00008162       0.00001320 </v>
   <v>      -0.00491985      -0.00121668       0.00096481 </v>
   <v>      -0.00069907      -0.00156959       0.00201766 </v>
   <v>       0.00012644      -0.00017787       0.00001218 </v>
   <v>       0.00023984      -0.00009419      -0.00000218 </v>
   <v>      -0.00006654       0.00026623      -0.00027226 </v>
   <v>      -0.00032461       0.00006631      -0.00020924 </v>
   <v>      -0.00000649      -0.00010394      -0.00064247 </v>
   <v>       0.00004569       0.00182120      -0.00014819 </v>
   <v>       0.00010305       0.00005565       0.00028443 </v>
   <v>      -0.00010414      -0.00031876       0.00005844 </v>
   <v>       0.00036454      -0.00011608       0.00014798 </v>
   <v>       0.00008198      -0.00012548      -0.00000002 </v>
   <v>      -0.00169105      -0.00009459       0.00000082 </v>
   <v>       0.00012739      -0.00012975       0.00038337 </v>
   <v>       0.00012537      -0.00009409       0.00000156 </v>
   <v>       0.00012652      -0.00012557      -0.00001225 </v>
   <v>       0.00037457       0.00010343       0.00048045 </v>
   <v>      -0.00005599      -0.00004588       0.00013761 </v>
   <v>       0.00009224      -0.00008178      -0.00001396 </v>
   <v>       0.00011653      -0.00039818      -0.00019557 </v>
   <v>       0.00142179       0.00197334       0.00080122 </v>
   <v>      -0.00045728      -0.00253496      -0.00298654 </v>
   <v>      -0.00084550       0.00518788       0.00073979 </v>
   <v>      -0.00016689       0.00010423      -0.00047952 </v>
   <v>      -0.00491972       0.00079772      -0.00096421 </v>
   <v>       0.00121257      -0.00158455       0.00203480 </v>
   <v>       0.00012642      -0.00023997      -0.00001194 </v>
   <v>       0.00026433      -0.00009490      -0.00000139 </v>
   <v>       0.00025350       0.00022603       0.00035743 </v>
   <v>      -0.00017777      -0.00011640       0.00020961 </v>
   <v>       0.00008152      -0.00012846       0.00002463 </v>
   <v>       0.00010532      -0.00030212      -0.00028412 </v>
   <v>       0.00004768       0.00004595       0.00015002 </v>
   <v>      -0.00004236      -0.00010416       0.00027204 </v>
   <v>       0.00004748      -0.00040200      -0.00014946 </v>
   <v>       0.00031301      -0.00010411       0.00027094 </v>
   <v>       0.03303158       0.01973582       0.01974989 </v>
   <v>       0.01203436      -0.05281725      -0.04045548 </v>
   <v>       0.02198122      -0.03209145      -0.01947109 </v>
   <v>       0.00156554      -0.00067933      -0.00066945 </v>
   <v>       0.03251588      -0.02044532       0.02085952 </v>
   <v>       0.02027011      -0.03251686       0.02017996 </v>
   <v>      -0.00042156       0.00040676       0.00018249 </v>
   <v>      -0.00041094       0.00028950      -0.00025764 </v>
   <v>       0.00040550       0.00026538      -0.00027662 </v>
   <v>      -0.00041870      -0.00189571      -0.00055489 </v>
   <v>      -0.00010392       0.00015900       0.00000131 </v>
   <v>       0.00012984      -0.00025315      -0.00031615 </v>
   <v>      -0.00017926      -0.00022437       0.00058149 </v>
   <v>       0.00039745      -0.00170995       0.00013131 </v>
   <v>      -0.00013301       0.00005408       0.00082006 </v>
   <v>      -0.00005603       0.00018209       0.00008416 </v>
   <v>       0.03319373       0.02076942      -0.02017613 </v>
   <v>      -0.02020077      -0.03290718       0.02028524 </v>
   <v>       0.00026555      -0.00008040       0.00050099 </v>
   <v>      -0.00009432      -0.00039232       0.00042539 </v>
   <v>      -0.00042085      -0.00008882      -0.00067801 </v>
   <v>       0.00024133       0.00026778      -0.00032493 </v>
   <v>      -0.00011768       0.00008021      -0.00003715 </v>
   <v>      -0.00005840       0.00043980       0.00032214 </v>
   <v>       0.00007704      -0.00000316      -0.00007192 </v>
   <v>       0.00006024       0.00005924      -0.00014019 </v>
   <v>       0.00007376       0.00017855       0.00017775 </v>
   <v>      -0.00014551      -0.00007743      -0.00013500 </v>
   <v>      -0.00025747      -0.00018768      -0.00036197 </v>
   <v>       0.00009427       0.00058911       0.00000246 </v>
   <v>      -0.00049932       0.00005540      -0.00034995 </v>
   <v>      -0.00013429       0.00007166       0.00000044 </v>
   <v>       0.00068289      -0.00183905       0.00000021 </v>
   <v>      -0.00014101      -0.00028746      -0.00031663 </v>
   <v>       0.00013572      -0.00021280       0.00023813 </v>
   <v>       0.00036782      -0.00039758      -0.00004010 </v>
   <v>       0.00003311       0.00007602      -0.00015179 </v>
   <v>      -0.00001889      -0.00003602      -0.00017786 </v>
   <v>       0.00003669       0.00025794       0.00009843 </v>
   <v>      -0.00022270       0.00009977      -0.00017996 </v>
   <v>      -0.00005458      -0.00005261      -0.00018266 </v>
   <v>       0.00008101       0.00010383       0.00007905 </v>
   <v>      -0.00026392      -0.00003142      -0.00005690 </v>
   <v>      -0.00013020       0.00008205      -0.00004779 </v>
   <v>       0.00204600      -0.00031848       0.00049656 </v>
   <v>       0.00031828      -0.00018498       0.00018785 </v>
   <v>      -0.00012725       0.00004007       0.00004620 </v>
   <v>      -0.00013135       0.00011358       0.00000216 </v>
   <v>       0.00059405       0.00044716      -0.00008740 </v>
   <v>      -0.00027614      -0.00055536       0.00081898 </v>
   <v>       0.00055213       0.00072632       0.00013967 </v>
   <v>      -0.00072607      -0.00242687       0.00086189 </v>
   <v>      -0.00027160      -0.00027526      -0.00036552 </v>
   <v>       0.00009057       0.00041971      -0.00000037 </v>
   <v>      -0.00049334       0.00024508      -0.00036656 </v>
   <v>      -0.00014873       0.00017806      -0.00001464 </v>
   <v>       0.00207507       0.00053942      -0.00045211 </v>
   <v>      -0.00062932      -0.00021806       0.00021970 </v>
   <v>      -0.00009768       0.00017993      -0.00000234 </v>
   <v>      -0.00017935       0.00008418       0.00003170 </v>
   <v>      -0.00063716      -0.00013414      -0.00077287 </v>
   <v>       0.00032116       0.00027233      -0.00036400 </v>
   <v>      -0.00008606       0.00013398      -0.00002952 </v>
   <v>      -0.00022921       0.00054140       0.00037827 </v>
  </varray>
  <varray name="stress" >
   <v>       5.73172276       0.00000866       0.05335803 </v>
   <v>       0.00000866       5.73174429      -0.05334089 </v>
   <v>       0.05335804      -0.05334089       5.73280149 </v>
  </varray>
  <energy>
   <i name="e_fr_energy">   -682.56818696 </i>
   <i name="e_wo_entrp">   -682.56818696 </i>
   <i name="e_0_energy">     -0.00000000 </i>
  </energy>
  <time name="totalsc">  122.17  122.57</time>
  <eigenvalues>
   <array>
    <dimension dim="1">band</dimension>
    <dimension dim="2">kpoint</dimension>
    <dimension dim="3">spin</dimension>
    <field>eigene</field>
    <field>occ</field>
    <set>
     <set comment="spin 1">
      <set comment="kpoint 1">
       <r>   -6.1630    1.0000 </r>
       <r>   -5.3790    1.0000 </r>
       <r>   -5.3781    1.0000 </r>
       <r>   -5.3775    1.0000 </r>
       <r>   -5.3775    1.0000 </r>
       <r>   -5.3774    1.0000 </r>
       <r>   -5.3773    1.0000 </r>
       <r>   -5.3767    1.0000 </r>
       <r>   -5.3763    1.0000 </r>
       <r>   -5.1008    1.0000 </r>
       <r>   -5.0999    1.0000 </r>
       <r>   -5.0998    1.0000 </r>
       <r>   -5.0996    1.0000 </r>
       <r>   -5.0991    1.0000 </r>
       <r>   -5.0986    1.0000 </r>
       <r>   -4.1589    1.0000 </r>
       <r>   -4.1586    1.0000 </r>
       <r>   -4.1575    1.0000 </r>
       <r>   -4.1572    1.0000 </r>
       <r>   -4.1570    1.0000 </r>
       <r>   -4.1570    1.0000 </r>
       <r>   -4.1569    1.0000 </r>
       <r>   -4.1569    1.0000 </r>
       <r>   -4.1568    1.0000 </r>
       <r>   -4.1564    1.0000 </r>
       <r>   -4.1556    1.0000 </r>
       <r>   -4.1546    1.0000 </r>
       <r>   -3.8821    1.0000 </r>
       <r>   -3.8812    1.0000 </r>
       <r>   -3.8812    1.0000 </r>
       <r>   -3.8803    1.0000 </r>
       <r>   -3.5007    1.0000 </r>
       <r>   -3.4991    1.0000 </r>
       <r>   -3.4978    1.0000 </r>
       <r>   -3.4967    1.0000 </r>
       <r>   -3.4966    1.0000 </r>
       <r>   -3.4965    1.0000 </r>
       <r>   -3.4964    1.0000 </r>
       <r>   -3.4964    1.0000 </r>
       <r>   -3.4964    1.0000 </r>
       <r>   -3.4963    1.0000 </r>
       <r>   -3.4963    1.0000 </r>
       <r>   -3.4963    1.0000 </r>
       <r>   -3.4962    1.0000 </r>
       <r>   -3.4962    1.0000 </r>
       <r>   -3.4962    1.0000 </r>
       <r>   -3.4961    1.0000 </r>
       <r>   -3.4961    1.0000 </r>
       <r>   -3.4961    1.0000 </r>
       <r>   -3.4960    1.0000 </r>
       <r>   -3.4958    1.0000 </r>
       <r>   -3.4958    1.0000 </r>
       <r>   -3.4946    1.0000 </r>
       <r>   -3.4932    1.0000 </r>
       <r>   -3.4916    1.0000 </r>
       <r>   -2.0921    1.0000 </r>
       <r>   -2.0920    1.0000 </r>
       <r>   -2.0909    1.0000 </r>
       <r>   -2.0909    1.0000 </r>
       <r>   -2.0899    1.0000 </r>
       <r>   -2.0898    1.0000 </r>
       <r>   -1.9381    1.0000 </r>
       <r>   -1.9369    1.0000 </r>
       <r>   -1.9361    1.0000 </r>
       <r>   -1.9356    1.0000 </r>
       <r>   -1.9355    1.0000 </r>
       <r>   -1.9355    1.0000 </r>
       <r>   -1.9354    1.0000 </r>
       <r>   -1.9353    1.0000 </r>
       <r>   -1.9353    1.0000 </r>
       <r>   -1.9346    1.0000 </r>
       <r>   -1.9338    1.0000 </r>
       <r>   -1.9326    1.0000 </r>
       <r>   -1.2193    1.0000 </r>
       <r>   -1.2184    1.0000 </r>
       <r>   -1.2184    1.0000 </r>
       <r>   -1.2175    1.0000 </r>
       <r>   -0.6728    1.0000 </r>
       <r>   -0.6719    1.0000 </r>
       <r>   -0.6709    1.0000 </r>
       <r>   -0.6696    1.0000 </r>
       <r>   -0.6691    1.0000 </r>
       <r>   -0.6690    1.0000 </r>
       <r>   -0.6689    1.0000 </r>
       <r>   -0.6688    1.0000 </r>
       <r>   -0.6688    1.0000 </r>
       <r>   -0.6687    1.0000 </r>
       <r>   -0.6687    1.0000 </r>
       <r>   -0.6687    1.0000 </r>
       <r>   -0.6686    1.0000 </r>
       <r>   -0.6686    1.0000 </r>
       <r>   -0.6685    1.0000 </r>
       <r>   -0.6685    1.0000 </r>
       <r>   -0.6684    1.0000 </r>
       <r>   -0.6684    1.0000 </r>
       <r>   -0.6683    1.0000 </r>
       <r>   -0.6683    1.0000 </r>
       <r>   -0.6681    1.0000 </r>
       <r>   -0.6663    1.0000 </r>
       <r>   -0.6656    1.0000 </r>
       <r>   -0.6635    1.0000 </r>
       <r>    0.2148    1.0000 </r>
       <r>    0.2152    1.0000 </r>
       <r>    0.2157    1.0000 </r>
       <r>    0.2165    1.0000 </r>
       <r>    0.2166    1.0000 </r>
       <r>    0.2167    1.0000 </r>
       <r>    0.2167    1.0000 </r>
       <r>    0.2168    1.0000 </r>
       <r>    0.2169    1.0000 </r>
       <r>    0.2179    1.0000 </r>
       <r>    0.2182    1.0000 </r>
       <r>    0.2189    1.0000 </r>
       <r>    1.7663    1.0000 </r>
       <r>    1.7671    1.0000 </r>
       <r>    1.7675    1.0000 </r>
       <r>    1.7678    1.0000 </r>
       <r>    1.7678    1.0000 </r>
       <r>    1.7680    1.0000 </r>
       <r>    1.7689    1.0000 </r>
       <r>    1.7692    1.0000 </r>
       <r>    1.8849    1.0000 </r>
       <r>    1.8851    1.0000 </r>
       <r>    1.8857    1.0000 </r>
       <r>    1.8857    1.0000 </r>
       <r>    1.8858    1.0000 </r>
       <r>    1.8860    1.0000 </r>
       <r>    1.8861    1.0000 </r>
       <r>    1.8862    1.0000 </r>
       <r>    1.8863    1.0000 </r>
       <r>    1.8863    1.0000 </r>
       <r>    1.8866    1.0000 </r>
       <r>    1.8874    1.0000 </r>
       <r>    1.9779    1.0000 </r>
       <r>    1.9780    1.0000 </r>
       <r>    1.9782    1.0000 </r>
       <r>    1.9783    1.0000 </r>
       <r>    1.9784    1.0000 </r>
       <r>    1.9787    1.0000 </r>
       <r>    1.9789    1.0000 </r>
       <r>    1.9791    1.0000 </r>
       <r>    1.9793    1.0000 </r>
       <r>    1.9795    1.0000 </r>
       <r>    1.9800    1.0000 </r>
       <r>    1.9802    1.0000 </r>
       <r>    2.1398    1.0000 </r>
       <r>    2.1401    1.0000 </r>
       <r>    2.1407    1.0000 </r>
       <r>    2.1413    1.0000 </r>
       <r>    2.1421    1.0000 </r>
       <r>    2.1424    1.0000 </r>
       <r>    2.1842    1.0000 </r>
       <r>    2.1848    1.0000 </r>
       <r>    2.1856    1.0000 </r>
       <r>    2.1858    1.0000 </r>
       <r>    2.1862    1.0000 </r>
       <r>    2.1865    1.0000 </r>
       <r>    2.1866    1.0000 </r>
       <r>    2.1867    1.0000 </r>
       <r>    2.1867    1.0000 </r>
       <r>    2.1867    1.0000 </r>
       <r>    2.1868    1.0000 </r>
       <r>    2.1868    1.0000 </r>
       <r>    2.1869    1.0000 </r>
       <r>    2.1869    1.0000 </r>
       <r>    2.1870    1.0000 </r>
       <r>    2.1870    1.0000 </r>
       <r>    2.1871    1.0000 </r>
       <r>    2.1872    1.0000 </r>
       <r>    2.1873    1.0000 </r>
       <r>    2.1876    1.0000 </r>
       <r>    2.1880    1.0000 </r>
       <r>    2.1888    1.0000 </r>
       <r>    2.1889    1.0000 </r>
       <r>    2.1902    1.0000 </r>
       <r>    2.8562    1.0000 </r>
       <r>    2.8562    1.0000 </r>
       <r>    2.8566    1.0000 </r>
       <r>    2.8566    1.0000 </r>
       <r>    2.8571    1.0000 </r>
       <r>    2.8571    1.0000 </r>
       <r>    3.4898    1.0000 </r>
       <r>    3.4905    1.0000 </r>
       <r>    3.4912    1.0000 </r>
       <r>    3.4913    1.0000 </r>
       <r>    3.4921    1.0000 </r>
       <r>    3.4922    1.0000 </r>
       <r>    3.4922    1.0000 </r>
       <r>    3.4923    1.0000 </r>
       <r>    3.4923    1.0000 </r>
       <r>    3.4924    1.0000 </r>
       <r>    3.4925    1.0000 </r>
       <r>    3.4925    1.0000 </r>
       <r>    3.4926    1.0000 </r>
       <r>    3.4926    1.0000 </r>
       <r>    3.4926    1.0000 </r>
       <r>    3.4926    1.0000 </r>
       <r>    3.4927    1.0000 </r>
       <r>    3.4928    1.0000 </r>
       <r>    3.4928    1.0000 </r>
       <r>    3.4930    1.0000 </r>
       <r>    3.4933    1.0000 </r>
       <r>    3.4939    1.0000 </r>
       <r>    3.4950    1.0000 </r>
       <r>    3.4955    1.0000 </r>
       <r>    3.8018    1.0000 </r>
       <r>    3.8027    1.0000 </r>
       <r>    3.8034    1.0000 </r>
       <r>    3.8037    1.0000 </r>
       <r>    3.8038    1.0000 </r>
       <r>    3.8038    1.0000 </r>
       <r>    3.8038    1.0000 </r>
       <r>    3.8038    1.0000 </r>
       <r>    3.8041    1.0000 </r>
       <r>    3.8042    1.0000 </r>
       <r>    3.8051    1.0000 </r>
       <r>    3.8058    1.0000 </r>
       <r>    4.3506    1.0000 </r>
       <r>    4.3513    1.0000 </r>
       <r>    4.3522    1.0000 </r>
       <r>    4.3525    1.0000 </r>
       <r>    4.3527    1.0000 </r>
       <r>    4.3527    1.0000 </r>
       <r>    4.3528    1.0000 </r>
       <r>    4.3529    1.0000 </r>
       <r>    4.3531    1.0000 </r>
       <r>    4.3536    1.0000 </r>
       <r>    4.3543    1.0000 </r>
       <r>    4.3550    1.0000 </r>
       <r>    4.4761    1.0000 </r>
       <r>    4.4767    1.0000 </r>
       <r>    4.4774    1.0000 </r>
       <r>    4.4776    1.0000 </r>
       <r>    4.4778    1.0000 </r>
       <r>    4.4780    1.0000 </r>
       <r>    4.4787    1.0000 </r>
       <r>    4.4793    1.0000 </r>
       <r>    4.9083    1.0000 </r>
       <r>    4.9093    1.0000 </r>
       <r>    4.9112    1.0000 </r>
       <r>    4.9113    1.0000 </r>
       <r>    4.9116    1.0000 </r>
       <r>    4.9117    1.0000 </r>
       <r>    4.9117    1.0000 </r>
       <r>    4.9118    1.0000 </r>
       <r>    4.9118    1.0000 </r>
       <r>    4.9118    1.0000 </r>
       <r>    4.9119    1.0000 </r>
       <r>    4.9120    1.0000 </r>
       <r>    4.9121    1.0000 </r>
       <r>    4.9122    1.0000 </r>
       <r>    4.9138    1.0000 </r>
       <r>    4.9160    1.0000 </r>
       <r>    5.6594    1.0000 </r>
       <r>    5.6604    1.0000 </r>
       <r>    5.6615    1.0000 </r>
       <r>    6.3940    0.0000 </r>
       <r>    6.3946    0.0000 </r>
       <r>    6.3951    0.0000 </r>
       <r>    6.3951    0.0000 </r>
       <r>    6.3956    0.0000 </r>
       <r>    6.3962    0.0000 </r>
       <r>    6.7951    0.0000 </r>
       <r>    6.7955    0.0000 </r>
       <r>    6.7958    0.0000 </r>
       <r>    6.7964    0.0000 </r>
       <r>    6.7971    0.0000 </r>
       <r>    6.7975    0.0000 </r>
       <r>    7.1206    0.0000 </r>
       <r>    7.1208    0.0000 </r>
       <r>    7.1208    0.0000 </r>
       <r>    7.1211    0.0000 </r>
       <r>    7.1824    0.0000 </r>
       <r>    7.1836    0.0000 </r>
       <r>    7.1841    0.0000 </r>
       <r>    7.1845    0.0000 </r>
       <r>    7.1857    0.0000 </r>
       <r>    7.1857    0.0000 </r>
       <r>    7.1857    0.0000 </r>
       <r>    7.1858    0.0000 </r>
       <r>    7.1859    0.0000 </r>
       <r>    7.1859    0.0000 </r>
       <r>    7.1859    0.0000 </r>
       <r>    7.1860    0.0000 </r>
       <r>    7.1860    0.0000 </r>
       <r>    7.1861    0.0000 </r>
       <r>    7.1861    0.0000 </r>
       <r>    7.1861    0.0000 </r>
       <r>    7.1862    0.0000 </r>
       <r>    7.1862    0.0000 </r>
       <r>    7.1862    0.0000 </r>
       <r>    7.1863    0.0000 </r>
       <r>    7.1871    0.0000 </r>
       <r>    7.1876    0.0000 </r>
       <r>    7.1890    0.0000 </r>
       <r>    7.1900    0.0000 </r>
       <r>    7.6114    0.0000 </r>
       <r>    7.6117    0.0000 </r>
       <r>    7.6118    0.0000 </r>
       <r>    7.6120    0.0000 </r>
       <r>    7.6122    0.0000 </r>
       <r>    7.6124    0.0000 </r>
       <r>    7.6128    0.0000 </r>
       <r>    7.6133    0.0000 </r>
       <r>    8.0812    0.0000 </r>
       <r>    8.0817    0.0000 </r>
       <r>    8.0818    0.0000 </r>
       <r>    8.0824    0.0000 </r>
       <r>    8.0828    0.0000 </r>
       <r>    8.0829    0.0000 </r>
       <r>    8.0829    0.0000 </r>
       <r>    8.0831    0.0000 </r>
       <r>    8.0834    0.0000 </r>
       <r>    8.0840    0.0000 </r>
       <r>    8.0842    0.0000 </r>
       <r>    8.0848    0.0000 </r>
       <r>    8.1987    0.0000 </r>
       <r>    8.1993    0.0000 </r>
       <r>    8.2000    0.0000 </r>
       <r>    8.7787    0.0000 </r>
       <r>    8.7796    0.0000 </r>
       <r>    8.7872    0.0000 </r>
      </set>
     </set>
    </set>
   </array>
  </eigenvalues>
  <separator name="orbital magnetization" >
   <v name="MAGDIPOLOUT">      0.00000000      0.00000000      0.00000000</v>
  </separator>
  <dos>
   <i name="efermi">      5.92016327 </i>
   <total>
    <array>
     <dimension dim="1">gridpoints</dimension>
     <dimension dim="2">spin</dimension>
     <field>energy</field>
     <field>total</field>
     <field>integrated</field>
     <set>
      <set comment="spin 1">
       <r>    -6.9105     0.0000     0.0000 </r>
       <r>    -6.8557     0.0000     0.0000 </r>
       <r>    -6.8009     0.0000     0.0000 </r>
       <r>    -6.7461     0.0000     0.0000 </r>
       <r>    -6.6913     0.0000     0.0000 </r>
       <r>    -6.6364     0.0000     0.0000 </r>
       <r>    -6.5816     0.0000     0.0000 </r>
       <r>    -6.5268     0.0000     0.0000 </r>
       <r>    -6.4720     0.0000     0.0000 </r>
       <r>    -6.4172     0.0000     0.0000 </r>
       <r>    -6.3624     0.0000     0.0000 </r>
       <r>    -6.3075     0.0008     0.0000 </r>
       <r>    -6.2527     0.2031     0.0112 </r>
       <r>    -6.1979     5.7032     0.3238 </r>
       <r>    -6.1431    20.1269     1.4271 </r>
       <r>    -6.0883     9.8216     1.9655 </r>
       <r>    -6.0334     0.6247     1.9998 </r>
       <r>    -5.9786     0.0045     2.0000 </r>
       <r>    -5.9238     0.0000     2.0000 </r>
       <r>    -5.8690     0.0000     2.0000 </r>
       <r>    -5.8142     0.0000     2.0000 </r>
       <r>    -5.7594     0.0000     2.0000 </r>
       <r>    -5.7045     0.0000     2.0000 </r>
       <r>    -5.6497     0.0000     2.0000 </r>
       <r>    -5.5949     0.0000     2.0000 </r>
       <r>    -5.5401     0.0006     2.0000 </r>
       <r>    -5.4853     0.3353     2.0184 </r>
       <r>    -5.4305    19.2327     3.0727 </r>
       <r>    -5.3756   132.4125    10.3312 </r>
       <r>    -5.3208   123.9673    17.1268 </r>
       <r>    -5.2660    15.6937    17.9870 </r>
       <r>    -5.2112     0.4119    18.0096 </r>
       <r>    -5.1564    11.7158    18.6519 </r>
       <r>    -5.1016    92.8352    23.7408 </r>
       <r>    -5.0467    99.4438    29.1921 </r>
       <r>    -4.9919    14.4846    29.9861 </r>
       <r>    -4.9371     0.2532    30.0000 </r>
       <r>    -4.8823     0.0005    30.0000 </r>
       <r>    -4.8275     0.0000    30.0000 </r>
       <r>    -4.7726     0.0000    30.0000 </r>
       <r>    -4.7178     0.0000    30.0000 </r>
       <r>    -4.6630     0.0000    30.0000 </r>
       <r>    -4.6082     0.0000    30.0000 </r>
       <r>    -4.5534     0.0000    30.0000 </r>
       <r>    -4.4986     0.0000    30.0000 </r>
       <r>    -4.4437     0.0000    30.0000 </r>
       <r>    -4.3889     0.0000    30.0000 </r>
       <r>    -4.3341     0.0001    30.0000 </r>
       <r>    -4.2793     0.1189    30.0065 </r>
       <r>    -4.2245    12.2070    30.6757 </r>
       <r>    -4.1697   145.2062    38.6355 </r>
       <r>    -4.1148   229.1135    51.1949 </r>
       <r>    -4.0600    49.8286    53.9264 </r>
       <r>    -4.0052     1.3723    54.0016 </r>
       <r>    -3.9504     3.6412    54.2012 </r>
       <r>    -3.8956    46.2309    56.7354 </r>
       <r>    -3.8408    77.5745    60.9879 </r>
       <r>    -3.7859    17.9472    61.9717 </r>
       <r>    -3.7311     0.5147    61.9999 </r>
       <r>    -3.6763     0.0018    62.0000 </r>
       <r>    -3.6215     0.1758    62.0096 </r>
       <r>    -3.5667    20.2181    63.1179 </r>
       <r>    -3.5119   268.1209    77.8156 </r>
       <r>    -3.4570   469.7417   103.5656 </r>
       <r>    -3.4022   113.9184   109.8103 </r>
       <r>    -3.3474     3.4485   109.9994 </r>
       <r>    -3.2926     0.0114   110.0000 </r>
       <r>    -3.2378     0.0000   110.0000 </r>
       <r>    -3.1829     0.0000   110.0000 </r>
       <r>    -3.1281     0.0000   110.0000 </r>
       <r>    -3.0733     0.0000   110.0000 </r>
       <r>    -3.0185     0.0000   110.0000 </r>
       <r>    -2.9637     0.0000   110.0000 </r>
       <r>    -2.9089     0.0000   110.0000 </r>
       <r>    -2.8540     0.0000   110.0000 </r>
       <r>    -2.7992     0.0000   110.0000 </r>
       <r>    -2.7444     0.0000   110.0000 </r>
       <r>    -2.6896     0.0000   110.0000 </r>
       <r>    -2.6348     0.0000   110.0000 </r>
       <r>    -2.5800     0.0000   110.0000 </r>
       <r>    -2.5251     0.0000   110.0000 </r>
       <r>    -2.4703     0.0000   110.0000 </r>
       <r>    -2.4155     0.0000   110.0000 </r>
       <r>    -2.3607     0.0000   110.0000 </r>
       <r>    -2.3059     0.0000   110.0000 </r>
       <r>    -2.2511     0.0007   110.0000 </r>
       <r>    -2.1962     0.3179   110.0175 </r>
       <r>    -2.1414    16.4879   110.9213 </r>
       <r>    -2.0866   103.3538   116.5869 </r>
       <r>    -2.0318    89.8300   121.5111 </r>
       <r>    -1.9770    61.3144   124.8722 </r>
       <r>    -1.9221   230.4056   137.5024 </r>
       <r>    -1.8673   143.1106   145.3474 </r>
       <r>    -1.8125    11.7927   145.9938 </r>
       <r>    -1.7577     0.1125   146.0000 </r>
       <r>    -1.7029     0.0001   146.0000 </r>
       <r>    -1.6481     0.0000   146.0000 </r>
       <r>    -1.5932     0.0000   146.0000 </r>
       <r>    -1.5384     0.0000   146.0000 </r>
       <r>    -1.4836     0.0000   146.0000 </r>
       <r>    -1.4288     0.0000   146.0000 </r>
       <r>    -1.3740     0.0008   146.0000 </r>
       <r>    -1.3192     0.3192   146.0175 </r>
       <r>    -1.2643    13.8366   146.7760 </r>
       <r>    -1.2095    73.2959   150.7939 </r>
       <r>    -1.1547    53.2611   153.7136 </r>
       <r>    -1.0999     5.1669   153.9968 </r>
       <r>    -1.0451     0.0585   154.0000 </r>
       <r>    -0.9903     0.0001   154.0000 </r>
       <r>    -0.9354     0.0000   154.0000 </r>
       <r>    -0.8806     0.0000   154.0000 </r>
       <r>    -0.8258     0.0039   154.0002 </r>
       <r>    -0.7710     1.6748   154.0920 </r>
       <r>    -0.7162    76.8216   158.3032 </r>
       <r>    -0.6613   430.6387   181.9097 </r>
       <r>    -0.6065   331.7262   200.0940 </r>
       <r>    -0.5517    34.3500   201.9770 </r>
       <r>    -0.4969     0.4190   202.0000 </r>
       <r>    -0.4421     0.0005   202.0000 </r>
       <r>    -0.3873     0.0000   202.0000 </r>
       <r>    -0.3324     0.0000   202.0000 </r>
       <r>    -0.2776     0.0000   202.0000 </r>
       <r>    -0.2228     0.0000   202.0000 </r>
       <r>    -0.1680     0.0000   202.0000 </r>
       <r>    -0.1132     0.0000   202.0000 </r>
       <r>    -0.0584     0.0000   202.0000 </r>
       <r>    -0.0035     0.0000   202.0000 </r>
       <r>     0.0513     0.0006   202.0000 </r>
       <r>     0.1061     0.3850   202.0211 </r>
       <r>     0.1609    24.6917   203.3747 </r>
       <r>     0.2157   188.8776   213.7284 </r>
       <r>     0.2705   195.8020   224.4618 </r>
       <r>     0.3254    27.5934   225.9744 </r>
       <r>     0.3802     0.4662   226.0000 </r>
       <r>     0.4350     0.0008   226.0000 </r>
       <r>     0.4898     0.0000   226.0000 </r>
       <r>     0.5446     0.0000   226.0000 </r>
       <r>     0.5995     0.0000   226.0000 </r>
       <r>     0.6543     0.0000   226.0000 </r>
       <r>     0.7091     0.0000   226.0000 </r>
       <r>     0.7639     0.0000   226.0000 </r>
       <r>     0.8187     0.0000   226.0000 </r>
       <r>     0.8735     0.0000   226.0000 </r>
       <r>     0.9284     0.0000   226.0000 </r>
       <r>     0.9832     0.0000   226.0000 </r>
       <r>     1.0380     0.0000   226.0000 </r>
       <r>     1.0928     0.0000   226.0000 </r>
       <r>     1.1476     0.0000   226.0000 </r>
       <r>     1.2024     0.0000   226.0000 </r>
       <r>     1.2573     0.0000   226.0000 </r>
       <r>     1.3121     0.0000   226.0000 </r>
       <r>     1.3669     0.0000   226.0000 </r>
       <r>     1.4217     0.0000   226.0000 </r>
       <r>     1.4765     0.0000   226.0000 </r>
       <r>     1.5313     0.0000   226.0000 </r>
       <r>     1.5862     0.0000   226.0000 </r>
       <r>     1.6410     0.0488   226.0027 </r>
       <r>     1.6958     6.0350   226.3335 </r>
       <r>     1.7506    85.3797   231.0138 </r>
       <r>     1.8054   163.4145   239.9717 </r>
       <r>     1.8603   138.0120   247.5372 </r>
       <r>     1.9151   262.4193   261.9223 </r>
       <r>     1.9699   245.4917   275.3795 </r>
       <r>     2.0247   224.1136   287.6649 </r>
       <r>     2.0795    51.6309   290.4951 </r>
       <r>     2.1343   143.9185   298.3844 </r>
       <r>     2.1892   506.7064   326.1607 </r>
       <r>     2.2440   387.7067   347.4137 </r>
       <r>     2.2988    46.4928   349.9623 </r>
       <r>     2.3536     0.6858   349.9999 </r>
       <r>     2.4084     0.0011   350.0000 </r>
       <r>     2.4632     0.0000   350.0000 </r>
       <r>     2.5181     0.0000   350.0000 </r>
       <r>     2.5729     0.0000   350.0000 </r>
       <r>     2.6277     0.0000   350.0000 </r>
       <r>     2.6825     0.0001   350.0000 </r>
       <r>     2.7373     0.0811   350.0045 </r>
       <r>     2.7921     7.3928   350.4097 </r>
       <r>     2.8470    78.4537   354.7103 </r>
       <r>     2.9018   110.9398   360.7918 </r>
       <r>     2.9566    21.5286   361.9719 </r>
       <r>     3.0114     0.5113   361.9999 </r>
       <r>     3.0662     0.0013   362.0000 </r>
       <r>     3.1211     0.0000   362.0000 </r>
       <r>     3.1759     0.0000   362.0000 </r>
       <r>     3.2307     0.0000   362.0000 </r>
       <r>     3.2855     0.0000   362.0000 </r>
       <r>     3.3403     0.0074   362.0004 </r>
       <r>     3.3951     2.5797   362.1418 </r>
       <r>     3.4500    97.6366   367.4940 </r>
       <r>     3.5048   456.2452   392.5042 </r>
       <r>     3.5596   293.7945   408.6092 </r>
       <r>     3.6144    25.1222   409.9863 </r>
       <r>     3.6692     0.2800   410.0017 </r>
       <r>     3.7240     5.2381   410.2888 </r>
       <r>     3.7789    99.8280   415.7611 </r>
       <r>     3.8337   245.4162   429.2142 </r>
       <r>     3.8885    83.6525   433.7998 </r>
       <r>     3.9433     3.6344   433.9990 </r>
       <r>     3.9981     0.0176   434.0000 </r>
       <r>     4.0529     0.0000   434.0000 </r>
       <r>     4.1078     0.0000   434.0000 </r>
       <r>     4.1626     0.0000   434.0000 </r>
       <r>     4.2174     0.0283   434.0015 </r>
       <r>     4.2722     4.9409   434.2724 </r>
       <r>     4.3270    97.0745   439.5938 </r>
       <r>     4.3819   246.6278   453.1133 </r>
       <r>     4.4367   121.1475   459.7542 </r>
       <r>     4.4915   158.1616   468.4242 </r>
       <r>     4.5463    94.0620   473.5805 </r>
       <r>     4.6011     7.5825   473.9961 </r>
       <r>     4.6559     0.0706   474.0000 </r>
       <r>     4.7108     0.0001   474.0000 </r>
       <r>     4.7656     0.0105   474.0006 </r>
       <r>     4.8204     2.8525   474.1569 </r>
       <r>     4.8752    85.0917   478.8214 </r>
       <r>     4.9300   318.8330   496.2990 </r>
       <r>     4.9848   165.5868   505.3761 </r>
       <r>     5.0397    11.2938   505.9952 </r>
       <r>     5.0945     0.0882   506.0000 </r>
       <r>     5.1493     0.0001   506.0000 </r>
       <r>     5.2041     0.0000   506.0000 </r>
       <r>     5.2589     0.0000   506.0000 </r>
       <r>     5.3137     0.0000   506.0000 </r>
       <r>     5.3686     0.0000   506.0000 </r>
       <r>     5.4234     0.0000   506.0000 </r>
       <r>     5.4782     0.0000   506.0000 </r>
       <r>     5.5330     0.0172   506.0009 </r>
       <r>     5.5878     2.1764   506.1202 </r>
       <r>     5.6427    31.4657   507.8451 </r>
       <r>     5.6975    59.6479   511.1149 </r>
       <r>     5.7523    15.6327   511.9718 </r>
       <r>     5.8071     0.5127   511.9999 </r>
       <r>     5.8619     0.0018   512.0000 </r>
       <r>     5.9167     0.0000   512.0000 </r>
       <r>     5.9716     0.0000   512.0000 </r>
       <r>     6.0264     0.0000   512.0000 </r>
       <r>     6.0812     0.0000   512.0000 </r>
       <r>     6.1360     0.0000   512.0000 </r>
       <r>     6.1908     0.0000   512.0000 </r>
       <r>     6.2456     0.0026   512.0001 </r>
       <r>     6.3005     0.8105   512.0446 </r>
       <r>     6.3553    27.6254   513.5589 </r>
       <r>     6.4101   116.9130   519.9678 </r>
       <r>     6.4649    68.2557   523.7094 </r>
       <r>     6.5197     5.2549   523.9974 </r>
       <r>     6.5745     0.0465   524.0000 </r>
       <r>     6.6294     0.0003   524.0000 </r>
       <r>     6.6842     0.1672   524.0092 </r>
       <r>     6.7390    11.3748   524.6327 </r>
       <r>     6.7938    91.8957   529.6702 </r>
       <r>     6.8486   100.3022   535.1685 </r>
       <r>     6.9034    14.9020   535.9854 </r>
       <r>     6.9583     0.2665   536.0000 </r>
       <r>     7.0131     0.1689   536.0092 </r>
       <r>     7.0679    10.0026   536.5576 </r>
       <r>     7.1227    98.1804   541.9396 </r>
       <r>     7.1775   384.7385   563.0299 </r>
       <r>     7.2324   445.0932   587.4287 </r>
       <r>     7.2872    81.5299   591.8980 </r>
       <r>     7.3420     1.8561   591.9997 </r>
       <r>     7.3968     0.0046   592.0000 </r>
       <r>     7.4516     0.0008   592.0000 </r>
       <r>     7.5064     0.4039   592.0222 </r>
       <r>     7.5613    21.4029   593.1954 </r>
       <r>     7.6161   136.7651   600.6925 </r>
       <r>     7.6709   119.1316   607.2230 </r>
       <r>     7.7257    13.9797   607.9894 </r>
       <r>     7.7805     0.1940   608.0000 </r>
       <r>     7.8353     0.0003   608.0000 </r>
       <r>     7.8902     0.0000   608.0000 </r>
       <r>     7.9450     0.0210   608.0012 </r>
       <r>     7.9998     4.0832   608.2250 </r>
       <r>     8.0546    88.5673   613.0800 </r>
       <r>     8.1094   246.4155   626.5879 </r>
       <r>     8.1642   111.5933   632.7051 </r>
       <r>     8.2191    64.9973   636.2681 </r>
       <r>     8.2739    29.6786   637.8950 </r>
       <r>     8.3287     1.9017   637.9992 </r>
       <r>     8.3835     0.0139   638.0000 </r>
       <r>     8.4383     0.0000   638.0000 </r>
       <r>     8.4932     0.0000   638.0000 </r>
       <r>     8.5480     0.0000   638.0000 </r>
       <r>     8.6028     0.0000   638.0000 </r>
       <r>     8.6576     0.0259   638.0014 </r>
       <r>     8.7124     2.7624   638.1529 </r>
       <r>     8.7672    34.5329   640.0459 </r>
       <r>     8.8221    58.0238   643.2266 </r>
       <r>     8.8769    13.6972   643.9774 </r>
       <r>     8.9317     0.4107   643.9999 </r>
       <r>     8.9865     0.0014   644.0000 </r>
       <r>     9.0413     0.0000   644.0000 </r>
       <r>     9.0961     0.0000   644.0000 </r>
       <r>     9.1510     0.0000   644.0000 </r>
       <r>     9.2058     0.0000   644.0000 </r>
       <r>     9.2606     0.0000   644.0000 </r>
       <r>     9.3154     0.0000   644.0000 </r>
       <r>     9.3702     0.0000   644.0000 </r>
       <r>     9.4250     0.0000   644.0000 </r>
       <r>     9.4799     0.0000   644.0000 </r>
       <r>     9.5347     0.0000   644.0000 </r>
      </set>
     </set>
    </array>
   </total>
  </dos>
 </calculation>
 <structure name="finalpos" >
  <crystal>
   <varray name="basis" >
    <v>       0.00000000      10.93716070      10.93716070 </v>
    <v>      10.93716070       0.00000000      10.93716070 </v>
    <v>      10.93716070      10.93716070       0.00000000 </v>
   </varray>
   <i name="volume">   2616.63878844 </i>
   <varray name="rec_basis" >
    <v>      -0.04571570       0.04571570       0.04571570 </v>
    <v>       0.04571570      -0.04571570       0.04571570 </v>
    <v>       0.04571570       0.04571570      -0.04571570 </v>
   </varray>
  </crystal>
  <varray name="positions" >
   <v>       0.06204284       0.06295716       0.06295716 </v>
   <v>       0.31204284       0.06295716       0.06204284 </v>
   <v>       0.56250000       0.06250000       0.06250000 </v>
   <v>       0.81250000       0.06250000       0.06250000 </v>
   <v>       0.06250000       0.31250000       0.06250000 </v>
   <v>       0.31250000       0.31250000       0.06250000 </v>
   <v>       0.56250000       0.31250000       0.06250000 </v>
   <v>       0.81250000       0.31250000       0.06250000 </v>
   <v>       0.06250000       0.56250000       0.06250000 </v>
   <v>       0.31250000       0.56250000       0.06250000 </v>
   <v>       0.56250000       0.56250000       0.06250000 </v>
   <v>       0.81250000       0.56250000       0.06250000 </v>
   <v>       0.06250000       0.81250000       0.06250000 </v>
   <v>       0.31250000       0.81250000       0.06250000 </v>
   <v>       0.56250000       0.81250000       0.06250000 </v>
   <v>       0.81250000       0.81250000       0.06250000 </v>
   <v>       0.06250000       0.06250000       0.31250000 </v>
   <v>       0.31250000       0.06250000       0.31250000 </v>
   <v>       0.56250000       0.06250000       0.31250000 </v>
   <v>       0.81250000       0.06250000       0.31250000 </v>
   <v>       0.06250000       0.31250000       0.31250000 </v>
   <v>       0.31250000       0.31250000       0.31250000 </v>
   <v>       0.56250000       0.31250000       0.31250000 </v>
   <v>       0.81250000       0.31250000       0.31250000 </v>
   <v>       0.06250000       0.56250000       0.31250000 </v>
   <v>       0.31250000       0.56250000       0.31250000 </v>
   <v>       0.56250000       0.56250000       0.31250000 </v>
   <v>       0.81250000       0.56250000       0.31250000 </v>
   <v>       0.06250000       0.81250000       0.31250000 </v>
   <v>       0.31250000       0.81250000       0.31250000 </v>
   <v>       0.56250000       0.81250000       0.31250000 </v>
   <v>       0.81250000       0.81250000       0.31250000 </v>
   <v>       0.06250000       0.06250000       0.56250000 </v>
   <v>       0.31250000       0.06250000       0.56250000 </v>
   <v>       0.56250000       0.06250000       0.56250000 </v>
   <v>       0.81250000       0.06250000       0.56250000 </v>
   <v>       0.06250000       0.31250000       0.56250000 </v>
   <v>       0.31250000       0.31250000       0.56250000 </v>
   <v>       0.56250000       0.31250000       0.56250000 </v>
   <v>       0.81250000       0.31250000       0.56250000 </v>
   <v>       0.06250000       0.56250000       0.56250000 </v>
   <v>       0.31250000       0.56250000       0.56250000 </v>
   <v>       0.56250000       0.56250000       0.56250000 </v>
   <v>       0.81250000       0.56250000       0.56250000 </v>
   <v>       0.06250000       0.81250000       0.56250000 </v>
   <v>       0.31250000       0.81250000       0.56250000 </v>
   <v>       0.56250000       0.81250000       0.56250000 </v>
   <v>       0.81250000       0.81250000       0.56250000 </v>
   <v>       0.06250000       0.06250000       0.81250000 </v>
   <v>       0.31250000       0.06250000       0.81250000 </v>
   <v>       0.56250000       0.06250000       0.81250000 </v>
   <v>       0.81250000       0.06250000       0.81250000 </v>
   <v>       0.06250000       0.31250000       0.81250000 </v>
   <v>       0.31250000       0.31250000       0.81250000 </v>
   <v>       0.56250000       0.31250000       0.81250000 </v>
   <v>       0.81250000       0.31250000       0.81250000 </v>
   <v>       0.06250000       0.56250000       0.81250000 </v>
   <v>       0.31250000       0.56250000       0.81250000 </v>
   <v>       0.56250000       0.56250000       0.81250000 </v>
   <v>       0.81250000       0.56250000       0.81250000 </v>
   <v>       0.06250000       0.81250000       0.81250000 </v>
   <v>       0.31250000       0.81250000       0.81250000 </v>
   <v>       0.56250000       0.81250000       0.81250000 </v>
   <v>       0.81250000       0.81250000       0.81250000 </v>
   <v>       0.00000000       0.00000000       0.00000000 </v>
   <v>       0.25000000       0.00000000       0.00000000 </v>
   <v>       0.50000000       0.00000000       0.00000000 </v>
   <v>       0.75000000       0.00000000       0.00000000 </v>
   <v>       0.00000000       0.25000000       0.00000000 </v>
   <v>       0.25000000       0.25000000       0.00000000 </v>
   <v>       0.50000000       0.25000000       0.00000000 </v>
   <v>       0.75000000       0.25000000       0.00000000 </v>
   <v>       0.00000000       0.50000000       0.00000000 </v>
   <v>       0.25000000       0.50000000       0.00000000 </v>
   <v>       0.50000000       0.50000000       0.00000000 </v>
   <v>       0.75000000       0.50000000       0.00000000 </v>
   <v>       0.00000000       0.75000000       0.00000000 </v>
   <v>       0.25000000       0.75000000       0.00000000 </v>
   <v>       0.50000000       0.75000000       0.00000000 </v>
   <v>       0.75000000       0.75000000       0.00000000 </v>
   <v>       0.00000000       0.00000000       0.25000000 </v>
   <v>       0.25000000       0.00000000       0.25000000 </v>
   <v>       0.50000000       0.00000000       0.25000000 </v>
   <v>       0.75000000       0.00000000       0.25000000 </v>
   <v>       0.00000000       0.25000000       0.25000000 </v>
   <v>       0.25000000       0.25000000       0.25000000 </v>
   <v>       0.50000000       0.25000000       0.25000000 </v>
   <v>       0.75000000       0.25000000       0.25000000 </v>
   <v>       0.00000000       0.50000000       0.25000000 </v>
   <v>       0.25000000       0.50000000       0.25000000 </v>
   <v>       0.50000000       0.50000000       0.25000000 </v>
   <v>       0.75000000       0.50000000       0.25000000 </v>
   <v>       0.00000000       0.75000000       0.25000000 </v>
   <v>       0.25000000       0.75000000       0.25000000 </v>
   <v>       0.50000000       0.75000000       0.25000000 </v>
   <v>       0.75000000       0.75000000       0.25000000 </v>
   <v>       0.00000000       0.00000000       0.50000000 </v>
   <v>       0.25000000       0.00000000       0.50000000 </v>
   <v>       0.50000000       0.00000000       0.50000000 </v>
   <v>       0.75000000       0.00000000       0.50000000 </v>
   <v>       0.00000000       0.25000000       0.50000000 </v>
   <v>       0.25000000       0.25000000       0.50000000 </v>
   <v>       0.50000000       0.25000000       0.50000000 </v>
   <v>       0.75000000       0.25000000       0.50000000 </v>
   <v>       0.00000000       0.50000000       0.50000000 </v>
   <v>       0.25000000       0.50000000       0.50000000 </v>
   <v>       0.50000000       0.50000000       0.50000000 </v>
   <v>       0.75000000       0.50000000       0.50000000 </v>
   <v>       0.00000000       0.75000000       0.50000000 </v>
   <v>       0.25000000       0.75000000       0.50000000 </v>
   <v>       0.50000000       0.75000000       0.50000000 </v>
   <v>       0.75000000       0.75000000       0.50000000 </v>
   <v>       0.00000000       0.00000000       0.75000000 </v>
   <v>       0.25000000       0.00000000       0.75000000 </v>
   <v>       0.50000000       0.00000000       0.75000000 </v>
   <v>       0.75000000       0.00000000       0.75000000 </v>
   <v>       0.00000000       0.25000000       0.75000000 </v>
   <v>       0.25000000       0.25000000       0.75000000 </v>
   <v>       0.50000000       0.25000000       0.75000000 </v>
   <v>       0.75000000       0.25000000       0.75000000 </v>
   <v>       0.00000000       0.50000000       0.75000000 </v>
   <v>       0.25000000       0.50000000       0.75000000 </v>
   <v>       0.50000000       0.50000000       0.75000000 </v>
   <v>       0.75000000       0.50000000       0.75000000 </v>
   <v>       0.00000000       0.75000000       0.75000000 </v>
   <v>       0.25000000       0.75000000       0.75000000 </v>
   <v>       0.50000000       0.75000000       0.75000000 </v>
   <v>       0.75000000       0.75000000       0.75000000 </v>
  </varray>
 </structure>
</modeling>
