 vasp.5.4.4.18Apr17-6-g9f103f2a35 (build Aug 16 2020 16:33:06) complex          
  
 executed on             LinuxIFC date 2026.08.15  15:02:08
 running on   40 total cores
 distrk:  each k-point on   40 cores,    1 groups
 distr:  one band on NCORES_PER_BAND=  20 cores,    2 groups


--------------------------------------------------------------------------------------------------------


 INCAR:
 POTCAR:   PAW_PBE Si 05Jan2001                   

 ----------------------------------------------------------------------------- 
|                                                                             |
|           W    W    AA    RRRRR   N    N  II  N    N   GGGG   !!!           |
|           W    W   A  A   R    R  NN   N  II  NN   N  G    G  !!!           |
|           W    W  A    A  R    R  N N  N  II  N N  N  G       !!!           |
|           W WW W  AAAAAA  RRRRR   N  N N  II  N  N N  G  GGG   !            |
|           WW  WW  A    A  R   R   N   NN  II  N   NN  G    G                |
|           W    W  A    A  R    R  N    N  II  N    N   GGGG   !!!           |
|                                                                             |
|      For optimal performance we recommend to set                            |
|        NCORE= 4 - approx SQRT( number of cores)                             |
|      NCORE specifies how many cores store one orbital (NPAR=cpu/NCORE).     |
|      This setting can  greatly improve the performance of VASP for DFT.     |
|      The default,   NCORE=1            might be grossly inefficient         |
|      on modern multi-core architectures or massively parallel machines.     |
|      Do your own testing !!!!                                               |
|      Unfortunately you need to use the default for GW and RPA calculations. |
|      (for HF NCORE is supported but not extensively tested yet)             |
|                                                                             |
 ----------------------------------------------------------------------------- 

 POTCAR:   PAW_PBE Si 05Jan2001                   
   VRHFIN =Si: s2p2                                                             
   LEXCH  = PE                                                                  
   EATOM  =   103.0669 eV,    7.5752 Ry                                         
                                                                                
   TITEL  = PAW_PBE Si 05Jan2001                                                
   LULTRA =        F    use ultrasoft PP ?                                      
   IUNSCR =        1    unscreen: 0-lin 1-nonlin 2-no                           
   RPACOR =    1.500    partial core radius                                     
   POMASS =   28.085; ZVAL   =    4.000    mass and valenz                      
   RCORE  =    1.900    outmost cutoff radius                                   
   RWIGS  =    2.480; RWIGS  =    1.312    wigner-seitz radius (au A)           
   ENMAX  =  245.345; ENMIN  =  184.009 eV                                      
   ICORE  =        2    local potential                                         
   LCOR   =        T    correct aug charges                                     
   LPAW   =        T    paw PP                                                  
   EAUG   =  322.069                                                            
   DEXC   =    -.007                                                            
   RMAX   =    2.944    core radius for proj-oper                               
   RAUG   =    1.300    factor for augmentation sphere                          
   RDEP   =    1.993    radius for radial grids                                 
   QCUT   =   -4.246; QGAM   =    8.493    optimization parameters              
                                                                                
   Description                                                                  
     l     E      TYP  RCUT    TYP  RCUT                                        
     0   .000     23  1.900                                                     
     0   .000     23  1.900                                                     
     1   .000     23  1.900                                                     
     1   .000     23  1.900                                                     
     2   .000      7  1.900                                                     
  local pseudopotential read in
  partial core-charges read in
  atomic valenz-charges read in
  non local Contribution for L=           0  read in
    real space projection operators read in
  non local Contribution for L=           0  read in
    real space projection operators read in
  non local Contribution for L=           1  read in
    real space projection operators read in
  non local Contribution for L=           1  read in
    real space projection operators read in
    PAW grid and wavefunctions read in
 
   number of l-projection  operators is LMAX  =           4
   number of lm-projection operators is LMMAX =           8
 

 ----------------------------------------------------------------------------- 
|                                                                             |
|  ADVICE TO THIS USER RUNNING 'VASP/VAMP'   (HEAR YOUR MASTER'S VOICE ...):  |
|                                                                             |
|      You have a (more or less) 'large supercell' and for larger cells       |
|      it might be more efficient to use real space projection operators      |
|      So try LREAL= Auto  in the INCAR   file.                               |
|      Mind: If you want to do a very accurate calculations keep the          |
|      reciprocal projection scheme          (i.e. LREAL=.FALSE.)             |
|                                                                             |
 ----------------------------------------------------------------------------- 

 PAW_PBE Si 05Jan2001                   :
 energy of atom  1       EATOM= -103.0669
 kinetic energy error for atom=    0.0006 (will be added to EATOM!!)
 
 
 POSCAR: Si                                      
  positions in direct lattice
  No initial velocities read in
 exchange correlation table for  LEXCH =        8
   RHO(1)=    0.500       N(1)  =     2000
   RHO(2)=  100.500       N(2)  =     4000
 


--------------------------------------------------------------------------------------------------------


 ion  position               nearest neighbor table
   1  0.062  0.062  0.063-  34 2.36   2 2.36  10 2.37   4 2.37
   2  0.000  0.000  0.000-   1 2.36   7 2.37  25 2.37  97 2.37
   3  0.312  0.063  0.063-  12 2.36  36 2.36   4 2.37   6 2.37
   4  0.250  0.000  0.000-  27 2.37  99 2.37   1 2.37   3 2.37
   5  0.562  0.062  0.062-   6 2.37   8 2.37  14 2.37  38 2.37
   6  0.500  0.000  0.000-   5 2.37  29 2.37 101 2.37   3 2.37
   7  0.812  0.062  0.062-   2 2.37   8 2.37  16 2.37  40 2.37
   8  0.750  0.000  0.000-   5 2.37   7 2.37  31 2.37 103 2.37
   9  0.062  0.312  0.062-  10 2.37  12 2.37  18 2.37  42 2.37
  10  0.000  0.250  0.000-   9 2.37  15 2.37 105 2.37   1 2.37
  11  0.312  0.312  0.062-  12 2.37  14 2.37  20 2.37  44 2.37
  12  0.250  0.250  0.000-   3 2.36   9 2.37  11 2.37 107 2.37
  13  0.562  0.312  0.062-  14 2.37  16 2.37  22 2.37  46 2.37
  14  0.500  0.250  0.000-   5 2.37  11 2.37  13 2.37 109 2.37
  15  0.812  0.312  0.062-  10 2.37  16 2.37  24 2.37  48 2.37
  16  0.750  0.250  0.000-   7 2.37  13 2.37  15 2.37 111 2.37
  17  0.062  0.562  0.062-  18 2.37  20 2.37  26 2.37  50 2.37
  18  0.000  0.500  0.000-   9 2.37  17 2.37  23 2.37 113 2.37
  19  0.312  0.562  0.062-  20 2.37  22 2.37  28 2.37  52 2.37
  20  0.250  0.500  0.000-  11 2.37  17 2.37  19 2.37 115 2.37
  21  0.562  0.562  0.062-  22 2.37  24 2.37  30 2.37  54 2.37
  22  0.500  0.500  0.000-  13 2.37  19 2.37  21 2.37 117 2.37
  23  0.812  0.562  0.062-  18 2.37  24 2.37  32 2.37  56 2.37
  24  0.750  0.500  0.000-  15 2.37  21 2.37  23 2.37 119 2.37
  25  0.062  0.812  0.062-   2 2.37  26 2.37  28 2.37  58 2.37
  26  0.000  0.750  0.000-  17 2.37  25 2.37  31 2.37 121 2.37
  27  0.312  0.812  0.062-   4 2.37  28 2.37  30 2.37  60 2.37
  28  0.250  0.750  0.000-  19 2.37  25 2.37  27 2.37 123 2.37
  29  0.562  0.812  0.062-   6 2.37  30 2.37  32 2.37  62 2.37
  30  0.500  0.750  0.000-  21 2.37  27 2.37  29 2.37 125 2.37
  31  0.812  0.812  0.062-   8 2.37  26 2.37  32 2.37  64 2.37
  32  0.750  0.750  0.000-  23 2.37  29 2.37  31 2.37 127 2.37
  33  0.062  0.062  0.312-  34 2.37  36 2.37  42 2.37  66 2.37
  34  0.000  0.000  0.250-   1 2.36  33 2.37  39 2.37  57 2.37
  35  0.312  0.062  0.312-  36 2.37  38 2.37  44 2.37  68 2.37
  36  0.250  0.000  0.250-   3 2.36  33 2.37  35 2.37  59 2.37
  37  0.562  0.062  0.312-  38 2.37  40 2.37  46 2.37  70 2.37
  38  0.500  0.000  0.250-   5 2.37  35 2.37  37 2.37  61 2.37
  39  0.812  0.062  0.312-  34 2.37  40 2.37  48 2.37  72 2.37
  40  0.750  0.000  0.250-   7 2.37  37 2.37  39 2.37  63 2.37
  41  0.062  0.312  0.312-  42 2.37  44 2.37  50 2.37  74 2.37
  42  0.000  0.250  0.250-   9 2.37  33 2.37  41 2.37  47 2.37
  43  0.312  0.312  0.312-  44 2.37  46 2.37  52 2.37  76 2.37
  44  0.250  0.250  0.250-  11 2.37  35 2.37  41 2.37  43 2.37
  45  0.562  0.312  0.312-  46 2.37  48 2.37  54 2.37  78 2.37
  46  0.500  0.250  0.250-  13 2.37  37 2.37  43 2.37  45 2.37
  47  0.812  0.312  0.312-  42 2.37  48 2.37  56 2.37  80 2.37
  48  0.750  0.250  0.250-  15 2.37  39 2.37  45 2.37  47 2.37
  49  0.062  0.562  0.312-  50 2.37  52 2.37  58 2.37  82 2.37
  50  0.000  0.500  0.250-  17 2.37  41 2.37  49 2.37  55 2.37
  51  0.312  0.562  0.312-  52 2.37  54 2.37  60 2.37  84 2.37
  52  0.250  0.500  0.250-  19 2.37  43 2.37  49 2.37  51 2.37
  53  0.562  0.562  0.312-  54 2.37  56 2.37  62 2.37  86 2.37
  54  0.500  0.500  0.250-  21 2.37  45 2.37  51 2.37  53 2.37
  55  0.812  0.562  0.312-  50 2.37  56 2.37  64 2.37  88 2.37
  56  0.750  0.500  0.250-  23 2.37  47 2.37  53 2.37  55 2.37
  57  0.062  0.812  0.312-  34 2.37  58 2.37  60 2.37  90 2.37
  58  0.000  0.750  0.250-  25 2.37  49 2.37  57 2.37  63 2.37
  59  0.312  0.812  0.312-  36 2.37  60 2.37  62 2.37  92 2.37
  60  0.250  0.750  0.250-  27 2.37  51 2.37  57 2.37  59 2.37
  61  0.562  0.812  0.312-  38 2.37  62 2.37  64 2.37  94 2.37
  62  0.500  0.750  0.250-  29 2.37  53 2.37  59 2.37  61 2.37
  63  0.812  0.812  0.312-  40 2.37  58 2.37  64 2.37  96 2.37
  64  0.750  0.750  0.250-  31 2.37  55 2.37  61 2.37  63 2.37
  65  0.062  0.062  0.562-  66 2.37  68 2.37  74 2.37  98 2.37
  66  0.000  0.000  0.500-  33 2.37  65 2.37  71 2.37  89 2.37
  67  0.312  0.062  0.562-  68 2.37  70 2.37  76 2.37 100 2.37
  68  0.250  0.000  0.500-  35 2.37  65 2.37  67 2.37  91 2.37
  69  0.562  0.062  0.562-  70 2.37  72 2.37  78 2.37 102 2.37
  70  0.500  0.000  0.500-  37 2.37  67 2.37  69 2.37  93 2.37
  71  0.812  0.062  0.562-  66 2.37  72 2.37  80 2.37 104 2.37
  72  0.750  0.000  0.500-  39 2.37  69 2.37  71 2.37  95 2.37
  73  0.062  0.312  0.562-  74 2.37  76 2.37  82 2.37 106 2.37
  74  0.000  0.250  0.500-  41 2.37  65 2.37  73 2.37  79 2.37
  75  0.312  0.312  0.562-  76 2.37  78 2.37  84 2.37 108 2.37
  76  0.250  0.250  0.500-  43 2.37  67 2.37  73 2.37  75 2.37
  77  0.562  0.312  0.562-  78 2.37  80 2.37  86 2.37 110 2.37
  78  0.500  0.250  0.500-  45 2.37  69 2.37  75 2.37  77 2.37
  79  0.812  0.312  0.562-  74 2.37  80 2.37  88 2.37 112 2.37
  80  0.750  0.250  0.500-  47 2.37  71 2.37  77 2.37  79 2.37
  81  0.062  0.562  0.562-  82 2.37  84 2.37  90 2.37 114 2.37
  82  0.000  0.500  0.500-  49 2.37  73 2.37  81 2.37  87 2.37
  83  0.312  0.562  0.562-  84 2.37  86 2.37  92 2.37 116 2.37
  84  0.250  0.500  0.500-  51 2.37  75 2.37  81 2.37  83 2.37
  85  0.562  0.562  0.562-  86 2.37  88 2.37  94 2.37 118 2.37
  86  0.500  0.500  0.500-  53 2.37  77 2.37  83 2.37  85 2.37
  87  0.812  0.562  0.562-  82 2.37  88 2.37  96 2.37 120 2.37
  88  0.750  0.500  0.500-  55 2.37  79 2.37  85 2.37  87 2.37
  89  0.062  0.812  0.562-  66 2.37  90 2.37  92 2.37 122 2.37
  90  0.000  0.750  0.500-  57 2.37  81 2.37  89 2.37  95 2.37
  91  0.312  0.812  0.562-  68 2.37  92 2.37  94 2.37 124 2.37
  92  0.250  0.750  0.500-  59 2.37  83 2.37  89 2.37  91 2.37
  93  0.562  0.812  0.562-  70 2.37  94 2.37  96 2.37 126 2.37
  94  0.500  0.750  0.500-  61 2.37  85 2.37  91 2.37  93 2.37
  95  0.812  0.812  0.562-  72 2.37  90 2.37  96 2.37 128 2.37
  96  0.750  0.750  0.500-  63 2.37  87 2.37  93 2.37  95 2.37
  97  0.062  0.062  0.812-   2 2.37  98 2.37 100 2.37 106 2.37
  98  0.000  0.000  0.750-  65 2.37  97 2.37 103 2.37 121 2.37
  99  0.312  0.062  0.812-   4 2.37 100 2.37 102 2.37 108 2.37
 100  0.250  0.000  0.750-  67 2.37  97 2.37  99 2.37 123 2.37
 101  0.562  0.062  0.812-   6 2.37 102 2.37 104 2.37 110 2.37
 102  0.500  0.000  0.750-  69 2.37  99 2.37 101 2.37 125 2.37
 103  0.812  0.062  0.812-   8 2.37  98 2.37 104 2.37 112 2.37
 104  0.750  0.000  0.750-  71 2.37 101 2.37 103 2.37 127 2.37
 105  0.062  0.312  0.812-  10 2.37 106 2.37 108 2.37 114 2.37
 106  0.000  0.250  0.750-  73 2.37  97 2.37 105 2.37 111 2.37
 107  0.312  0.312  0.812-  12 2.37 108 2.37 110 2.37 116 2.37
 108  0.250  0.250  0.750-  75 2.37  99 2.37 105 2.37 107 2.37
 109  0.562  0.312  0.812-  14 2.37 110 2.37 112 2.37 118 2.37
 110  0.500  0.250  0.750-  77 2.37 101 2.37 107 2.37 109 2.37
 111  0.812  0.312  0.812-  16 2.37 106 2.37 112 2.37 120 2.37
 112  0.750  0.250  0.750-  79 2.37 103 2.37 109 2.37 111 2.37
 113  0.062  0.562  0.812-  18 2.37 114 2.37 116 2.37 122 2.37
 114  0.000  0.500  0.750-  81 2.37 105 2.37 113 2.37 119 2.37
 115  0.312  0.562  0.812-  20 2.37 116 2.37 118 2.37 124 2.37
 116  0.250  0.500  0.750-  83 2.37 107 2.37 113 2.37 115 2.37
 117  0.562  0.562  0.812-  22 2.37 118 2.37 120 2.37 126 2.37
 118  0.500  0.500  0.750-  85 2.37 109 2.37 115 2.37 117 2.37
 119  0.812  0.562  0.812-  24 2.37 114 2.37 120 2.37 128 2.37
 120  0.750  0.500  0.750-  87 2.37 111 2.37 117 2.37 119 2.37
 121  0.062  0.812  0.812-  26 2.37  98 2.37 122 2.37 124 2.37
 122  0.000  0.750  0.750-  89 2.37 113 2.37 121 2.37 127 2.37
 123  0.312  0.812  0.812-  28 2.37 100 2.37 124 2.37 126 2.37
 124  0.250  0.750  0.750-  91 2.37 115 2.37 121 2.37 123 2.37
 125  0.562  0.812  0.812-  30 2.37 102 2.37 126 2.37 128 2.37
 126  0.500  0.750  0.750-  93 2.37 117 2.37 123 2.37 125 2.37
 127  0.812  0.812  0.812-  32 2.37 104 2.37 122 2.37 128 2.37
 128  0.750  0.750  0.750-  95 2.37 119 2.37 125 2.37 127 2.37
 

IMPORTANT INFORMATION: All symmetrisations will be switched off!
NOSYMM: (Re-)initialisation of all symmetry stuff for point group C_1.

 
 
 KPOINTS: K-Spacing Value to Generate K-Mesh: 0.03

Automatic generation of k-mesh.
Space group operators:
 irot       det(A)        alpha          n_x          n_y          n_z        tau_x        tau_y        tau_z
    1     1.000000     0.000000     1.000000     0.000000     0.000000     0.000000     0.000000     0.000000
 
 Subroutine IBZKPT returns following result:
 ===========================================
 
 Found      1 irreducible k-points:
 
 Following reciprocal coordinates:
            Coordinates               Weight
  0.000000  0.000000  0.000000      1.000000
 
 Following cartesian coordinates:
            Coordinates               Weight
  0.000000  0.000000  0.000000      1.000000
 


--------------------------------------------------------------------------------------------------------




 Dimension of arrays:
   k-points           NKPTS =      1   k-points in BZ     NKDIM =      1   number of bands    NBANDS=    322
   number of dos      NEDOS =    301   number of ions     NIONS =    128
   non local maximal  LDIM  =      4   non local SUM 2l+1 LMDIM =      8
   total plane-waves  NPLWV = ******
   max r-space proj   IRMAX =      1   max aug-charges    IRDMAX= 176819
   dimension x,y,z NGX =   120 NGY =  120 NGZ =  120
   dimension x,y,z NGXF=   240 NGYF=  240 NGZF=  240
   support grid    NGXF=   480 NGYF=  480 NGZF=  480
   ions per type =             128
   NGX,Y,Z   is equivalent  to a cutoff of  12.90, 12.90, 12.90 a.u.
   NGXF,Y,Z  is equivalent  to a cutoff of  25.80, 25.80, 25.80 a.u.

 SYSTEM =  unknown system                          
 POSCAR =  Si                                      

 Startparameter for this run:
   NWRITE =      2    write-flag & timer
   PREC   = accura    normal or accurate (medium, high low for compatibility)
   ISTART =      0    job   : 0-new  1-cont  2-samecut
   ICHARG =      2    charge: 1-file 2-atom 10-const
   ISPIN  =      1    spin polarized calculation?
   LNONCOLLINEAR =      F non collinear calculations
   LSORBIT =      F    spin-orbit coupling
   INIWAV =      1    electr: 0-lowe 1-rand  2-diag
   LASPH  =      F    aspherical Exc in radial PAW
   METAGGA=      F    non-selfconsistent MetaGGA calc.

 Electronic Relaxation 1
   ENCUT  =  500.0 eV  36.75 Ry    6.06 a.u.  28.20 28.20 28.20*2*pi/ulx,y,z
   ENINI  =  500.0     initial cutoff
   ENAUG  =  322.1 eV  augmentation charge cutoff
   NELM   =     60;   NELMIN=  2; NELMDL= -5     # of ELM steps 
   EDIFF  = 0.1E-07   stopping-criterion for ELM
   LREAL  =      F    real-space projection
   NLSPLINE    = F    spline interpolate recip. space projectors
   LCOMPAT=      F    compatible to vasp.4.4
   GGA_COMPAT  = T    GGA compatible to vasp.4.4-vasp.4.6
   LMAXPAW     = -100 max onsite density
   LMAXMIX     =    2 max onsite mixed and CHGCAR
   VOSKOWN=      0    Vosko Wilk Nusair interpolation
   ROPT   =    0.00000
 Ionic relaxation
   EDIFFG = 0.1E-06   stopping-criterion for IOM
   NSW    =      0    number of steps for IOM
   NBLOCK =      1;   KBLOCK =      1    inner block; outer block 
   IBRION =     -1    ionic relax: 0-MD 1-quasi-New 2-CG
   NFREE  =      0    steps in history (QN), initial steepest desc. (CG)
   ISIF   =      2    stress and relaxation
   IWAVPR =     10    prediction:  0-non 1-charg 2-wave 3-comb
   ISYM   =      0    0-nonsym 1-usesym 2-fastsym
   LCORR  =      T    Harris-Foulkes like correction to forces

   POTIM  = 0.5000    time-step for ionic-motion
   TEIN   =    0.0    initial temperature
   TEBEG  =    0.0;   TEEND  =   0.0 temperature during run
   SMASS  =  -3.00    Nose mass-parameter (am)
   estimated Nose-frequenzy (Omega)   =  0.10E-29 period in steps =****** mass=  -0.547E-26a.u.
   SCALEE = 1.0000    scale energy and forces
   NPACO  =    256;   APACO  = 16.0  distance and # of slots for P.C.
   PSTRESS=    0.0 pullay stress

  Mass of Ions in am
   POMASS =  28.09
  Ionic Valenz
   ZVAL   =   4.00
  Atomic Wigner-Seitz radii
   RWIGS  =  -1.00
  virtual crystal weights 
   VCA    =   1.00
   NELECT =     512.0000    total number of electrons
   NUPDOWN=      -1.0000    fix difference up-down

 DOS related values:
   EMIN   =  10.00;   EMAX   =-10.00  energy-range for DOS
   EFERMI =   0.00
   ISMEAR =     0;   SIGMA  =   0.05  broadening in eV -4-tet -1-fermi 0-gaus

 Electronic relaxation 2 (details)
   IALGO  =     38    algorithm
   LDIAG  =      T    sub-space diagonalisation (order eigenvalues)
   LSUBROT=      F    optimize rotation matrix (better conditioning)
   TURBO    =      0    0=normal 1=particle mesh
   IRESTART =      0    0=no restart 2=restart with 2 vectors
   NREBOOT  =      0    no. of reboots
   NMIN     =      0    reboot dimension
   EREF     =   0.00    reference energy to select bands
   IMIX   =      4    mixing-type and parameters
     AMIX     =   0.40;   BMIX     =  1.00
     AMIX_MAG =   1.60;   BMIX_MAG =  1.00
     AMIN     =   0.10
     WC   =   100.;   INIMIX=   1;  MIXPRE=   1;  MAXMIX= -45

 Intra band minimization:
   WEIMIN = 0.0000     energy-eigenvalue tresh-hold
   EBREAK =  0.78E-11  absolut break condition
   DEPER  =   0.30     relativ break condition  

   TIME   =   0.40     timestep for ELM

  volume/ion in A,a.u.               =      20.44       137.95
  Fermi-wavevector in a.u.,A,eV,Ry     =   0.950423  1.796039 12.290193  0.903304
  Thomas-Fermi vector in A             =   2.078798
 
 Write flags
   LWAVE        =      F    write WAVECAR
   LDOWNSAMPLE  =      F    k-point downsampling of WAVECAR
   LCHARG       =      F    write CHGCAR
   LVTOT        =      F    write LOCPOT, total local potential
   LVHAR        =      F    write LOCPOT, Hartree potential only
   LELF         =      F    write electronic localiz. function (ELF)
   LORBIT       =      0    0 simple, 1 ext, 2 COOP (PROOUT), +10 PAW based schemes


 Dipole corrections
   LMONO  =      F    monopole corrections only (constant potential shift)
   LDIPOL =      F    correct potential (dipole corrections)
   IDIPOL =      0    1-x, 2-y, 3-z, 4-all directions 
   EPSILON=  1.0000000 bulk dielectric constant

 Exchange correlation treatment:
   GGA     =    --    GGA type
   LEXCH   =     8    internal setting for exchange type
   VOSKOWN=      0    Vosko Wilk Nusair interpolation
   LHFCALC =     F    Hartree Fock is set to
   LHFONE  =     F    Hartree Fock one center treatment
   AEXX    =    0.0000 exact exchange contribution

 Linear response parameters
   LEPSILON=     F    determine dielectric tensor
   LRPA    =     F    only Hartree local field effects (RPA)
   LNABLA  =     F    use nabla operator in PAW spheres
   LVEL    =     F    velocity operator in full k-point grid
   LINTERFAST=   F  fast interpolation
   KINTER  =     0    interpolate to denser k-point grid
   CSHIFT  =0.1000    complex shift for real part using Kramers Kronig
   OMEGAMAX=  -1.0    maximum frequency
   DEG_THRESHOLD= 0.2000000E-02 threshold for treating states as degnerate
   RTIME   =   -0.100 relaxation time in fs
  (WPLASMAI=    0.000 imaginary part of plasma frequency in eV, 0.658/RTIME)
   DFIELD  = 0.0000000 0.0000000 0.0000000 field for delta impulse in time
 
 Orbital magnetization related:
   ORBITALMAG=     F  switch on orbital magnetization
   LCHIMAG   =     F  perturbation theory with respect to B field
   DQ        =  0.001000  dq finite difference perturbation B field
   LLRAUG    =     F  two centre corrections for induced B field



--------------------------------------------------------------------------------------------------------


 Static calculation
 charge density and potential will be updated during run
 non-spin polarized calculation
 Variant of blocked Davidson
 Davidson routine will perform the subspace rotation
 perform sub-space diagonalisation
    after iterative eigenvector-optimisation
 modified Broyden-mixing scheme, WC =      100.0
 initial mixing is a Kerker type mixing with AMIX =  0.4000 and BMIX =      1.0000
 Hartree-type preconditioning will be used
 using additional bands           66
 reciprocal scheme for non local part
 use partial core corrections
 calculate Harris-corrections to forces 
   (improved forces if not selfconsistent)
 use gradient corrections 
 use of overlap-Matrix (Vanderbilt PP)
 Gauss-broadening in eV      SIGMA  =   0.05


--------------------------------------------------------------------------------------------------------


  energy-cutoff  :      500.00
  volume of cell :     2616.64
      direct lattice vectors                 reciprocal lattice vectors
     0.000000000 10.937160696 10.937160696    -0.045715704  0.045715704  0.045715704
    10.937160696  0.000000000 10.937160696     0.045715704 -0.045715704  0.045715704
    10.937160696 10.937160696  0.000000000     0.045715704  0.045715704 -0.045715704

  length of vectors
    15.467480990 15.467480990 15.467480990     0.079181922  0.079181922  0.079181922


 
 k-points in units of 2pi/SCALE and weight: K-Spacing Value to Generate K-Mesh: 0.03
   0.00000000  0.00000000  0.00000000       1.000
 
 k-points in reciprocal lattice and weights: K-Spacing Value to Generate K-Mesh: 0.03
   0.00000000  0.00000000  0.00000000       1.000
 
 position of ions in fractional coordinates (direct lattice) 
   0.06204284  0.06204284  0.06295716
   0.00000000  0.00000000  0.00000000
   0.31204284  0.06295716  0.06295716
   0.25000000  0.00000000  0.00000000
   0.56250000  0.06250000  0.06250000
   0.50000000  0.00000000  0.00000000
   0.81250000  0.06250000  0.06250000
   0.75000000  0.00000000  0.00000000
   0.06250000  0.31250000  0.06250000
   0.00000000  0.25000000  0.00000000
   0.31250000  0.31250000  0.06250000
   0.25000000  0.25000000  0.00000000
   0.56250000  0.31250000  0.06250000
   0.50000000  0.25000000  0.00000000
   0.81250000  0.31250000  0.06250000
   0.75000000  0.25000000  0.00000000
   0.06250000  0.56250000  0.06250000
   0.00000000  0.50000000  0.00000000
   0.31250000  0.56250000  0.06250000
   0.25000000  0.50000000  0.00000000
   0.56250000  0.56250000  0.06250000
   0.50000000  0.50000000  0.00000000
   0.81250000  0.56250000  0.06250000
   0.75000000  0.50000000  0.00000000
   0.06250000  0.81250000  0.06250000
   0.00000000  0.75000000  0.00000000
   0.31250000  0.81250000  0.06250000
   0.25000000  0.75000000  0.00000000
   0.56250000  0.81250000  0.06250000
   0.50000000  0.75000000  0.00000000
   0.81250000  0.81250000  0.06250000
   0.75000000  0.75000000  0.00000000
   0.06250000  0.06250000  0.31250000
   0.00000000  0.00000000  0.25000000
   0.31250000  0.06250000  0.31250000
   0.25000000  0.00000000  0.25000000
   0.56250000  0.06250000  0.31250000
   0.50000000  0.00000000  0.25000000
   0.81250000  0.06250000  0.31250000
   0.75000000  0.00000000  0.25000000
   0.06250000  0.31250000  0.31250000
   0.00000000  0.25000000  0.25000000
   0.31250000  0.31250000  0.31250000
   0.25000000  0.25000000  0.25000000
   0.56250000  0.31250000  0.31250000
   0.50000000  0.25000000  0.25000000
   0.81250000  0.31250000  0.31250000
   0.75000000  0.25000000  0.25000000
   0.06250000  0.56250000  0.31250000
   0.00000000  0.50000000  0.25000000
   0.31250000  0.56250000  0.31250000
   0.25000000  0.50000000  0.25000000
   0.56250000  0.56250000  0.31250000
   0.50000000  0.50000000  0.25000000
   0.81250000  0.56250000  0.31250000
   0.75000000  0.50000000  0.25000000
   0.06250000  0.81250000  0.31250000
   0.00000000  0.75000000  0.25000000
   0.31250000  0.81250000  0.31250000
   0.25000000  0.75000000  0.25000000
   0.56250000  0.81250000  0.31250000
   0.50000000  0.75000000  0.25000000
   0.81250000  0.81250000  0.31250000
   0.75000000  0.75000000  0.25000000
   0.06250000  0.06250000  0.56250000
   0.00000000  0.00000000  0.50000000
   0.31250000  0.06250000  0.56250000
   0.25000000  0.00000000  0.50000000
   0.56250000  0.06250000  0.56250000
   0.50000000  0.00000000  0.50000000
   0.81250000  0.06250000  0.56250000
   0.75000000  0.00000000  0.50000000
   0.06250000  0.31250000  0.56250000
   0.00000000  0.25000000  0.50000000
   0.31250000  0.31250000  0.56250000
   0.25000000  0.25000000  0.50000000
   0.56250000  0.31250000  0.56250000
   0.50000000  0.25000000  0.50000000
   0.81250000  0.31250000  0.56250000
   0.75000000  0.25000000  0.50000000
   0.06250000  0.56250000  0.56250000
   0.00000000  0.50000000  0.50000000
   0.31250000  0.56250000  0.56250000
   0.25000000  0.50000000  0.50000000
   0.56250000  0.56250000  0.56250000
   0.50000000  0.50000000  0.50000000
   0.81250000  0.56250000  0.56250000
   0.75000000  0.50000000  0.50000000
   0.06250000  0.81250000  0.56250000
   0.00000000  0.75000000  0.50000000
   0.31250000  0.81250000  0.56250000
   0.25000000  0.75000000  0.50000000
   0.56250000  0.81250000  0.56250000
   0.50000000  0.75000000  0.50000000
   0.81250000  0.81250000  0.56250000
   0.75000000  0.75000000  0.50000000
   0.06250000  0.06250000  0.81250000
   0.00000000  0.00000000  0.75000000
   0.31250000  0.06250000  0.81250000
   0.25000000  0.00000000  0.75000000
   0.56250000  0.06250000  0.81250000
   0.50000000  0.00000000  0.75000000
   0.81250000  0.06250000  0.81250000
   0.75000000  0.00000000  0.75000000
   0.06250000  0.31250000  0.81250000
   0.00000000  0.25000000  0.75000000
   0.31250000  0.31250000  0.81250000
   0.25000000  0.25000000  0.75000000
   0.56250000  0.31250000  0.81250000
   0.50000000  0.25000000  0.75000000
   0.81250000  0.31250000  0.81250000
   0.75000000  0.25000000  0.75000000
   0.06250000  0.56250000  0.81250000
   0.00000000  0.50000000  0.75000000
   0.31250000  0.56250000  0.81250000
   0.25000000  0.50000000  0.75000000
   0.56250000  0.56250000  0.81250000
   0.50000000  0.50000000  0.75000000
   0.81250000  0.56250000  0.81250000
   0.75000000  0.50000000  0.75000000
   0.06250000  0.81250000  0.81250000
   0.00000000  0.75000000  0.75000000
   0.31250000  0.81250000  0.81250000
   0.25000000  0.75000000  0.75000000
   0.56250000  0.81250000  0.81250000
   0.50000000  0.75000000  0.75000000
   0.81250000  0.81250000  0.81250000
   0.75000000  0.75000000  0.75000000
 
 position of ions in cartesian coordinates  (Angst):
   1.36714509  1.36714509  1.35714509
   0.00000000  0.00000000  0.00000000
   1.37714509  4.10143526  4.10143526
   0.00000000  2.73429017  2.73429017
   1.36714509  6.83572544  6.83572544
   0.00000000  5.46858035  5.46858035
   1.36714509  9.57001561  9.57001561
   0.00000000  8.20287052  8.20287052
   4.10143526  1.36714509  4.10143526
   2.73429017  0.00000000  2.73429017
   4.10143526  4.10143526  6.83572544
   2.73429017  2.73429017  5.46858035
   4.10143526  6.83572544  9.57001561
   2.73429017  5.46858035  8.20287052
   4.10143526  9.57001561 12.30430578
   2.73429017  8.20287052 10.93716070
   6.83572544  1.36714509  6.83572544
   5.46858035  0.00000000  5.46858035
   6.83572544  4.10143526  9.57001561
   5.46858035  2.73429017  8.20287052
   6.83572544  6.83572544 12.30430578
   5.46858035  5.46858035 10.93716070
   6.83572544  9.57001561 15.03859596
   5.46858035  8.20287052 13.67145087
   9.57001561  1.36714509  9.57001561
   8.20287052  0.00000000  8.20287052
   9.57001561  4.10143526 12.30430578
   8.20287052  2.73429017 10.93716070
   9.57001561  6.83572544 15.03859596
   8.20287052  5.46858035 13.67145087
   9.57001561  9.57001561 17.77288613
   8.20287052  8.20287052 16.40574104
   4.10143526  4.10143526  1.36714509
   2.73429017  2.73429017  0.00000000
   4.10143526  6.83572544  4.10143526
   2.73429017  5.46858035  2.73429017
   4.10143526  9.57001561  6.83572544
   2.73429017  8.20287052  5.46858035
   4.10143526 12.30430578  9.57001561
   2.73429017 10.93716070  8.20287052
   6.83572544  4.10143526  4.10143526
   5.46858035  2.73429017  2.73429017
   6.83572544  6.83572544  6.83572544
   5.46858035  5.46858035  5.46858035
   6.83572544  9.57001561  9.57001561
   5.46858035  8.20287052  8.20287052
   6.83572544 12.30430578 12.30430578
   5.46858035 10.93716070 10.93716070
   9.57001561  4.10143526  6.83572544
   8.20287052  2.73429017  5.46858035
   9.57001561  6.83572544  9.57001561
   8.20287052  5.46858035  8.20287052
   9.57001561  9.57001561 12.30430578
   8.20287052  8.20287052 10.93716070
   9.57001561 12.30430578 15.03859596
   8.20287052 10.93716070 13.67145087
  12.30430578  4.10143526  9.57001561
  10.93716070  2.73429017  8.20287052
  12.30430578  6.83572544 12.30430578
  10.93716070  5.46858035 10.93716070
  12.30430578  9.57001561 15.03859596
  10.93716070  8.20287052 13.67145087
  12.30430578 12.30430578 17.77288613
  10.93716070 10.93716070 16.40574104
   6.83572544  6.83572544  1.36714509
   5.46858035  5.46858035  0.00000000
   6.83572544  9.57001561  4.10143526
   5.46858035  8.20287052  2.73429017
   6.83572544 12.30430578  6.83572544
   5.46858035 10.93716070  5.46858035
   6.83572544 15.03859596  9.57001561
   5.46858035 13.67145087  8.20287052
   9.57001561  6.83572544  4.10143526
   8.20287052  5.46858035  2.73429017
   9.57001561  9.57001561  6.83572544
   8.20287052  8.20287052  5.46858035
   9.57001561 12.30430578  9.57001561
   8.20287052 10.93716070  8.20287052
   9.57001561 15.03859596 12.30430578
   8.20287052 13.67145087 10.93716070
  12.30430578  6.83572544  6.83572544
  10.93716070  5.46858035  5.46858035
  12.30430578  9.57001561  9.57001561
  10.93716070  8.20287052  8.20287052
  12.30430578 12.30430578 12.30430578
  10.93716070 10.93716070 10.93716070
  12.30430578 15.03859596 15.03859596
  10.93716070 13.67145087 13.67145087
  15.03859596  6.83572544  9.57001561
  13.67145087  5.46858035  8.20287052
  15.03859596  9.57001561 12.30430578
  13.67145087  8.20287052 10.93716070
  15.03859596 12.30430578 15.03859596
  13.67145087 10.93716070 13.67145087
  15.03859596 15.03859596 17.77288613
  13.67145087 13.67145087 16.40574104
   9.57001561  9.57001561  1.36714509
   8.20287052  8.20287052  0.00000000
   9.57001561 12.30430578  4.10143526
   8.20287052 10.93716070  2.73429017
   9.57001561 15.03859596  6.83572544
   8.20287052 13.67145087  5.46858035
   9.57001561 17.77288613  9.57001561
   8.20287052 16.40574104  8.20287052
  12.30430578  9.57001561  4.10143526
  10.93716070  8.20287052  2.73429017
  12.30430578 12.30430578  6.83572544
  10.93716070 10.93716070  5.46858035
  12.30430578 15.03859596  9.57001561
  10.93716070 13.67145087  8.20287052
  12.30430578 17.77288613 12.30430578
  10.93716070 16.40574104 10.93716070
  15.03859596  9.57001561  6.83572544
  13.67145087  8.20287052  5.46858035
  15.03859596 12.30430578  9.57001561
  13.67145087 10.93716070  8.20287052
  15.03859596 15.03859596 12.30430578
  13.67145087 13.67145087 10.93716070
  15.03859596 17.77288613 15.03859596
  13.67145087 16.40574104 13.67145087
  17.77288613  9.57001561  9.57001561
  16.40574104  8.20287052  8.20287052
  17.77288613 12.30430578 12.30430578
  16.40574104 10.93716070 10.93716070
  17.77288613 15.03859596 15.03859596
  16.40574104 13.67145087 13.67145087
  17.77288613 17.77288613 17.77288613
  16.40574104 16.40574104 16.40574104
 


--------------------------------------------------------------------------------------------------------


 k-point  1 :   0.0000 0.0000 0.0000  plane waves:   66299

 maximum and minimum number of plane-waves per node :      3320     3310

 maximum number of plane-waves:     66299
 maximum index in each direction: 
   IXMAX=   28   IYMAX=   28   IZMAX=   28
   IXMIN=  -28   IYMIN=  -28   IZMIN=  -28


 parallel 3D FFT for wavefunctions:
    minimum data exchange during FFTs selected (reduces bandwidth)
 parallel 3D FFT for charge:
    minimum data exchange during FFTs selected (reduces bandwidth)


 total amount of memory used by VASP MPI-rank0   118934. kBytes
=======================================================================

   base      :      30000. kBytes
   nonl-proj :       7011. kBytes
   fftplans  :      53058. kBytes
   grid      :      20148. kBytes
   one-center:         21. kBytes
   wavefun   :       8696. kBytes
 
     INWAV:  cpu time    0.0000: real time    0.0001
 Broyden mixing: mesh for mixing (old mesh)
   NGX = 57   NGY = 57   NGZ = 57
  (NGX  =240   NGY  =240   NGZ  =240)
  gives a total of 185193 points

 initial charge density was supplied:
 charge density of overlapping atoms calculated
 number of electron     512.0000000 magnetization 
 keeping initial charge density in first step


--------------------------------------------------------------------------------------------------------


 Maximum index for augmentation-charges         4439 (set IRDMAX)


--------------------------------------------------------------------------------------------------------


 First call to EWALD:  gamma=   0.129
 Maximum number of real-space cells 3x 3x 3
 Maximum number of reciprocal cells 3x 3x 3

    FEWALD:  cpu time    0.0058: real time    0.0058


--------------------------------------- Iteration      1(   1)  ---------------------------------------


    POTLOK:  cpu time    0.2300: real time    0.2365
    SETDIJ:  cpu time    0.2992: real time    0.2999
     EDDAV:  cpu time    4.8298: real time    4.8421
       DOS:  cpu time    0.0006: real time    0.0006
    --------------------------------------------
      LOOP:  cpu time    5.3596: real time    5.3791

 eigenvalue-minimisations  :   644
 total energy-change (2. order) : 0.1374882E+04  (-0.1908718E+05)
 number of electron     512.0000000 magnetization 
 augmentation part      512.0000000 magnetization 

 Free energy of the ion-electron system (eV)
  ---------------------------------------------------
  alpha Z        PSCENC =       210.78028765
  Ewald energy   TEWEN  =    -14524.86521881
  -Hartree energ DENC   =      -724.62053048
  -exchange      EXHF   =         0.00000000
  -V(xc)+E(xc)   XCENC  =     -1195.83148139
  PAW double counting   =      4221.13331941    -1969.18571412
  entropy T*S    EENTRO =        -0.01556534
  eigenvalues    EBANDS =      2165.00622095
  atomic energy  EATOM  =     13192.48085998
  Solvation  Ediel_sol  =         0.00000000
  ---------------------------------------------------
  free energy    TOTEN  =      1374.88217785 eV

  energy without entropy =     1374.89774320  energy(sigma->0) =     1374.88996053


--------------------------------------------------------------------------------------------------------




--------------------------------------- Iteration      1(   2)  ---------------------------------------


     EDDAV:  cpu time    5.5221: real time    5.5392
       DOS:  cpu time    0.0007: real time    0.0007
    --------------------------------------------
      LOOP:  cpu time    5.5228: real time    5.5398

 eigenvalue-minimisations  :   758
 total energy-change (2. order) :-0.1911903E+04  (-0.1811821E+04)
 number of electron     512.0000000 magnetization 
 augmentation part      512.0000000 magnetization 

 Free energy of the ion-electron system (eV)
  ---------------------------------------------------
  alpha Z        PSCENC =       210.78028765
  Ewald energy   TEWEN  =    -14524.86521881
  -Hartree energ DENC   =      -724.62053048
  -exchange      EXHF   =         0.00000000
  -V(xc)+E(xc)   XCENC  =     -1195.83148139
  PAW double counting   =      4221.13331941    -1969.18571412
  entropy T*S    EENTRO =        -0.00000184
  eigenvalues    EBANDS =       253.08768169
  atomic energy  EATOM  =     13192.48085998
  Solvation  Ediel_sol  =         0.00000000
  ---------------------------------------------------
  free energy    TOTEN  =      -537.02079791 eV

  energy without entropy =     -537.02079607  energy(sigma->0) =     -537.02079699


--------------------------------------------------------------------------------------------------------




--------------------------------------- Iteration      1(   3)  ---------------------------------------


     EDDAV:  cpu time    5.4953: real time    5.5111
       DOS:  cpu time    0.0004: real time    0.0004
    --------------------------------------------
      LOOP:  cpu time    5.4956: real time    5.5115

 eigenvalue-minimisations  :   768
 total energy-change (2. order) :-0.1530032E+03  (-0.1483221E+03)
 number of electron     512.0000000 magnetization 
 augmentation part      512.0000000 magnetization 

 Free energy of the ion-electron system (eV)
  ---------------------------------------------------
  alpha Z        PSCENC =       210.78028765
  Ewald energy   TEWEN  =    -14524.86521881
  -Hartree energ DENC   =      -724.62053048
  -exchange      EXHF   =         0.00000000
  -V(xc)+E(xc)   XCENC  =     -1195.83148139
  PAW double counting   =      4221.13331941    -1969.18571412
  entropy T*S    EENTRO =        -0.00000000
  eigenvalues    EBANDS =       100.08444923
  atomic energy  EATOM  =     13192.48085998
  Solvation  Ediel_sol  =         0.00000000
  ---------------------------------------------------
  free energy    TOTEN  =      -690.02402852 eV

  energy without entropy =     -690.02402852  energy(sigma->0) =     -690.02402852


--------------------------------------------------------------------------------------------------------




--------------------------------------- Iteration      1(   4)  ---------------------------------------


     EDDAV:  cpu time    5.4123: real time    5.4287
       DOS:  cpu time    0.0003: real time    0.0003
    --------------------------------------------
      LOOP:  cpu time    5.4126: real time    5.4290

 eigenvalue-minimisations  :   752
 total energy-change (2. order) :-0.4509342E+01  (-0.4453573E+01)
 number of electron     512.0000000 magnetization 
 augmentation part      512.0000000 magnetization 

 Free energy of the ion-electron system (eV)
  ---------------------------------------------------
  alpha Z        PSCENC =       210.78028765
  Ewald energy   TEWEN  =    -14524.86521881
  -Hartree energ DENC   =      -724.62053048
  -exchange      EXHF   =         0.00000000
  -V(xc)+E(xc)   XCENC  =     -1195.83148139
  PAW double counting   =      4221.13331941    -1969.18571412
  entropy T*S    EENTRO =        -0.00000000
  eigenvalues    EBANDS =        95.57510722
  atomic energy  EATOM  =     13192.48085998
  Solvation  Ediel_sol  =         0.00000000
  ---------------------------------------------------
  free energy    TOTEN  =      -694.53337053 eV

  energy without entropy =     -694.53337053  energy(sigma->0) =     -694.53337053


--------------------------------------------------------------------------------------------------------




--------------------------------------- Iteration      1(   5)  ---------------------------------------


     EDDAV:  cpu time    5.4609: real time    5.4741
       DOS:  cpu time    0.0004: real time    0.0004
    CHARGE:  cpu time    0.5240: real time    0.5253
    MIXING:  cpu time    0.0100: real time    0.0102
    --------------------------------------------
      LOOP:  cpu time    5.9955: real time    6.0101

 eigenvalue-minimisations  :   760
 total energy-change (2. order) :-0.1668331E+00  (-0.1661755E+00)
 number of electron     511.9999999 magnetization 
 augmentation part      -29.7896890 magnetization 

 Broyden mixing:
  rms(total) = 0.24758E+01    rms(broyden)= 0.24758E+01
  rms(prec ) = 0.29958E+01
  weight for this iteration     100.00

 Free energy of the ion-electron system (eV)
  ---------------------------------------------------
  alpha Z        PSCENC =       210.78028765
  Ewald energy   TEWEN  =    -14524.86521881
  -Hartree energ DENC   =      -724.62053048
  -exchange      EXHF   =         0.00000000
  -V(xc)+E(xc)   XCENC  =     -1195.83148139
  PAW double counting   =      4221.13331941    -1969.18571412
  entropy T*S    EENTRO =        -0.00000000
  eigenvalues    EBANDS =        95.40827408
  atomic energy  EATOM  =     13192.48085998
  Solvation  Ediel_sol  =         0.00000000
  ---------------------------------------------------
  free energy    TOTEN  =      -694.70020367 eV

  energy without entropy =     -694.70020367  energy(sigma->0) =     -694.70020367


--------------------------------------------------------------------------------------------------------




--------------------------------------- Iteration      1(   6)  ---------------------------------------


    POTLOK:  cpu time    0.2253: real time    0.2336
    SETDIJ:  cpu time    0.2840: real time    0.2847
     EDDAV:  cpu time    5.1022: real time    5.1177
       DOS:  cpu time    0.0004: real time    0.0004
    CHARGE:  cpu time    0.5108: real time    0.5120
    MIXING:  cpu time    0.0085: real time    0.0085
    --------------------------------------------
      LOOP:  cpu time    6.1311: real time    6.1569

 eigenvalue-minimisations  :   696
 total energy-change (2. order) : 0.8400803E+01  (-0.4780704E+00)
 number of electron     511.9999999 magnetization 
 augmentation part      -29.4084119 magnetization 

 Broyden mixing:
  rms(total) = 0.14789E+01    rms(broyden)= 0.14789E+01
  rms(prec ) = 0.17864E+01
  weight for this iteration     100.00

 eigenvalues of (default mixing * dielectric matrix)
  average eigenvalue GAMMA=   2.4616
  2.4616

 Free energy of the ion-electron system (eV)
  ---------------------------------------------------
  alpha Z        PSCENC =       210.78028765
  Ewald energy   TEWEN  =    -14524.86521881
  -Hartree energ DENC   =      -824.85706798
  -exchange      EXHF   =         0.00000000
  -V(xc)+E(xc)   XCENC  =     -1180.31833982
  PAW double counting   =      4464.78404472    -2219.67156327
  entropy T*S    EENTRO =        -0.00000000
  eigenvalues    EBANDS =       195.36759707
  atomic energy  EATOM  =     13192.48085998
  Solvation  Ediel_sol  =         0.00000000
  ---------------------------------------------------
  free energy    TOTEN  =      -686.29940047 eV

  energy without entropy =     -686.29940047  energy(sigma->0) =     -686.29940047


--------------------------------------------------------------------------------------------------------




--------------------------------------- Iteration      1(   7)  ---------------------------------------


    POTLOK:  cpu time    0.2236: real time    0.2243
    SETDIJ:  cpu time    0.2860: real time    0.2866
     EDDAV:  cpu time    4.9261: real time    4.9379
       DOS:  cpu time    0.0004: real time    0.0004
    CHARGE:  cpu time    0.5065: real time    0.5110
    MIXING:  cpu time    0.0090: real time    0.0090
    --------------------------------------------
      LOOP:  cpu time    5.9517: real time    5.9692

 eigenvalue-minimisations  :   664
 total energy-change (2. order) : 0.3872461E+01  (-0.9702766E+00)
 number of electron     511.9999999 magnetization 
 augmentation part      -28.9140731 magnetization 

 Broyden mixing:
  rms(total) = 0.13043E+00    rms(broyden)= 0.13043E+00
  rms(prec ) = 0.15187E+00
  weight for this iteration     100.00

 eigenvalues of (default mixing * dielectric matrix)
  average eigenvalue GAMMA=   2.4922
  2.4922  2.4922

 Free energy of the ion-electron system (eV)
  ---------------------------------------------------
  alpha Z        PSCENC =       210.78028765
  Ewald energy   TEWEN  =    -14524.86521881
  -Hartree energ DENC   =      -991.87799138
  -exchange      EXHF   =         0.00000000
  -V(xc)+E(xc)   XCENC  =     -1153.94038159
  PAW double counting   =      4789.64956869    -2553.34774879
  entropy T*S    EENTRO =        -0.00000000
  eigenvalues    EBANDS =       348.69368441
  atomic energy  EATOM  =     13192.48085998
  Solvation  Ediel_sol  =         0.00000000
  ---------------------------------------------------
  free energy    TOTEN  =      -682.42693984 eV

  energy without entropy =     -682.42693984  energy(sigma->0) =     -682.42693984


--------------------------------------------------------------------------------------------------------




--------------------------------------- Iteration      1(   8)  ---------------------------------------


    POTLOK:  cpu time    0.2239: real time    0.2246
    SETDIJ:  cpu time    0.2844: real time    0.2851
     EDDAV:  cpu time    5.0733: real time    5.0855
       DOS:  cpu time    0.0005: real time    0.0005
    CHARGE:  cpu time    0.5140: real time    0.5152
    MIXING:  cpu time    0.0095: real time    0.0095
    --------------------------------------------
      LOOP:  cpu time    6.1057: real time    6.1205

 eigenvalue-minimisations  :   688
 total energy-change (2. order) :-0.1320973E+00  (-0.4945023E-01)
 number of electron     511.9999999 magnetization 
 augmentation part      -28.9852743 magnetization 

 Broyden mixing:
  rms(total) = 0.28076E-01    rms(broyden)= 0.28076E-01
  rms(prec ) = 0.37928E-01
  weight for this iteration     100.00

 eigenvalues of (default mixing * dielectric matrix)
  average eigenvalue GAMMA=   2.1014
  1.4521  2.7608  2.0913

 Free energy of the ion-electron system (eV)
  ---------------------------------------------------
  alpha Z        PSCENC =       210.78028765
  Ewald energy   TEWEN  =    -14524.86521881
  -Hartree energ DENC   =      -986.34138077
  -exchange      EXHF   =         0.00000000
  -V(xc)+E(xc)   XCENC  =     -1153.99427202
  PAW double counting   =      4718.78817032    -2480.27071858
  entropy T*S    EENTRO =        -0.00000000
  eigenvalues    EBANDS =       340.86323512
  atomic energy  EATOM  =     13192.48085998
  Solvation  Ediel_sol  =         0.00000000
  ---------------------------------------------------
  free energy    TOTEN  =      -682.55903711 eV

  energy without entropy =     -682.55903711  energy(sigma->0) =     -682.55903711


--------------------------------------------------------------------------------------------------------




--------------------------------------- Iteration      1(   9)  ---------------------------------------


    POTLOK:  cpu time    0.2256: real time    0.2271
    SETDIJ:  cpu time    0.2843: real time    0.2850
     EDDAV:  cpu time    5.4935: real time    5.5099
       DOS:  cpu time    0.0004: real time    0.0004
    CHARGE:  cpu time    0.5075: real time    0.5087
    MIXING:  cpu time    0.0091: real time    0.0091
    --------------------------------------------
      LOOP:  cpu time    6.5204: real time    6.5402

 eigenvalue-minimisations  :   768
 total energy-change (2. order) :-0.6475222E-02  (-0.2452100E-02)
 number of electron     511.9999999 magnetization 
 augmentation part      -28.9800557 magnetization 

 Broyden mixing:
  rms(total) = 0.15912E-01    rms(broyden)= 0.15912E-01
  rms(prec ) = 0.18135E-01
  weight for this iteration     100.00

 eigenvalues of (default mixing * dielectric matrix)
  average eigenvalue GAMMA=   2.2872
  1.0206  3.3877  2.7010  2.0397

 Free energy of the ion-electron system (eV)
  ---------------------------------------------------
  alpha Z        PSCENC =       210.78028765
  Ewald energy   TEWEN  =    -14524.86521881
  -Hartree energ DENC   =      -991.21372083
  -exchange      EXHF   =         0.00000000
  -V(xc)+E(xc)   XCENC  =     -1153.27695508
  PAW double counting   =      4725.23122047    -2486.94986487
  entropy T*S    EENTRO =        -0.00000000
  eigenvalues    EBANDS =       345.24787915
  atomic energy  EATOM  =     13192.48085998
  Solvation  Ediel_sol  =         0.00000000
  ---------------------------------------------------
  free energy    TOTEN  =      -682.56551233 eV

  energy without entropy =     -682.56551233  energy(sigma->0) =     -682.56551233


--------------------------------------------------------------------------------------------------------




--------------------------------------- Iteration      1(  10)  ---------------------------------------


    POTLOK:  cpu time    0.2237: real time    0.2244
    SETDIJ:  cpu time    0.2840: real time    0.2846
     EDDAV:  cpu time    4.9692: real time    4.9811
       DOS:  cpu time    0.0004: real time    0.0004
    CHARGE:  cpu time    0.5075: real time    0.5087
    MIXING:  cpu time    0.0099: real time    0.0099
    --------------------------------------------
      LOOP:  cpu time    5.9948: real time    6.0091

 eigenvalue-minimisations  :   672
 total energy-change (2. order) :-0.2679951E-02  (-0.5886681E-03)
 number of electron     511.9999999 magnetization 
 augmentation part      -28.9811152 magnetization 

 Broyden mixing:
  rms(total) = 0.47875E-02    rms(broyden)= 0.47875E-02
  rms(prec ) = 0.57368E-02
  weight for this iteration     100.00

 eigenvalues of (default mixing * dielectric matrix)
  average eigenvalue GAMMA=   1.9834
  3.2361  2.6101  2.1609  1.0585  0.8511

 Free energy of the ion-electron system (eV)
  ---------------------------------------------------
  alpha Z        PSCENC =       210.78028765
  Ewald energy   TEWEN  =    -14524.86521881
  -Hartree energ DENC   =      -991.21985036
  -exchange      EXHF   =         0.00000000
  -V(xc)+E(xc)   XCENC  =     -1153.35169049
  PAW double counting   =      4721.46720360    -2483.16783140
  entropy T*S    EENTRO =        -0.00000000
  eigenvalues    EBANDS =       345.30804754
  atomic energy  EATOM  =     13192.48085998
  Solvation  Ediel_sol  =         0.00000000
  ---------------------------------------------------
  free energy    TOTEN  =      -682.56819229 eV

  energy without entropy =     -682.56819229  energy(sigma->0) =     -682.56819229


--------------------------------------------------------------------------------------------------------




--------------------------------------- Iteration      1(  11)  ---------------------------------------


    POTLOK:  cpu time    0.2237: real time    0.2263
    SETDIJ:  cpu time    0.2826: real time    0.2833
     EDDAV:  cpu time    5.4190: real time    5.4351
       DOS:  cpu time    0.0004: real time    0.0004
    CHARGE:  cpu time    0.5141: real time    0.5153
    MIXING:  cpu time    0.0102: real time    0.0103
    --------------------------------------------
      LOOP:  cpu time    6.4501: real time    6.4707

 eigenvalue-minimisations  :   752
 total energy-change (2. order) :-0.1330916E-04  (-0.2013743E-04)
 number of electron     511.9999999 magnetization 
 augmentation part      -28.9796145 magnetization 

 Broyden mixing:
  rms(total) = 0.49525E-03    rms(broyden)= 0.49515E-03
  rms(prec ) = 0.56891E-03
  weight for this iteration     100.00

 eigenvalues of (default mixing * dielectric matrix)
  average eigenvalue GAMMA=   2.0329
  3.3660  2.6901  2.1974  1.9780  0.9829  0.9829

 Free energy of the ion-electron system (eV)
  ---------------------------------------------------
  alpha Z        PSCENC =       210.78028765
  Ewald energy   TEWEN  =    -14524.86521881
  -Hartree energ DENC   =      -991.69497451
  -exchange      EXHF   =         0.00000000
  -V(xc)+E(xc)   XCENC  =     -1153.28779732
  PAW double counting   =      4723.32270673    -2485.06840096
  entropy T*S    EENTRO =        -0.00000000
  eigenvalues    EBANDS =       345.76433165
  atomic energy  EATOM  =     13192.48085998
  Solvation  Ediel_sol  =         0.00000000
  ---------------------------------------------------
  free energy    TOTEN  =      -682.56820559 eV

  energy without entropy =     -682.56820559  energy(sigma->0) =     -682.56820559


--------------------------------------------------------------------------------------------------------




--------------------------------------- Iteration      1(  12)  ---------------------------------------


    POTLOK:  cpu time    0.2231: real time    0.2238
    SETDIJ:  cpu time    0.2847: real time    0.2854
     EDDAV:  cpu time    5.3327: real time    5.3486
       DOS:  cpu time    0.0004: real time    0.0004
    CHARGE:  cpu time    0.5093: real time    0.5105
    MIXING:  cpu time    0.0103: real time    0.0103
    --------------------------------------------
      LOOP:  cpu time    6.3605: real time    6.3790

 eigenvalue-minimisations  :   728
 total energy-change (2. order) :-0.4444430E-05  (-0.1297270E-05)
 number of electron     511.9999999 magnetization 
 augmentation part      -28.9793486 magnetization 

 Broyden mixing:
  rms(total) = 0.22709E-03    rms(broyden)= 0.22689E-03
  rms(prec ) = 0.25843E-03
  weight for this iteration     100.00

 eigenvalues of (default mixing * dielectric matrix)
  average eigenvalue GAMMA=   1.9181
  3.3094  2.6894  2.2472  2.2472  1.0222  1.0222  0.8888

 Free energy of the ion-electron system (eV)
  ---------------------------------------------------
  alpha Z        PSCENC =       210.78028765
  Ewald energy   TEWEN  =    -14524.86521881
  -Hartree energ DENC   =      -991.73869891
  -exchange      EXHF   =         0.00000000
  -V(xc)+E(xc)   XCENC  =     -1153.28659114
  PAW double counting   =      4723.43425685    -2485.17620971
  entropy T*S    EENTRO =        -0.00000000
  eigenvalues    EBANDS =       345.80310405
  atomic energy  EATOM  =     13192.48085998
  Solvation  Ediel_sol  =         0.00000000
  ---------------------------------------------------
  free energy    TOTEN  =      -682.56821004 eV

  energy without entropy =     -682.56821004  energy(sigma->0) =     -682.56821004


--------------------------------------------------------------------------------------------------------




--------------------------------------- Iteration      1(  13)  ---------------------------------------


    POTLOK:  cpu time    0.2238: real time    0.2245
    SETDIJ:  cpu time    0.2853: real time    0.2860
     EDDAV:  cpu time    5.3147: real time    5.3273
       DOS:  cpu time    0.0004: real time    0.0004
    CHARGE:  cpu time    0.5083: real time    0.5095
    MIXING:  cpu time    0.0105: real time    0.0105
    --------------------------------------------
      LOOP:  cpu time    6.3430: real time    6.3582

 eigenvalue-minimisations  :   736
 total energy-change (2. order) : 0.3674744E-05  (-0.5696808E-07)
 number of electron     511.9999999 magnetization 
 augmentation part      -28.9794661 magnetization 

 Broyden mixing:
  rms(total) = 0.73842E-04    rms(broyden)= 0.73218E-04
  rms(prec ) = 0.86161E-04
  weight for this iteration     100.00

 eigenvalues of (default mixing * dielectric matrix)
  average eigenvalue GAMMA=   1.8699
  3.3109  2.7002  2.4734  2.1354  0.9621  0.9621  1.2077  1.2077

 Free energy of the ion-electron system (eV)
  ---------------------------------------------------
  alpha Z        PSCENC =       210.78028765
  Ewald energy   TEWEN  =    -14524.86521881
  -Hartree energ DENC   =      -991.73004341
  -exchange      EXHF   =         0.00000000
  -V(xc)+E(xc)   XCENC  =     -1153.28656509
  PAW double counting   =      4723.39941060    -2485.13805264
  entropy T*S    EENTRO =        -0.00000000
  eigenvalues    EBANDS =       345.79111535
  atomic energy  EATOM  =     13192.48085998
  Solvation  Ediel_sol  =         0.00000000
  ---------------------------------------------------
  free energy    TOTEN  =      -682.56820636 eV

  energy without entropy =     -682.56820636  energy(sigma->0) =     -682.56820636


--------------------------------------------------------------------------------------------------------




--------------------------------------- Iteration      1(  14)  ---------------------------------------


    POTLOK:  cpu time    0.2244: real time    0.2251
    SETDIJ:  cpu time    0.2848: real time    0.2854
     EDDAV:  cpu time    5.3327: real time    5.3487
       DOS:  cpu time    0.0004: real time    0.0004
    CHARGE:  cpu time    0.5149: real time    0.5162
    MIXING:  cpu time    0.0120: real time    0.0120
    --------------------------------------------
      LOOP:  cpu time    6.3693: real time    6.3879

 eigenvalue-minimisations  :   736
 total energy-change (2. order) :-0.5476249E-06  (-0.1174181E-07)
 number of electron     511.9999999 magnetization 
 augmentation part      -28.9794368 magnetization 

 Broyden mixing:
  rms(total) = 0.39087E-04    rms(broyden)= 0.37895E-04
  rms(prec ) = 0.49409E-04
  weight for this iteration     100.00

 eigenvalues of (default mixing * dielectric matrix)
  average eigenvalue GAMMA=   1.8132
  3.2918  2.7279  2.4309  2.2618  1.3183  1.3183  0.9331  1.0183  1.0183

 Free energy of the ion-electron system (eV)
  ---------------------------------------------------
  alpha Z        PSCENC =       210.78028765
  Ewald energy   TEWEN  =    -14524.86521881
  -Hartree energ DENC   =      -991.73900733
  -exchange      EXHF   =         0.00000000
  -V(xc)+E(xc)   XCENC  =     -1153.28545272
  PAW double counting   =      4723.43004687    -2485.16880630
  entropy T*S    EENTRO =        -0.00000000
  eigenvalues    EBANDS =       345.79908375
  atomic energy  EATOM  =     13192.48085998
  Solvation  Ediel_sol  =         0.00000000
  ---------------------------------------------------
  free energy    TOTEN  =      -682.56820691 eV

  energy without entropy =     -682.56820691  energy(sigma->0) =     -682.56820691


--------------------------------------------------------------------------------------------------------




--------------------------------------- Iteration      1(  15)  ---------------------------------------


    POTLOK:  cpu time    0.2246: real time    0.2261
    SETDIJ:  cpu time    0.2823: real time    0.2829
     EDDAV:  cpu time    4.0148: real time    4.0244
       DOS:  cpu time    0.0004: real time    0.0004
    CHARGE:  cpu time    0.5071: real time    0.5084
    MIXING:  cpu time    0.0114: real time    0.0114
    --------------------------------------------
      LOOP:  cpu time    5.0406: real time    5.0536

 eigenvalue-minimisations  :   496
 total energy-change (2. order) : 0.1085029E-05  (-0.3009192E-08)
 number of electron     511.9999999 magnetization 
 augmentation part      -28.9794670 magnetization 

 Broyden mixing:
  rms(total) = 0.11661E-04    rms(broyden)= 0.66515E-05
  rms(prec ) = 0.72799E-05
  weight for this iteration     100.00
  WARNING: grid for Broyden might be to small

 eigenvalues of (default mixing * dielectric matrix)
  average eigenvalue GAMMA=   1.8227
  3.2955  2.6652  2.5913  2.0916  2.0916  0.9403  0.9862  1.0342  1.2657  1.2657

 Free energy of the ion-electron system (eV)
  ---------------------------------------------------
  alpha Z        PSCENC =       210.78028765
  Ewald energy   TEWEN  =    -14524.86521881
  -Hartree energ DENC   =      -991.73310228
  -exchange      EXHF   =         0.00000000
  -V(xc)+E(xc)   XCENC  =     -1153.28602657
  PAW double counting   =      4723.40759891    -2485.14557559
  entropy T*S    EENTRO =        -0.00000000
  eigenvalues    EBANDS =       345.79297088
  atomic energy  EATOM  =     13192.48085998
  Solvation  Ediel_sol  =         0.00000000
  ---------------------------------------------------
  free energy    TOTEN  =      -682.56820583 eV

  energy without entropy =     -682.56820583  energy(sigma->0) =     -682.56820583


--------------------------------------------------------------------------------------------------------




--------------------------------------- Iteration      1(  16)  ---------------------------------------


    POTLOK:  cpu time    0.2241: real time    0.2312
    SETDIJ:  cpu time    0.2782: real time    0.2830
     EDDAV:  cpu time    3.3227: real time    3.3306
       DOS:  cpu time    0.0004: real time    0.0004
    CHARGE:  cpu time    0.5093: real time    0.5105
    MIXING:  cpu time    0.0107: real time    0.0107
    --------------------------------------------
      LOOP:  cpu time    4.3454: real time    4.3664

 eigenvalue-minimisations  :   368
 total energy-change (2. order) :-0.8966163E-07  (-0.1978975E-09)
 number of electron     511.9999999 magnetization 
 augmentation part      -28.9794684 magnetization 

 Broyden mixing:
  rms(total) = 0.10062E-04    rms(broyden)= 0.30843E-05
  rms(prec ) = 0.38228E-05
  weight for this iteration     100.00
  WARNING: grid for Broyden might be to small

 eigenvalues of (default mixing * dielectric matrix)
  average eigenvalue GAMMA=   1.7957
  3.2817  2.7727  2.5509  2.2672  2.2672  1.3087  1.3087  1.1542  0.9853  0.9281
  0.9281

 Free energy of the ion-electron system (eV)
  ---------------------------------------------------
  alpha Z        PSCENC =       210.78028765
  Ewald energy   TEWEN  =    -14524.86521881
  -Hartree energ DENC   =      -991.73353547
  -exchange      EXHF   =         0.00000000
  -V(xc)+E(xc)   XCENC  =     -1153.28594277
  PAW double counting   =      4723.40851795    -2485.14662416
  entropy T*S    EENTRO =        -0.00000000
  eigenvalues    EBANDS =       345.79344972
  atomic energy  EATOM  =     13192.48085998
  Solvation  Ediel_sol  =         0.00000000
  ---------------------------------------------------
  free energy    TOTEN  =      -682.56820592 eV

  energy without entropy =     -682.56820592  energy(sigma->0) =     -682.56820592


--------------------------------------------------------------------------------------------------------




--------------------------------------- Iteration      1(  17)  ---------------------------------------


    POTLOK:  cpu time    0.2240: real time    0.2246
    SETDIJ:  cpu time    0.2854: real time    0.2861
     EDDAV:  cpu time    3.2346: real time    3.2423
       DOS:  cpu time    0.0004: real time    0.0004
    CHARGE:  cpu time    0.5083: real time    0.5095
    MIXING:  cpu time    0.0116: real time    0.0116
    --------------------------------------------
      LOOP:  cpu time    4.2643: real time    4.2745

 eigenvalue-minimisations  :   352
 total energy-change (2. order) :-0.2239540E-07  (-0.3213180E-10)
 number of electron     511.9999999 magnetization 
 augmentation part      -28.9794697 magnetization 

 Broyden mixing:
  rms(total) = 0.96445E-05    rms(broyden)= 0.11303E-05
  rms(prec ) = 0.14041E-05
  weight for this iteration     100.00
  WARNING: grid for Broyden might be to small

 eigenvalues of (default mixing * dielectric matrix)
  average eigenvalue GAMMA=   1.7883
  3.2924  2.7090  2.6033  2.1258  2.1085  2.1085  1.2471  1.2471  0.9353  0.9715
  1.0553  1.0553

 Free energy of the ion-electron system (eV)
  ---------------------------------------------------
  alpha Z        PSCENC =       210.78028765
  Ewald energy   TEWEN  =    -14524.86521881
  -Hartree energ DENC   =      -991.73329983
  -exchange      EXHF   =         0.00000000
  -V(xc)+E(xc)   XCENC  =     -1153.28597725
  PAW double counting   =      4723.40845612    -2485.14659180
  entropy T*S    EENTRO =        -0.00000000
  eigenvalues    EBANDS =       345.79327800
  atomic energy  EATOM  =     13192.48085998
  Solvation  Ediel_sol  =         0.00000000
  ---------------------------------------------------
  free energy    TOTEN  =      -682.56820594 eV

  energy without entropy =     -682.56820594  energy(sigma->0) =     -682.56820594


--------------------------------------------------------------------------------------------------------




--------------------------------------- Iteration      1(  18)  ---------------------------------------


    POTLOK:  cpu time    0.2330: real time    0.2337
    SETDIJ:  cpu time    0.2857: real time    0.2864
     EDDAV:  cpu time    3.2358: real time    3.2468
       DOS:  cpu time    0.0004: real time    0.0004
    CHARGE:  cpu time    0.5084: real time    0.5096
    MIXING:  cpu time    0.0115: real time    0.0116
    --------------------------------------------
      LOOP:  cpu time    4.2748: real time    4.2884

 eigenvalue-minimisations  :   352
 total energy-change (2. order) : 0.1884109E-07  (-0.8209822E-11)
 number of electron     511.9999999 magnetization 
 augmentation part      -28.9794701 magnetization 

 Broyden mixing:
  rms(total) = 0.95931E-05    rms(broyden)= 0.53661E-06
  rms(prec ) = 0.66087E-06
  weight for this iteration     100.00
  WARNING: grid for Broyden might be to small

 eigenvalues of (default mixing * dielectric matrix)
  average eigenvalue GAMMA=   1.7914
  3.2926  2.6866  2.6866  2.4117  2.4117  2.1658  1.2852  1.2852  1.1764  1.0804
  1.0052  0.9332  0.8679

 Free energy of the ion-electron system (eV)
  ---------------------------------------------------
  alpha Z        PSCENC =       210.78028765
  Ewald energy   TEWEN  =    -14524.86521881
  -Hartree energ DENC   =      -991.73327798
  -exchange      EXHF   =         0.00000000
  -V(xc)+E(xc)   XCENC  =     -1153.28598043
  PAW double counting   =      4723.40793924    -2485.14606589
  entropy T*S    EENTRO =        -0.00000000
  eigenvalues    EBANDS =       345.79325032
  atomic energy  EATOM  =     13192.48085998
  Solvation  Ediel_sol  =         0.00000000
  ---------------------------------------------------
  free energy    TOTEN  =      -682.56820592 eV

  energy without entropy =     -682.56820592  energy(sigma->0) =     -682.56820592


--------------------------------------------------------------------------------------------------------




--------------------------------------- Iteration      1(  19)  ---------------------------------------


    POTLOK:  cpu time    0.2229: real time    0.2236
    SETDIJ:  cpu time    0.2850: real time    0.2857
     EDDAV:  cpu time    3.2429: real time    3.2506
       DOS:  cpu time    0.0003: real time    0.0003
    --------------------------------------------
      LOOP:  cpu time    3.7511: real time    3.7601

 eigenvalue-minimisations  :   352
 total energy-change (2. order) : 0.8894858E-09  (-0.1757650E-11)
 number of electron     511.9999999 magnetization 
 augmentation part      -28.9794701 magnetization 

 Free energy of the ion-electron system (eV)
  ---------------------------------------------------
  alpha Z        PSCENC =       210.78028765
  Ewald energy   TEWEN  =    -14524.86521881
  -Hartree energ DENC   =      -991.73324753
  -exchange      EXHF   =         0.00000000
  -V(xc)+E(xc)   XCENC  =     -1153.28598572
  PAW double counting   =      4723.40777949    -2485.14590727
  entropy T*S    EENTRO =        -0.00000000
  eigenvalues    EBANDS =       345.79322630
  atomic energy  EATOM  =     13192.48085998
  Solvation  Ediel_sol  =         0.00000000
  ---------------------------------------------------
  free energy    TOTEN  =      -682.56820592 eV

  energy without entropy =     -682.56820592  energy(sigma->0) =     -682.56820592


--------------------------------------------------------------------------------------------------------




 average (electrostatic) potential at core
  the test charge radii are     0.9892
  (the norm of the test charge is              1.0000)
       1 -83.4115       2 -83.4120       3 -83.4139       4 -83.4140       5 -83.4115
       6 -83.4140       7 -83.4125       8 -83.4121       9 -83.4137      10 -83.4136
      11 -83.4134      12 -83.4132      13 -83.4133      14 -83.4133      15 -83.4113
      16 -83.4132      17 -83.4136      18 -83.4137      19 -83.4135      20 -83.4135
      21 -83.4124      22 -83.4133      23 -83.4134      24 -83.4120      25 -83.4133
      26 -83.4134      27 -83.4116      28 -83.4135      29 -83.4135      30 -83.4119
      31 -83.4133      32 -83.4136      33 -83.4159      34 -83.4133      35 -83.4138
      36 -83.4139      37 -83.4137      38 -83.4136      39 -83.4134      40 -83.4138
      41 -83.4140      42 -83.4143      43 -83.4139      44 -83.4141      45 -83.4135
      46 -83.4136      47 -83.4139      48 -83.4134      49 -83.4139      50 -83.4139
      51 -83.4137      52 -83.4138      53 -83.4139      54 -83.4135      55 -83.4137
      56 -83.4138      57 -83.4136      58 -83.4140      59 -83.4160      60 -83.4137
      61 -83.4137      62 -83.4139      63 -83.4137      64 -83.4137      65 -83.4148
      66 -83.4152      67 -83.4139      68 -83.4139      69 -83.4135      70 -83.4137
      71 -83.4140      72 -83.4135      73 -83.4139      74 -83.4140      75 -83.4138
      76 -83.4139      77 -83.4139      78 -83.4136      79 -83.4138      80 -83.4140
      81 -83.4138      82 -83.4139      83 -83.4149      84 -83.4138      85 -83.4138
      86 -83.4140      87 -83.4137      88 -83.4138      89 -83.4143      90 -83.4137
      91 -83.4141      92 -83.4153      93 -83.4137      94 -83.4138      95 -83.4136
      96 -83.4137      97 -83.4157      98 -83.4151      99 -83.4139     100 -83.4141
     101 -83.4139     102 -83.4135     103 -83.4137     104 -83.4140     105 -83.4138
     106 -83.4139     107 -83.4159     108 -83.4137     109 -83.4137     110 -83.4140
     111 -83.4136     112 -83.4137     113 -83.4141     114 -83.4139     115 -83.4140
     116 -83.4152     117 -83.4136     118 -83.4138     119 -83.4134     120 -83.4136
     121 -83.4140     122 -83.4141     123 -83.4138     124 -83.4140     125 -83.4133
     126 -83.4136     127 -83.4138     128 -83.4135
 
 
 
 E-fermi :   5.9200     XC(G=0):  -9.3007     alpha+bet :-11.7327


 k-point     1 :       0.0000    0.0000    0.0000
  band No.  band energies     occupation 
      1      -6.1630      2.00000
      2      -5.3786      2.00000
      3      -5.3786      2.00000
      4      -5.3777      2.00000
      5      -5.3776      2.00000
      6      -5.3774      2.00000
      7      -5.3773      2.00000
      8      -5.3769      2.00000
      9      -5.3757      2.00000
     10      -5.1007      2.00000
     11      -5.1004      2.00000
     12      -5.0999      2.00000
     13      -5.0996      2.00000
     14      -5.0990      2.00000
     15      -5.0983      2.00000
     16      -4.1593      2.00000
     17      -4.1585      2.00000
     18      -4.1577      2.00000
     19      -4.1575      2.00000
     20      -4.1571      2.00000
     21      -4.1570      2.00000
     22      -4.1569      2.00000
     23      -4.1569      2.00000
     24      -4.1568      2.00000
     25      -4.1562      2.00000
     26      -4.1556      2.00000
     27      -4.1540      2.00000
     28      -3.8821      2.00000
     29      -3.8812      2.00000
     30      -3.8812      2.00000
     31      -3.8803      2.00000
     32      -3.5008      2.00000
     33      -3.4991      2.00000
     34      -3.4978      2.00000
     35      -3.4977      2.00000
     36      -3.4967      2.00000
     37      -3.4966      2.00000
     38      -3.4965      2.00000
     39      -3.4965      2.00000
     40      -3.4964      2.00000
     41      -3.4964      2.00000
     42      -3.4963      2.00000
     43      -3.4963      2.00000
     44      -3.4963      2.00000
     45      -3.4962      2.00000
     46      -3.4962      2.00000
     47      -3.4962      2.00000
     48      -3.4961      2.00000
     49      -3.4961      2.00000
     50      -3.4960      2.00000
     51      -3.4959      2.00000
     52      -3.4958      2.00000
     53      -3.4943      2.00000
     54      -3.4928      2.00000
     55      -3.4906      2.00000
     56      -2.0921      2.00000
     57      -2.0920      2.00000
     58      -2.0909      2.00000
     59      -2.0909      2.00000
     60      -2.0899      2.00000
     61      -2.0898      2.00000
     62      -1.9373      2.00000
     63      -1.9372      2.00000
     64      -1.9363      2.00000
     65      -1.9360      2.00000
     66      -1.9356      2.00000
     67      -1.9356      2.00000
     68      -1.9354      2.00000
     69      -1.9354      2.00000
     70      -1.9352      2.00000
     71      -1.9338      2.00000
     72      -1.9337      2.00000
     73      -1.9332      2.00000
     74      -1.2194      2.00000
     75      -1.2184      2.00000
     76      -1.2184      2.00000
     77      -1.2175      2.00000
     78      -0.6729      2.00000
     79      -0.6710      2.00000
     80      -0.6709      2.00000
     81      -0.6702      2.00000
     82      -0.6690      2.00000
     83      -0.6690      2.00000
     84      -0.6689      2.00000
     85      -0.6689      2.00000
     86      -0.6688      2.00000
     87      -0.6688      2.00000
     88      -0.6687      2.00000
     89      -0.6687      2.00000
     90      -0.6686      2.00000
     91      -0.6686      2.00000
     92      -0.6686      2.00000
     93      -0.6685      2.00000
     94      -0.6685      2.00000
     95      -0.6684      2.00000
     96      -0.6683      2.00000
     97      -0.6682      2.00000
     98      -0.6682      2.00000
     99      -0.6660      2.00000
    100      -0.6652      2.00000
    101      -0.6639      2.00000
    102       0.2145      2.00000
    103       0.2151      2.00000
    104       0.2157      2.00000
    105       0.2166      2.00000
    106       0.2166      2.00000
    107       0.2167      2.00000
    108       0.2167      2.00000
    109       0.2168      2.00000
    110       0.2169      2.00000
    111       0.2179      2.00000
    112       0.2186      2.00000
    113       0.2188      2.00000
    114       1.7663      2.00000
    115       1.7668      2.00000
    116       1.7677      2.00000
    117       1.7678      2.00000
    118       1.7680      2.00000
    119       1.7683      2.00000
    120       1.7686      2.00000
    121       1.7690      2.00000
    122       1.8847      2.00000
    123       1.8849      2.00000
    124       1.8857      2.00000
    125       1.8858      2.00000
    126       1.8858      2.00000
    127       1.8859      2.00000
    128       1.8859      2.00000
    129       1.8861      2.00000
    130       1.8863      2.00000
    131       1.8864      2.00000
    132       1.8869      2.00000
    133       1.8876      2.00000
    134       1.9775      2.00000
    135       1.9780      2.00000
    136       1.9781      2.00000
    137       1.9783      2.00000
    138       1.9785      2.00000
    139       1.9788      2.00000
    140       1.9789      2.00000
    141       1.9791      2.00000
    142       1.9792      2.00000
    143       1.9799      2.00000
    144       1.9801      2.00000
    145       1.9802      2.00000
    146       2.1401      2.00000
    147       2.1403      2.00000
    148       2.1408      2.00000
    149       2.1413      2.00000
    150       2.1418      2.00000
    151       2.1422      2.00000
    152       2.1845      2.00000
    153       2.1850      2.00000
    154       2.1852      2.00000
    155       2.1857      2.00000
    156       2.1862      2.00000
    157       2.1865      2.00000
    158       2.1866      2.00000
    159       2.1867      2.00000
    160       2.1867      2.00000
    161       2.1867      2.00000
    162       2.1868      2.00000
    163       2.1868      2.00000
    164       2.1868      2.00000
    165       2.1869      2.00000
    166       2.1869      2.00000
    167       2.1870      2.00000
    168       2.1871      2.00000
    169       2.1872      2.00000
    170       2.1873      2.00000
    171       2.1876      2.00000
    172       2.1879      2.00000
    173       2.1887      2.00000
    174       2.1890      2.00000
    175       2.1903      2.00000
    176       2.8562      2.00000
    177       2.8562      2.00000
    178       2.8566      2.00000
    179       2.8566      2.00000
    180       2.8571      2.00000
    181       2.8571      2.00000
    182       3.4896      2.00000
    183       3.4902      2.00000
    184       3.4912      2.00000
    185       3.4916      2.00000
    186       3.4920      2.00000
    187       3.4921      2.00000
    188       3.4922      2.00000
    189       3.4922      2.00000
    190       3.4923      2.00000
    191       3.4924      2.00000
    192       3.4925      2.00000
    193       3.4925      2.00000
    194       3.4925      2.00000
    195       3.4925      2.00000
    196       3.4926      2.00000
    197       3.4926      2.00000
    198       3.4926      2.00000
    199       3.4927      2.00000
    200       3.4928      2.00000
    201       3.4931      2.00000
    202       3.4933      2.00000
    203       3.4939      2.00000
    204       3.4951      2.00000
    205       3.4959      2.00000
    206       3.8019      2.00000
    207       3.8026      2.00000
    208       3.8035      2.00000
    209       3.8036      2.00000
    210       3.8037      2.00000
    211       3.8038      2.00000
    212       3.8038      2.00000
    213       3.8038      2.00000
    214       3.8040      2.00000
    215       3.8043      2.00000
    216       3.8051      2.00000
    217       3.8059      2.00000
    218       4.3508      2.00000
    219       4.3516      2.00000
    220       4.3520      2.00000
    221       4.3524      2.00000
    222       4.3526      2.00000
    223       4.3527      2.00000
    224       4.3528      2.00000
    225       4.3531      2.00000
    226       4.3532      2.00000
    227       4.3535      2.00000
    228       4.3541      2.00000
    229       4.3550      2.00000
    230       4.4761      2.00000
    231       4.4767      2.00000
    232       4.4774      2.00000
    233       4.4776      2.00000
    234       4.4778      2.00000
    235       4.4780      2.00000
    236       4.4787      2.00000
    237       4.4793      2.00000
    238       4.9084      2.00000
    239       4.9091      2.00000
    240       4.9113      2.00000
    241       4.9113      2.00000
    242       4.9116      2.00000
    243       4.9117      2.00000
    244       4.9117      2.00000
    245       4.9117      2.00000
    246       4.9118      2.00000
    247       4.9118      2.00000
    248       4.9119      2.00000
    249       4.9120      2.00000
    250       4.9122      2.00000
    251       4.9122      2.00000
    252       4.9136      2.00000
    253       4.9161      2.00000
    254       5.6594      2.00000
    255       5.6604      2.00000
    256       5.6615      2.00000
    257       6.3940      0.00000
    258       6.3946      0.00000
    259       6.3951      0.00000
    260       6.3951      0.00000
    261       6.3956      0.00000
    262       6.3962      0.00000
    263       6.7955      0.00000
    264       6.7956      0.00000
    265       6.7961      0.00000
    266       6.7965      0.00000
    267       6.7967      0.00000
    268       6.7972      0.00000
    269       7.1206      0.00000
    270       7.1208      0.00000
    271       7.1208      0.00000
    272       7.1211      0.00000
    273       7.1832      0.00000
    274       7.1836      0.00000
    275       7.1840      0.00000
    276       7.1842      0.00000
    277       7.1857      0.00000
    278       7.1857      0.00000
    279       7.1858      0.00000
    280       7.1858      0.00000
    281       7.1858      0.00000
    282       7.1859      0.00000
    283       7.1859      0.00000
    284       7.1860      0.00000
    285       7.1860      0.00000
    286       7.1860      0.00000
    287       7.1860      0.00000
    288       7.1861      0.00000
    289       7.1862      0.00000
    290       7.1862      0.00000
    291       7.1862      0.00000
    292       7.1863      0.00000
    293       7.1872      0.00000
    294       7.1875      0.00000
    295       7.1889      0.00000
    296       7.1898      0.00000
    297       7.6115      0.00000
    298       7.6117      0.00000
    299       7.6119      0.00000
    300       7.6120      0.00000
    301       7.6122      0.00000
    302       7.6123      0.00000
    303       7.6129      0.00000
    304       7.6132      0.00000
    305       8.0812      0.00000
    306       8.0816      0.00000
    307       8.0820      0.00000
    308       8.0825      0.00000
    309       8.0828      0.00000
    310       8.0829      0.00000
    311       8.0830      0.00000
    312       8.0831      0.00000
    313       8.0835      0.00000
    314       8.0840      0.00000
    315       8.0842      0.00000
    316       8.0844      0.00000
    317       8.1987      0.00000
    318       8.1993      0.00000
    319       8.2000      0.00000
    320       8.7789      0.00000
    321       8.7793      0.00000
    322       8.7870      0.00000


--------------------------------------------------------------------------------------------------------


 soft charge-density along one line, spin component           1
         0         1         2         3         4         5         6         7         8         9
 total charge-density along one line
 
 pseudopotential strength for first ion, spin component:           1
 18.431  -0.001  -0.000  -0.000   0.000  -0.000   0.000   0.000
 -0.001   0.006  -0.000   0.000  -0.000   0.000  -0.000   0.000
 -0.000  -0.000   4.180  -0.000   0.000  -0.005   0.000  -0.000
 -0.000   0.000  -0.000   4.180   0.000   0.000  -0.005  -0.000
  0.000  -0.000   0.000   0.000   4.180  -0.000  -0.000  -0.005
 -0.000   0.000  -0.005   0.000  -0.000   0.005   0.000   0.000
  0.000  -0.000   0.000  -0.005  -0.000   0.000   0.005  -0.000
  0.000   0.000  -0.000  -0.000  -0.005   0.000  -0.000   0.005
 total augmentation occupancy for first ion, spin component:           1
  1.463  -0.793   0.000  -0.003  -0.000  -0.000   0.004   0.000
 -0.793   0.733   0.000   0.003  -0.000  -0.000  -0.004   0.000
  0.000   0.000   1.037   0.000   0.004  -0.551   0.000  -0.005
 -0.003   0.003   0.000   1.037  -0.000   0.000  -0.551   0.000
 -0.000  -0.000   0.004  -0.000   1.037  -0.005   0.000  -0.551
 -0.000  -0.000  -0.551   0.000  -0.005   0.351  -0.000   0.004
  0.004  -0.004   0.000  -0.551   0.000  -0.000   0.351   0.000
  0.000   0.000  -0.005   0.000  -0.551   0.004   0.000   0.351


------------------------ aborting loop because EDIFF is reached ----------------------------------------


    CHARGE:  cpu time    0.5135: real time    0.5147
    FORLOC:  cpu time    0.2015: real time    0.2019
    FORNL :  cpu time    5.5597: real time    5.5762
    STRESS:  cpu time    8.9020: real time    8.9273
    FORCOR:  cpu time    0.4145: real time    0.4155
    FORHAR:  cpu time    0.2496: real time    0.2502
    MIXING:  cpu time    0.0099: real time    0.0099
    OFIELD:  cpu time    0.0001: real time    0.0001

  FORCE on cell =-STRESS in cart. coord.  units (eV):
  Direction    XX          YY          ZZ          XY          YZ          ZX
  --------------------------------------------------------------------------------------
  Alpha Z   210.78029   210.78029   210.78029
  Ewald   -4841.67378 -4841.66445 -4841.67377     0.77423    -0.77485    -0.00021
  Hartree   330.57715   330.57891   330.57716     0.08804    -0.08841    -0.00010
  E(xc)   -1619.14448 -1619.14457 -1619.14448    -0.00662     0.00664     0.00001
  Local   -1899.80302 -1899.81363 -1899.80304    -0.81721     0.81871     0.00061
  n-local  4936.76667  4936.76856  4936.76668     0.15916    -0.15913    -0.00000
  augment  -736.53093  -736.53103  -736.53093    -0.00728     0.00674    -0.00027
  Kinetic  3628.38907  3628.38854  3628.38903    -0.10316     0.10309    -0.00003
  Fock        0.00000     0.00000     0.00000     0.00000     0.00000     0.00000
  -------------------------------------------------------------------------------------
  Total       9.36097     9.36262     9.36093     0.08714    -0.08721     0.00001
  in kB       5.73176     5.73276     5.73173     0.05336    -0.05340     0.00001
  external pressure =        5.73 kB  Pullay stress =        0.00 kB


 VOLUME and BASIS-vectors are now :
 -----------------------------------------------------------------------------
  energy-cutoff  :      500.00
  volume of cell :     2616.64
      direct lattice vectors                 reciprocal lattice vectors
     0.000000000 10.937160696 10.937160696    -0.045715704  0.045715704  0.045715704
    10.937160696  0.000000000 10.937160696     0.045715704 -0.045715704  0.045715704
    10.937160696 10.937160696  0.000000000     0.045715704  0.045715704 -0.045715704

  length of vectors
    15.467480990 15.467480990 15.467480990     0.079181922  0.079181922  0.079181922


 FORCES acting on ions
    electron-ion (+dipol)            ewald-force                    non-local-force                 convergence-correction
 -----------------------------------------------------------------------------------------------
   0.245E-01 0.561E-02 -.519E+00   -.358E-01 0.108E-03 0.468E+00   0.644E-02 -.666E-02 0.180E+00   0.904E-07 0.946E-07 0.172E-05
   0.214E+00 0.200E+00 0.128E-02   -.180E+00 -.169E+00 0.182E-02   -.525E-01 -.513E-01 -.364E-01   -.872E-06 -.943E-06 0.776E-07
   0.526E+00 0.596E-01 0.252E-01   -.469E+00 -.601E-01 -.236E-01   -.187E+00 -.149E-02 -.311E-02   -.189E-05 -.726E-06 -.307E-06
   -.206E+00 0.824E-04 -.195E+00   0.178E+00 -.275E-13 0.169E+00   0.810E-01 -.684E-04 0.141E-01   0.150E-06 -.767E-07 0.951E-06
   0.247E-01 0.672E-02 0.238E-02   -.361E-01 -.128E-01 -.761E-02   0.646E-02 0.670E-02 0.604E-02   0.878E-07 -.487E-07 0.232E-06
   -.111E-01 0.219E+00 0.210E+00   0.916E-02 -.190E+00 -.182E+00   0.341E-01 -.492E-01 -.481E-01   -.611E-06 -.729E-06 -.460E-06
   -.167E-02 0.599E-01 0.251E-01   -.394E-02 -.604E-01 -.235E-01   0.298E-02 -.150E-02 -.314E-02   -.205E-06 -.776E-06 -.241E-07
   0.178E-01 0.204E-01 0.108E-01   -.104E-01 -.216E-01 -.131E-01   -.489E-02 0.146E-02 0.253E-02   0.202E-07 0.267E-06 0.728E-06
   0.345E-01 0.606E-01 0.260E-01   -.366E-01 -.604E-01 -.236E-01   0.166E-02 -.127E-02 -.295E-02   -.424E-06 -.840E-06 -.337E-06
   0.213E+00 -.179E+00 0.997E-02   -.187E+00 0.153E+00 -.111E-01   -.465E-01 0.468E-01 -.318E-01   -.283E-06 0.349E-06 0.500E-06
   -.177E-01 0.656E-02 -.501E-01   0.155E-01 -.802E-02 0.503E-01   0.359E-02 0.290E-03 0.175E-02   0.264E-06 0.108E-06 0.779E-06
   0.176E-01 0.223E+00 -.163E+00   -.176E-01 -.194E+00 0.135E+00   0.332E-01 -.485E-01 0.488E-01   -.532E-06 -.852E-06 0.487E-06
   -.350E-02 0.528E-02 -.684E-02   0.274E-02 -.574E-02 0.758E-02   0.602E-03 0.398E-04 -.700E-03   -.118E-06 -.979E-07 0.922E-09
   0.143E-01 0.480E-02 -.151E-01   -.151E-01 -.246E-02 0.141E-01   0.703E-03 -.192E-02 0.581E-03   0.365E-06 -.211E-06 0.229E-06
   -.658E-02 0.134E-01 -.222E-01   0.338E-03 -.792E-02 0.338E-01   0.729E-02 -.659E-02 -.643E-02   0.134E-07 0.201E-06 0.589E-07
   -.348E-02 0.235E-01 -.144E-01   0.492E-02 -.215E-01 0.151E-01   -.118E-02 -.143E-02 -.542E-03   -.415E-06 -.148E-06 -.235E-06
   0.282E-02 0.738E-02 0.612E-03   -.259E-02 -.805E-02 0.545E-03   -.561E-03 0.522E-03 -.115E-02   -.143E-06 0.106E-06 0.232E-06
   0.956E-02 0.126E-01 0.299E-02   -.849E-02 -.123E-01 -.378E-02   -.106E-02 -.996E-03 0.105E-03   -.225E-06 -.243E-06 -.304E-08
   -.182E-03 -.254E-02 -.114E-01   -.525E-03 0.229E-02 0.123E-01   0.699E-03 -.250E-04 -.659E-03   -.927E-07 -.306E-06 0.126E-06
   0.617E-03 0.745E-02 -.119E-01   -.574E-03 -.574E-02 0.106E-01   0.247E-03 -.108E-02 0.138E-02   -.149E-06 0.718E-08 0.136E-06
   -.982E-02 0.735E-02 -.649E-02   0.101E-01 -.802E-02 0.120E-01   -.264E-03 0.457E-03 -.359E-02   0.958E-07 0.131E-06 0.621E-07
   -.459E-02 0.361E-02 -.104E-01   0.523E-02 -.218E-02 0.106E-01   -.431E-03 -.112E-02 -.200E-03   0.171E-07 -.275E-08 0.629E-07
   -.853E-03 0.911E-02 -.460E-05   -.534E-03 -.104E-01 -.481E-03   0.132E-02 0.696E-03 0.382E-03   -.129E-06 -.123E-06 -.853E-07
   -.439E-02 0.726E-02 -.138E-01   0.166E-02 -.433E-02 0.685E-02   0.326E-02 -.332E-02 0.476E-02   0.273E-06 -.161E-06 0.962E-07
   0.599E-01 -.402E-02 0.179E-01   -.600E-01 0.229E-02 -.155E-01   -.187E-02 0.501E-03 -.382E-02   -.827E-06 -.101E-06 0.834E-07
   0.148E-01 0.936E-02 0.508E-02   -.132E-01 -.769E-02 -.537E-02   -.203E-02 -.813E-03 -.305E-03   -.381E-07 0.123E-06 0.522E-06
   -.195E-01 -.489E-02 -.842E-01   0.237E-01 -.109E-03 0.962E-01   -.356E-02 0.689E-02 -.500E-02   0.250E-06 -.172E-06 0.470E-06
   0.129E-01 -.102E-01 -.308E-01   -.120E-01 0.112E-01 0.309E-01   -.286E-03 -.106E-02 0.393E-03   -.377E-06 -.543E-06 -.239E-06
   -.284E-01 0.667E-01 -.745E-03   0.259E-01 -.681E-01 -.481E-03   0.378E-02 -.793E-03 0.171E-03   -.122E-06 -.612E-06 -.780E-07
   -.404E-01 0.231E-01 -.331E-01   0.435E-01 -.251E-01 0.262E-01   -.362E-02 0.282E-02 0.452E-02   -.991E-07 0.174E-06 0.288E-06
   0.739E-02 0.145E-01 0.127E-01   -.757E-02 -.161E-01 -.124E-01   0.135E-03 0.121E-02 -.761E-04   -.648E-08 -.150E-07 0.214E-06
   -.509E-02 0.219E-01 0.921E-02   0.539E-02 -.199E-01 -.833E-02   0.294E-03 -.179E-02 -.157E-03   -.425E-06 -.195E-06 0.838E-07
   -.192E-01 0.667E-02 0.352E-01   0.234E-01 -.109E-03 -.244E-01   -.361E-02 -.656E-02 -.794E-02   0.282E-06 -.540E-07 -.106E-05
   -.189E+00 -.197E+00 0.250E-01   0.160E+00 0.167E+00 -.233E-01   0.495E-01 0.499E-01 -.342E-01   0.992E-06 0.818E-06 -.855E-08
   -.225E-01 -.521E-01 0.217E-03   0.212E-01 0.524E-01 -.481E-03   0.315E-02 0.155E-02 -.801E-03   0.503E-06 0.709E-06 0.388E-07
   0.115E-02 -.180E+00 0.189E+00   -.371E-02 0.153E+00 -.160E+00   0.351E-01 0.475E-01 -.495E-01   -.228E-06 0.493E-06 -.101E-05
   -.836E-02 -.430E-03 0.730E-02   0.850E-02 -.200E-04 -.786E-02   0.172E-03 0.391E-03 0.243E-03   0.178E-06 -.237E-07 -.887E-07
   0.108E-01 -.122E-01 0.196E-02   -.129E-01 0.114E-01 0.185E-03   0.166E-02 0.517E-03 -.186E-02   0.397E-06 0.674E-07 -.192E-06
   -.609E-01 0.334E-02 0.329E-01   0.609E-01 -.229E-02 -.315E-01   0.212E-02 0.179E-03 -.308E-02   0.816E-06 0.289E-06 -.354E-08
   -.201E-01 0.193E-01 0.404E-01   0.190E-01 -.195E-01 -.401E-01   0.705E-03 0.401E-03 -.738E-04   0.103E-06 0.176E-07 0.168E-07
   -.220E-01 0.254E-02 0.101E-02   0.222E-01 -.229E-02 -.481E-03   -.248E-03 0.228E-04 -.633E-03   0.276E-06 0.190E-06 -.518E-07
   -.168E-01 0.257E-01 0.872E-02   0.185E-01 -.271E-01 -.671E-02   -.136E-02 0.141E-02 -.142E-02   0.124E-06 -.813E-07 -.562E-06
   -.983E-02 -.738E-02 -.361E-02   0.101E-01 0.805E-02 0.436E-02   -.270E-03 -.459E-03 -.643E-03   -.127E-06 0.940E-07 -.129E-06
   -.330E-01 -.156E-01 -.170E-01   0.334E-01 0.150E-01 0.169E-01   -.503E-03 0.298E-03 -.143E-03   0.209E-06 0.197E-06 0.165E-06
   -.116E-01 0.253E-02 0.974E-03   0.117E-01 -.229E-02 -.447E-03   0.115E-03 0.262E-04 -.630E-03   0.209E-06 0.279E-06 0.118E-06
   -.969E-02 0.636E-06 -.137E-02   0.929E-02 -.759E-13 0.193E-02   0.320E-03 -.522E-06 -.441E-03   0.134E-06 0.126E-07 0.127E-06
   -.979E-02 0.692E-02 -.292E-02   0.101E-01 -.805E-02 0.151E-02   -.271E-03 0.923E-03 0.955E-03   -.883E-07 -.477E-07 -.450E-06
   -.257E-01 0.101E-01 -.703E-02   0.241E-01 -.121E-01 0.838E-02   0.117E-02 0.171E-02 -.112E-02   0.319E-06 0.325E-06 -.269E-06
   0.214E-02 -.752E-02 0.519E-02   -.251E-02 0.805E-02 -.538E-02   0.258E-03 -.310E-03 0.145E-03   -.405E-07 0.316E-08 -.544E-07
   -.316E-02 0.226E-02 0.250E-02   0.341E-02 -.296E-02 -.229E-02   -.237E-03 0.511E-03 -.244E-03   -.198E-07 0.340E-07 -.936E-07
   0.153E-02 -.527E-02 -.685E-02   -.181E-02 0.574E-02 0.759E-02   0.658E-03 -.462E-04 -.694E-03   0.231E-06 0.319E-06 0.211E-06
   -.968E-03 -.726E-02 -.519E-02   0.734E-03 0.670E-02 0.532E-02   0.270E-03 0.418E-03 -.110E-03   0.491E-07 0.121E-06 0.241E-06
   -.120E-02 0.763E-02 -.301E-02   0.475E-03 -.804E-02 0.227E-02   0.821E-03 0.250E-03 0.346E-03   -.412E-07 -.769E-07 -.380E-06
   -.606E-02 0.363E-02 -.657E-02   0.479E-02 -.451E-02 0.720E-02   0.102E-02 0.700E-03 -.530E-03   0.162E-06 0.596E-07 -.357E-07
   -.599E-03 0.451E-02 0.538E-02   0.768E-03 -.477E-02 -.554E-02   -.759E-04 0.274E-03 0.517E-04   0.466E-07 0.247E-07 -.778E-07
   -.252E-02 0.891E-02 0.156E-02   0.229E-02 -.898E-02 -.447E-03   0.267E-03 0.149E-03 -.801E-03   -.411E-07 -.944E-07 -.212E-06
   0.111E-01 -.603E-01 0.250E-01   -.956E-02 0.604E-01 -.235E-01   -.333E-03 0.195E-02 -.313E-02   0.332E-06 0.810E-06 -.304E-08
   0.213E-01 -.216E-01 0.345E-01   -.212E-01 0.206E-01 -.349E-01   0.842E-04 0.654E-03 0.509E-03   -.340E-07 0.848E-07 -.418E-07
   0.242E-01 0.592E-02 -.162E-01   -.361E-01 -.149E-03 0.966E-02   0.692E-02 -.674E-02 0.723E-02   0.291E-07 0.163E-06 -.584E-06
   0.170E-01 -.170E-01 -.342E-01   -.204E-01 0.139E-01 0.345E-01   0.284E-02 0.244E-02 -.381E-03   0.502E-06 0.593E-06 -.177E-06
   0.102E-01 0.468E-02 0.570E-02   -.956E-02 -.481E-02 -.554E-02   -.346E-03 0.124E-03 -.261E-03   0.819E-07 0.862E-07 -.201E-06
   0.120E-01 0.256E-01 -.473E-02   -.138E-01 -.246E-01 0.720E-02   0.160E-02 -.741E-03 -.197E-02   0.122E-06 -.142E-06 -.586E-06
   0.476E-03 -.195E-03 0.300E-01   0.183E-04 -.544E-05 -.303E-01   -.368E-03 0.188E-03 0.124E-03   0.539E-07 0.961E-08 -.171E-06
   0.417E-02 0.797E-02 0.129E-01   -.470E-02 -.811E-02 -.124E-01   0.357E-03 0.895E-04 -.453E-03   0.144E-07 0.203E-06 -.365E-07
   -.951E-02 -.738E-02 0.824E-02   0.101E-01 0.805E-02 -.411E-02   -.588E-03 -.516E-03 -.260E-02   0.979E-07 0.116E-06 0.599E-07
   -.108E-01 -.780E-02 0.621E-02   0.130E-01 0.928E-02 -.112E-01   -.251E-02 -.243E-02 0.268E-02   -.354E-06 -.348E-06 -.993E-07
   -.158E-01 -.149E-01 0.101E-02   0.155E-01 0.150E-01 -.481E-03   0.569E-03 -.512E-04 -.632E-03   0.983E-08 -.187E-06 -.156E-06
   -.106E-01 -.164E-01 0.469E-02   0.951E-02 0.159E-01 -.307E-02   0.116E-02 0.947E-03 -.108E-02   0.125E-06 0.352E-07 0.772E-07
   -.222E-01 -.735E-02 0.154E-01   0.229E-01 0.802E-02 -.155E-01   -.290E-03 -.462E-03 -.179E-03   0.125E-06 0.826E-08 0.279E-06
   -.158E-01 -.760E-02 0.822E-02   0.153E-01 0.789E-02 -.743E-02   0.479E-03 -.209E-03 -.686E-03   0.243E-06 0.250E-07 0.110E-07
   -.151E-01 -.323E-02 0.123E-01   0.155E-01 0.229E-02 -.132E-01   -.536E-04 0.669E-03 0.416E-03   -.186E-06 -.128E-06 0.307E-07
   -.248E-01 -.745E-02 0.181E-01   0.233E-01 0.574E-02 -.174E-01   0.180E-02 0.108E-02 -.791E-03   0.824E-07 -.164E-06 0.406E-06
   -.778E-02 -.125E-01 0.874E-03   0.782E-02 0.128E-01 -.481E-03   -.223E-03 -.188E-03 -.485E-03   -.240E-06 0.587E-07 -.164E-06
   -.106E-01 -.589E-02 0.296E-02   0.113E-01 0.515E-02 -.247E-02   -.607E-03 0.608E-03 -.439E-03   0.175E-07 0.156E-06 -.570E-07
   -.836E-02 -.152E-01 0.124E-01   0.850E-02 0.161E-01 -.124E-01   0.176E-03 -.519E-03 0.284E-03   0.173E-07 0.157E-06 0.235E-06
   -.120E-01 -.149E-01 0.245E-02   0.119E-01 0.146E-01 -.260E-02   0.148E-03 0.209E-03 0.968E-04   0.559E-08 0.171E-06 -.156E-06
   -.563E-02 -.267E-02 0.130E-01   0.523E-02 0.229E-02 -.135E-01   0.508E-03 0.126E-03 0.262E-03   -.114E-06 -.186E-06 -.392E-07
   -.135E-01 -.724E-02 0.120E-01   0.127E-01 0.669E-02 -.119E-01   0.649E-03 0.415E-03 -.145E-03   0.818E-08 0.386E-07 0.703E-07
   -.504E-02 -.705E-04 0.417E-02   0.553E-02 0.544E-05 -.479E-02   -.389E-03 0.401E-04 0.494E-03   -.553E-07 0.126E-06 -.153E-06
   -.104E-01 0.130E-02 0.916E-02   0.104E-01 -.107E-02 -.833E-02   0.154E-03 -.594E-04 -.592E-03   -.173E-06 -.103E-06 -.188E-06
   0.482E-03 -.125E-01 0.779E-02   0.183E-04 0.127E-01 -.750E-02   -.372E-03 0.161E-03 -.445E-03   0.516E-07 0.187E-06 0.292E-06
   -.229E-02 -.105E-01 0.537E-02   0.260E-02 0.100E-01 -.532E-02   -.259E-03 0.352E-03 -.129E-03   -.717E-07 0.168E-06 -.199E-07
   -.995E-03 -.462E-02 0.521E-02   -.394E-02 0.475E-02 -.551E-02   0.327E-02 -.126E-03 0.200E-03   -.113E-06 -.860E-08 -.528E-08
   -.686E-03 -.112E-01 0.458E-02   -.499E-03 0.101E-01 -.522E-02   0.949E-03 0.910E-03 0.433E-03   -.578E-07 0.121E-06 0.244E-06
   0.477E-03 0.206E-03 0.353E-02   0.183E-04 -.544E-05 -.369E-02   -.368E-03 -.188E-03 0.629E-04   -.197E-07 -.128E-06 -.182E-06
   -.854E-04 0.774E-03 0.590E-02   -.571E-03 -.800E-04 -.478E-02   0.554E-03 -.559E-03 -.858E-03   -.809E-07 -.151E-06 -.204E-06
   -.319E-02 -.464E-02 0.524E-02   0.369E-02 0.477E-02 -.554E-02   -.400E-03 -.125E-03 0.201E-03   -.129E-06 -.669E-07 -.596E-08
   -.289E-02 0.526E-06 0.515E-02   0.267E-02 -.273E-13 -.472E-02   0.137E-03 -.343E-06 -.299E-03   -.118E-06 -.957E-07 -.138E-06
   -.319E-02 -.104E-01 0.709E-02   0.274E-02 0.103E-01 -.848E-02   0.284E-03 -.154E-04 0.107E-02   -.457E-07 -.130E-07 0.697E-07
   -.554E-02 -.188E-01 0.127E-01   0.398E-02 0.170E-01 -.124E-01   0.929E-03 0.201E-02 -.463E-03   -.121E-07 0.399E-07 0.492E-06
   -.163E-03 -.693E-02 0.276E-02   0.453E-03 0.802E-02 -.231E-02   -.198E-03 -.874E-03 -.302E-03   0.866E-07 -.495E-07 -.298E-06
   0.117E-01 -.602E-02 0.188E-02   -.577E-02 0.866E-02 -.396E-02   -.386E-02 -.309E-02 0.271E-02   -.142E-06 -.279E-06 0.911E-07
   -.986E-02 -.449E-02 0.538E-02   0.103E-01 0.475E-02 -.554E-02   -.325E-03 -.275E-03 0.523E-04   0.123E-06 -.694E-07 -.655E-07
   -.936E-03 -.282E-02 0.446E-02   0.354E-03 0.301E-02 -.372E-02   0.402E-03 -.137E-03 -.637E-03   0.408E-07 -.110E-07 -.267E-06
   -.126E-01 -.752E-02 0.141E-01   0.136E-01 0.805E-02 -.149E-01   -.720E-03 -.371E-03 0.717E-03   0.138E-06 0.381E-08 0.410E-06
   -.800E-02 -.512E-02 0.136E-01   0.773E-02 0.507E-02 -.134E-01   0.183E-03 0.476E-04 -.116E-03   -.246E-07 -.145E-06 0.126E-06
   -.587E-02 -.130E-01 -.279E-01   0.590E-03 0.815E-02 0.384E-01   0.635E-02 0.605E-02 -.579E-02   -.310E-06 -.184E-06 -.204E-06
   -.144E-02 -.157E-02 -.850E-02   -.934E-03 -.159E-02 0.276E-02   0.260E-02 0.325E-02 0.407E-02   0.321E-06 0.304E-06 0.227E-06
   -.847E-01 -.603E-01 0.259E-01   0.837E-01 0.601E-01 -.236E-01   0.459E-02 0.126E-02 -.290E-02   0.733E-06 0.594E-06 -.191E-06
   -.304E-01 -.228E-01 -.181E-01   0.290E-01 0.235E-01 0.185E-01   0.131E-02 -.688E-04 -.586E-03   0.149E-07 -.265E-06 -.496E-06
   -.325E-01 0.661E-02 0.691E-01   0.316E-01 -.802E-02 -.702E-01   0.259E-02 0.306E-03 -.886E-03   -.107E-06 -.744E-07 -.435E-06
   -.566E-01 -.153E-01 0.297E-01   0.557E-01 0.158E-01 -.288E-01   0.101E-02 -.367E-03 -.743E-03   0.202E-06 0.229E-06 0.743E-07
   0.324E-02 0.104E-01 0.710E-02   -.181E-02 -.103E-01 -.849E-02   -.106E-02 0.175E-04 0.107E-02   -.288E-07 0.866E-07 0.261E-06
   -.124E-01 0.933E-02 0.218E-01   0.115E-01 -.766E-02 -.206E-01   0.716E-03 -.806E-03 -.114E-02   -.247E-06 0.656E-07 -.997E-08
   0.957E-02 -.596E-01 0.247E-01   -.956E-02 0.601E-01 -.236E-01   -.710E-03 0.148E-02 -.265E-02   0.191E-06 0.670E-06 -.659E-07
   -.439E-02 -.256E-01 -.129E-01   0.590E-02 0.246E-01 0.139E-01   -.133E-02 0.741E-03 -.765E-03   -.322E-06 0.148E-06 -.432E-06
   0.247E-01 -.588E-02 0.355E-01   -.361E-01 0.109E-03 -.302E-01   0.646E-02 0.674E-02 -.643E-02   -.276E-07 -.325E-06 0.696E-07
   -.857E-02 -.427E-01 0.429E-01   0.656E-02 0.409E-01 -.454E-01   0.142E-02 0.103E-02 0.222E-02   0.300E-06 0.308E-06 0.917E-07
   0.104E-01 0.509E-02 0.526E-02   -.956E-02 -.475E-02 -.555E-02   -.644E-03 -.337E-03 0.199E-03   0.103E-07 -.901E-07 0.545E-07
   0.844E-02 -.580E-03 0.341E-01   -.983E-02 0.252E-02 -.329E-01   0.115E-02 -.162E-02 -.830E-03   0.877E-07 -.314E-06 -.101E-06
   0.938E-03 0.152E-03 -.105E-01   0.183E-04 0.458E-04 0.955E-02   -.830E-03 -.186E-03 0.683E-03   -.218E-06 0.120E-06 -.376E-06
   0.604E-03 0.439E-02 0.379E-02   -.673E-03 -.405E-02 -.339E-02   -.947E-04 -.363E-03 -.265E-03   -.851E-07 0.198E-06 0.363E-07
   0.739E-02 -.214E-03 0.625E-02   -.757E-02 -.110E-04 -.784E-02   0.131E-03 0.167E-03 0.127E-02   -.738E-07 -.371E-07 0.191E-06
   0.590E-02 -.143E-01 0.830E-02   -.530E-02 0.129E-01 -.841E-02   -.276E-03 0.163E-02 -.877E-04   0.175E-06 0.161E-06 0.180E-06
   0.467E-02 0.337E-02 -.192E-02   -.430E-02 -.229E-02 0.252E-02   -.262E-03 -.820E-03 -.486E-03   0.437E-07 -.162E-06 -.480E-07
   0.161E-01 -.191E-02 0.104E-01   -.983E-02 -.597E-03 -.773E-02   -.424E-02 0.300E-02 -.307E-02   -.144E-06 0.152E-06 -.156E-06
   -.502E-02 0.330E-03 -.510E-02   0.551E-02 0.544E-05 0.473E-02   -.387E-03 -.336E-03 0.242E-03   0.147E-06 -.235E-07 -.172E-06
   0.131E-02 0.156E-02 0.518E-04   -.168E-02 -.104E-02 0.349E-03   0.240E-03 -.499E-03 -.273E-03   0.222E-07 -.123E-06 -.170E-06
   -.199E-02 -.252E-02 -.145E-03   0.322E-02 0.329E-02 -.481E-03   -.869E-03 -.562E-03 0.534E-03   0.158E-06 0.265E-06 0.512E-07
   -.357E-02 -.286E-02 -.129E-02   0.366E-02 0.304E-02 0.166E-02   -.202E-03 -.137E-03 -.242E-03   0.643E-07 0.143E-06 -.217E-06
   0.408E-02 0.323E-02 -.443E-04   -.434E-02 -.229E-02 -.447E-03   0.159E-03 -.671E-03 0.387E-03   -.224E-06 0.259E-07 0.244E-06
   0.134E-03 -.773E-06 0.711E-02   0.650E-03 0.195E-13 -.671E-02   -.650E-03 0.443E-06 0.233E-03   -.120E-07 -.860E-07 0.714E-07
   -.953E-02 -.689E-02 -.177E-01   0.102E-01 0.802E-02 0.176E-01   -.594E-03 -.981E-03 -.221E-04   0.993E-07 -.254E-06 -.398E-06
   0.462E-03 -.319E-02 -.382E-02   -.349E-03 0.301E-02 0.370E-02   -.385E-03 -.210E-03 -.113E-03   0.170E-06 -.208E-07 -.456E-07
   -.368E-01 0.323E-02 -.957E-05   0.381E-01 -.229E-02 -.481E-03   -.996E-03 -.670E-03 0.386E-03   0.320E-06 0.611E-07 0.143E-06
   -.164E-01 -.354E-02 -.415E-02   0.164E-01 0.401E-02 0.468E-02   -.237E-04 -.451E-03 -.355E-03   0.115E-06 -.688E-07 -.151E-06
   -.949E-02 0.735E-02 0.104E-01   0.101E-01 -.802E-02 -.117E-01   -.594E-03 0.519E-03 0.105E-02   -.737E-07 -.954E-08 0.268E-06
   -.161E-01 0.344E-03 0.749E-02   0.154E-01 -.995E-03 -.773E-02   0.244E-03 0.242E-03 0.471E-03   0.335E-06 0.163E-06 0.150E-06
 -----------------------------------------------------------------------------------------------
   0.575E-04 0.282E-04 0.447E-04   0.157E-12 -.430E-12 -.923E-13   -.582E-04 -.286E-04 -.435E-04   0.593E-07 0.546E-07 -.573E-07
 
 
 POSITION                                       TOTAL-FORCE (eV/Angst)
 -----------------------------------------------------------------------------------
      1.36715      1.36715      1.35715        -0.004909     -0.000944      0.129371
      0.00000      0.00000      0.00000        -0.018480     -0.020990     -0.033335
      1.37715      4.10144      4.10144        -0.129374     -0.002029     -0.001564
      0.00000      2.73429      2.73429         0.052515      0.000014     -0.012622
      1.36715      6.83573      6.83573        -0.004915      0.000578      0.000804
      0.00000      5.46858      5.46858         0.032091     -0.020147     -0.020159
      1.36715      9.57002      9.57002        -0.002631     -0.002037     -0.001584
      0.00000      8.20287      8.20287         0.002508      0.000276      0.000264
      4.10144      1.36715      4.10144        -0.000433     -0.001086     -0.000609
      2.73429      0.00000      2.73429        -0.020202      0.020296     -0.032895
      4.10144      4.10144      6.83573         0.001376     -0.001169      0.001986
      2.73429      2.73429      5.46858         0.033203     -0.020179      0.020597
      4.10144      6.83573      9.57002        -0.000165     -0.000419      0.000046
      2.73429      5.46858      8.20287        -0.000094      0.000418     -0.000399
      4.10144      9.57002     12.30431         0.001051     -0.001098      0.005185
      2.73429      8.20287     10.93716         0.000261      0.000502      0.000094
      6.83573      1.36715      6.83573        -0.000326     -0.000149      0.000008
      5.46858      0.00000      5.46858         0.000016     -0.000671     -0.000680
      6.83573      4.10144      9.57002        -0.000008     -0.000272      0.000266
      5.46858      2.73429      8.20287         0.000291      0.000631      0.000142
      6.83573      6.83573     12.30431         0.000047     -0.000208      0.001878
      5.46858      5.46858     10.93716         0.000213      0.000315     -0.000003
      6.83573      9.57002     15.03860        -0.000068     -0.000642     -0.000103
      5.46858      8.20287     13.67145         0.000528     -0.000393     -0.002194
      9.57002      1.36715      9.57002        -0.001929     -0.001230     -0.001376
      8.20287      0.00000      8.20287        -0.000447      0.000859     -0.000595
      9.57002      4.10144     12.30431         0.000622      0.001896      0.006930
      8.20287      2.73429     10.93716         0.000550     -0.000133      0.000449
      9.57002      6.83573     15.03860         0.001299     -0.002226     -0.001054
      8.20287      5.46858     13.67145        -0.000551      0.000817     -0.002380
      9.57002      9.57002     17.77289        -0.000045     -0.000359      0.000225
      8.20287      8.20287     16.40574         0.000594      0.000190      0.000723
      4.10144      4.10144      1.36715         0.000621     -0.000005      0.002884
      2.73429      2.73429      0.00000         0.020269      0.020182     -0.032516
      4.10144      6.83573      4.10144         0.001856      0.001884     -0.001064
      2.73429      5.46858      2.73429         0.032517      0.020862     -0.020274
      4.10144      9.57002      6.83573         0.000312     -0.000059     -0.000317
      2.73429      8.20287      5.46858        -0.000411     -0.000264      0.000283
      4.10144     12.30431      9.57002         0.002140      0.001234     -0.001734
      2.73429     10.93716      8.20287        -0.000418      0.000183      0.000234
      6.83573      4.10144      4.10144         0.000016      0.000271     -0.000104
      5.46858      2.73429      2.73429         0.000264     -0.000002      0.000591
      6.83573      6.83573      6.83573         0.000047      0.000209      0.000104
      5.46858      5.46858      5.46858        -0.000095     -0.000360     -0.000242
      6.83573      9.57002      9.57002         0.000253      0.000270     -0.000103
      5.46858      8.20287      8.20287        -0.000081      0.000000      0.000118
      6.83573     12.30431     12.30431         0.000047     -0.000208     -0.000461
      5.46858     10.93716     10.93716        -0.000443     -0.000356      0.000233
      9.57002      4.10144      6.83573        -0.000114      0.000221     -0.000046
      8.20287      2.73429      5.46858         0.000015     -0.000181     -0.000033
      9.57002      6.83573      9.57002         0.000375      0.000421      0.000047
      8.20287      5.46858      8.20287         0.000036     -0.000141      0.000019
      9.57002      9.57002     12.30431         0.000092     -0.000162     -0.000399
      8.20287      8.20287     10.93716        -0.000256     -0.000176      0.000096
      9.57002     12.30431     15.03860         0.000093      0.000011     -0.000107
      8.20287     10.93716     13.67145         0.000033      0.000087      0.000315
     12.30431      4.10144      9.57002         0.001214      0.002034     -0.001584
     10.93716      2.73429      8.20287         0.000185     -0.000333      0.000099
     12.30431      6.83573     12.30431        -0.004921     -0.000964      0.000713
     10.93716      5.46858     10.93716        -0.000588     -0.000688     -0.000089
     12.30431      9.57002     15.03860         0.000264     -0.000001     -0.000095
     10.93716      8.20287     13.67145        -0.000243      0.000318      0.000499
     12.30431     12.30431     17.77289         0.000126     -0.000012     -0.000155
     10.93716     10.93716     16.40574        -0.000178     -0.000044      0.000058
      6.83573      6.83573      1.36715         0.000045      0.000151      0.001532
      5.46858      5.46858      0.00000        -0.000264     -0.000949     -0.002251
      6.83573      9.57002      4.10144         0.000291      0.000097     -0.000107
      5.46858      8.20287      2.73429         0.000051      0.000356      0.000552
      6.83573     12.30431      6.83573         0.000417      0.000210     -0.000350
      5.46858     10.93716      5.46858        -0.000024      0.000078      0.000103
      6.83573     15.03860      9.57002         0.000349     -0.000271     -0.000475
      5.46858     13.67145      8.20287         0.000253     -0.000632     -0.000130
      9.57002      6.83573      4.10144        -0.000178      0.000151     -0.000092
      8.20287      5.46858      2.73429         0.000094     -0.000137      0.000056
      9.57002      9.57002      6.83573         0.000313      0.000358      0.000226
      8.20287      8.20287      5.46858         0.000074     -0.000061     -0.000060
      9.57002     12.30431      9.57002         0.000106     -0.000260     -0.000244
      8.20287     10.93716      8.20287        -0.000179     -0.000139     -0.000074
      9.57002     15.03860     12.30431         0.000107     -0.000025     -0.000128
      8.20287     13.67145     10.93716         0.000077      0.000167      0.000235
     12.30431      6.83573      6.83573         0.000128      0.000359     -0.000154
     10.93716      5.46858      5.46858         0.000053     -0.000104     -0.000079
     12.30431      9.57002      9.57002        -0.001668      0.000001     -0.000094
     10.93716      8.20287      8.20287        -0.000236     -0.000239     -0.000214
     12.30431     12.30431     12.30431         0.000127      0.000012     -0.000101
     10.93716     10.93716     10.93716        -0.000102      0.000135      0.000265
     12.30431     15.03860     15.03860         0.000101      0.000001     -0.000095
     10.93716     13.67145     13.67145        -0.000082      0.000000      0.000130
     15.03860      6.83573      9.57002        -0.000168     -0.000064     -0.000312
     13.67145      5.46858      8.20287        -0.000630      0.000205     -0.000232
     15.03860      9.57002     12.30431         0.000092      0.000220      0.000145
     13.67145      8.20287     10.93716         0.002062     -0.000452      0.000630
     15.03860     12.30431     15.03860         0.000095     -0.000011     -0.000107
     13.67145     10.93716     13.67145        -0.000179      0.000046      0.000098
     15.03860     15.03860     17.77289         0.000244      0.000162     -0.000047
     13.67145     13.67145     16.40574        -0.000083     -0.000002      0.000089
      9.57002      9.57002      1.36715         0.001071      0.001174      0.004652
      8.20287      8.20287      0.00000         0.000225      0.000089     -0.001670
      9.57002     12.30431      4.10144         0.003583      0.001060     -0.000619
      8.20287     10.93716      2.73429        -0.000135      0.000538     -0.000223
      9.57002     15.03860      6.83573         0.001721     -0.001101     -0.002065
      8.20287     13.67145      5.46858         0.000120      0.000131      0.000135
      9.57002     17.77289      9.57002         0.000376      0.000063     -0.000313
      8.20287     16.40574      8.20287        -0.000179      0.000858      0.000054
     12.30431      9.57002      4.10144        -0.000698      0.002018     -0.001571
     10.93716      8.20287      2.73429         0.000188     -0.000319      0.000257
     12.30431     12.30431      6.83573        -0.004921      0.000965     -0.001130
     10.93716     10.93716      5.46858        -0.000592     -0.000683     -0.000267
     12.30431     15.03860      9.57002         0.000240     -0.000002     -0.000094
     10.93716     13.67145      8.20287        -0.000228      0.000322      0.000404
     12.30431     17.77289     12.30431         0.000126      0.000012     -0.000265
     10.93716     16.40574     10.93716        -0.000164     -0.000029      0.000134
     15.03860      9.57002      6.83573        -0.000046     -0.000058     -0.000320
     13.67145      8.20287      5.46858         0.000317      0.000174     -0.000199
     15.03860     12.30431      9.57002         0.000102      0.000259      0.000114
     13.67145     10.93716      8.20287         0.002032      0.000496     -0.000410
     15.03860     15.03860     12.30431         0.000106      0.000000     -0.000125
     13.67145     13.67145     10.93716        -0.000131      0.000016      0.000128
     15.03860     17.77289     15.03860         0.000365      0.000207     -0.000092
     13.67145     16.40574     13.67145        -0.000113      0.000046      0.000132
     17.77289      9.57002      9.57002        -0.000104      0.000272     -0.000104
     16.40574      8.20287      8.20287         0.000134     -0.000000      0.000636
     17.77289     12.30431     12.30431         0.000047      0.000150     -0.000103
     16.40574     10.93716     10.93716        -0.000272     -0.000393     -0.000230
     17.77289     15.03860     15.03860         0.000374      0.000271     -0.000104
     16.40574     13.67145     13.67145        -0.000042      0.000015      0.000178
     17.77289     17.77289     17.77289         0.000048     -0.000149     -0.000253
     16.40574     16.40574     16.40574        -0.000451     -0.000409      0.000229
 -----------------------------------------------------------------------------------
    total drift:                               -0.000001     -0.000000      0.000001


--------------------------------------------------------------------------------------------------------



  FREE ENERGIE OF THE ION-ELECTRON SYSTEM (eV)
  ---------------------------------------------------
  free  energy   TOTEN  =      -682.56820592 eV

  energy  without entropy=     -682.56820592  energy(sigma->0) =     -682.56820592
 


--------------------------------------------------------------------------------------------------------


    POTLOK:  cpu time    0.5077: real time    0.5089


--------------------------------------------------------------------------------------------------------


     LOOP+:  cpu time  122.4781: real time  122.8478
    4ORBIT:  cpu time    0.0000: real time    0.0000

 total amount of memory used by VASP MPI-rank0   118934. kBytes
=======================================================================

   base      :      30000. kBytes
   nonl-proj :       7011. kBytes
   fftplans  :      53058. kBytes
   grid      :      20148. kBytes
   one-center:         21. kBytes
   wavefun   :       8696. kBytes
 
  
  
 General timing and accounting informations for this job:
 ========================================================
  
                  Total CPU time used (sec):      130.262
                            User time (sec):      127.656
                          System time (sec):        2.607
                         Elapsed time (sec):      130.738
  
                   Maximum memory used (kb):      241488.
                   Average memory used (kb):           0.
  
                          Minor page faults:       155669
                          Major page faults:            0
                 Voluntary context switches:          421
