<?xml version="1.0" encoding="ISO-8859-1"?>
<modeling>
 <generator>
  <i name="program" type="string">vasp </i>
  <i name="version" type="string">5.4.4.18Apr17-6-g9f103f2a35  </i>
  <i name="subversion" type="string">(build Aug 16 2020 16:33:06) complex            parallel </i>
  <i name="platform" type="string">LinuxIFC </i>
  <i name="date" type="string">2026 08 15 </i>
  <i name="time" type="string">15:13:55 </i>
 </generator>
 <incar>
  <i type="string" name="PREC">accurate</i>
  <i type="logical" name="ADDGRID"> T  </i>
  <i type="int" name="IBRION">    -1</i>
  <i name="EDIFF">      0.00000001</i>
  <i type="int" name="ISYM">     0</i>
  <i name="ENCUT">    500.00000000</i>
  <i type="logical" name="LREAL"> F  </i>
  <i type="int" name="ISMEAR">     0</i>
  <i name="SIGMA">      0.05000000</i>
  <i type="logical" name="LWAVE"> F  </i>
  <i type="logical" name="LCHARG"> F  </i>
  <v type="int" name="KPOINT_BSE">    -1     0     0     0</v>
 </incar>
 <structure name="primitive_cell" >
  <crystal>
   <varray name="basis" >
    <v>       0.00000000      10.93716070      10.93716070 </v>
    <v>      10.93716070       0.00000000      10.93716070 </v>
    <v>      10.93716070      10.93716070       0.00000000 </v>
   </varray>
   <i name="volume">   2616.63878844 </i>
   <varray name="rec_basis" >
    <v>      -0.04571570       0.04571570       0.04571570 </v>
    <v>       0.04571570      -0.04571570       0.04571570 </v>
    <v>       0.04571570       0.04571570      -0.04571570 </v>
   </varray>
  </crystal>
  <varray name="positions" >
   <v>       0.06204284       0.06295716       0.06204284 </v>
   <v>      -0.00045716       0.00045716       0.00045716 </v>
   <v>       0.00000000       0.25000000       0.00000000 </v>
   <v>       0.25000000       0.00000000       0.00000000 </v>
   <v>       0.00000000       0.00000000       0.25000000 </v>
   <v>      -0.18750000       0.06250000       0.06250000 </v>
   <v>      -0.18750000       0.31250000       0.06250000 </v>
   <v>       0.06250000       0.06250000      -0.18750000 </v>
   <v>       0.06250000       0.31250000      -0.18750000 </v>
   <v>       0.06250000       0.31250000       0.06250000 </v>
   <v>       0.06250000      -0.18750000       0.06250000 </v>
   <v>      -0.18750000       0.06250000       0.31250000 </v>
   <v>       0.31250000       0.06250000      -0.18750000 </v>
   <v>       0.31250000       0.06250000       0.06250000 </v>
   <v>       0.31250000      -0.18750000       0.06250000 </v>
   <v>       0.06250000       0.06250000       0.31250000 </v>
   <v>       0.06250000      -0.18750000       0.31250000 </v>
   <v>      -0.25000000       0.25000000       0.00000000 </v>
   <v>       0.00000000       0.25000000      -0.25000000 </v>
   <v>      -0.25000000       0.00000000       0.25000000 </v>
   <v>      -0.25000000       0.25000000       0.25000000 </v>
   <v>       0.25000000       0.00000000      -0.25000000 </v>
   <v>       0.25000000       0.25000000      -0.25000000 </v>
   <v>       0.25000000       0.25000000       0.00000000 </v>
   <v>       0.00000000       0.25000000       0.25000000 </v>
   <v>       0.25000000      -0.25000000       0.00000000 </v>
   <v>       0.00000000      -0.25000000       0.25000000 </v>
   <v>       0.25000000       0.00000000       0.25000000 </v>
   <v>       0.25000000      -0.25000000       0.25000000 </v>
   <v>      -0.18750000       0.31250000      -0.18750000 </v>
   <v>      -0.18750000       0.31250000       0.31250000 </v>
   <v>      -0.18750000      -0.18750000       0.31250000 </v>
   <v>       0.31250000       0.31250000      -0.18750000 </v>
   <v>       0.31250000      -0.18750000      -0.18750000 </v>
   <v>       0.31250000      -0.18750000       0.31250000 </v>
   <v>      -0.25000000       0.00000000       0.00000000 </v>
   <v>      -0.25000000      -0.50000000       0.00000000 </v>
   <v>       0.00000000       0.00000000      -0.25000000 </v>
   <v>       0.00000000      -0.50000000      -0.25000000 </v>
   <v>       0.00000000      -0.50000000       0.00000000 </v>
   <v>       0.00000000      -0.25000000       0.00000000 </v>
   <v>      -0.25000000       0.00000000      -0.50000000 </v>
   <v>      -0.50000000       0.00000000      -0.25000000 </v>
   <v>      -0.50000000       0.00000000       0.00000000 </v>
   <v>       0.00000000       0.00000000      -0.50000000 </v>
   <v>      -0.50000000      -0.25000000       0.00000000 </v>
   <v>       0.00000000      -0.25000000      -0.50000000 </v>
   <v>      -0.43750000       0.31250000       0.06250000 </v>
   <v>       0.06250000       0.31250000      -0.43750000 </v>
   <v>      -0.18750000       0.06250000      -0.18750000 </v>
   <v>      -0.18750000      -0.43750000      -0.18750000 </v>
   <v>      -0.18750000      -0.43750000       0.06250000 </v>
   <v>      -0.43750000       0.31250000       0.31250000 </v>
   <v>       0.31250000       0.06250000      -0.43750000 </v>
   <v>       0.06250000      -0.18750000      -0.18750000 </v>
   <v>      -0.18750000      -0.18750000       0.06250000 </v>
   <v>      -0.43750000       0.06250000       0.31250000 </v>
   <v>       0.31250000       0.31250000      -0.43750000 </v>
   <v>       0.06250000      -0.43750000      -0.18750000 </v>
   <v>       0.31250000       0.31250000       0.06250000 </v>
   <v>       0.31250000      -0.43750000       0.06250000 </v>
   <v>       0.06250000       0.31250000       0.31250000 </v>
   <v>       0.06250000      -0.43750000       0.31250000 </v>
   <v>      -0.18750000       0.06250000      -0.43750000 </v>
   <v>      -0.18750000      -0.18750000      -0.43750000 </v>
   <v>      -0.43750000       0.06250000      -0.18750000 </v>
   <v>      -0.43750000      -0.18750000      -0.18750000 </v>
   <v>      -0.43750000      -0.18750000       0.06250000 </v>
   <v>       0.31250000       0.06250000       0.31250000 </v>
   <v>       0.31250000      -0.43750000       0.31250000 </v>
   <v>       0.06250000      -0.18750000      -0.43750000 </v>
   <v>      -0.25000000       0.25000000      -0.25000000 </v>
   <v>      -0.25000000      -0.50000000      -0.25000000 </v>
   <v>      -0.50000000       0.25000000       0.25000000 </v>
   <v>       0.25000000       0.25000000      -0.50000000 </v>
   <v>      -0.25000000      -0.50000000       0.25000000 </v>
   <v>       0.25000000      -0.50000000      -0.25000000 </v>
   <v>      -0.25000000      -0.25000000       0.25000000 </v>
   <v>       0.25000000      -0.25000000      -0.25000000 </v>
   <v>      -0.25000000       0.25000000      -0.50000000 </v>
   <v>      -0.50000000       0.25000000      -0.25000000 </v>
   <v>      -0.25000000      -0.25000000      -0.50000000 </v>
   <v>      -0.50000000      -0.25000000      -0.25000000 </v>
   <v>       0.25000000       0.25000000       0.25000000 </v>
   <v>       0.25000000      -0.50000000       0.25000000 </v>
   <v>      -0.50000000      -0.25000000       0.25000000 </v>
   <v>       0.25000000      -0.25000000      -0.50000000 </v>
   <v>      -0.43750000       0.06250000       0.06250000 </v>
   <v>      -0.43750000      -0.43750000       0.06250000 </v>
   <v>       0.06250000       0.06250000      -0.43750000 </v>
   <v>       0.06250000      -0.43750000      -0.43750000 </v>
   <v>       0.06250000      -0.43750000       0.06250000 </v>
   <v>      -0.43750000       0.06250000      -0.43750000 </v>
   <v>      -0.50000000      -0.50000000       0.00000000 </v>
   <v>      -0.50000000       0.25000000       0.00000000 </v>
   <v>       0.00000000       0.25000000      -0.50000000 </v>
   <v>       0.00000000      -0.50000000      -0.50000000 </v>
   <v>      -0.50000000      -0.50000000       0.25000000 </v>
   <v>      -0.50000000       0.00000000       0.25000000 </v>
   <v>       0.25000000       0.00000000      -0.50000000 </v>
   <v>       0.25000000      -0.50000000      -0.50000000 </v>
   <v>      -0.50000000       0.00000000      -0.50000000 </v>
   <v>      -0.50000000       0.25000000      -0.50000000 </v>
   <v>       0.25000000      -0.50000000       0.00000000 </v>
   <v>       0.00000000      -0.50000000       0.25000000 </v>
   <v>      -0.18750000       0.31250000      -0.43750000 </v>
   <v>      -0.18750000      -0.43750000      -0.43750000 </v>
   <v>      -0.43750000       0.31250000      -0.18750000 </v>
   <v>      -0.43750000      -0.43750000      -0.18750000 </v>
   <v>      -0.43750000      -0.43750000       0.31250000 </v>
   <v>      -0.43750000      -0.18750000       0.31250000 </v>
   <v>       0.31250000      -0.43750000      -0.43750000 </v>
   <v>       0.31250000      -0.18750000      -0.43750000 </v>
   <v>      -0.18750000      -0.43750000       0.31250000 </v>
   <v>      -0.43750000       0.31250000      -0.43750000 </v>
   <v>      -0.43750000      -0.18750000      -0.43750000 </v>
   <v>       0.31250000      -0.43750000      -0.18750000 </v>
   <v>      -0.25000000       0.00000000      -0.25000000 </v>
   <v>      -0.25000000      -0.25000000      -0.25000000 </v>
   <v>      -0.25000000      -0.25000000       0.00000000 </v>
   <v>       0.00000000      -0.25000000      -0.25000000 </v>
   <v>      -0.18750000      -0.18750000      -0.18750000 </v>
   <v>       0.31250000       0.31250000       0.31250000 </v>
   <v>      -0.25000000      -0.50000000      -0.50000000 </v>
   <v>      -0.50000000      -0.50000000      -0.25000000 </v>
   <v>      -0.50000000      -0.25000000      -0.50000000 </v>
   <v>      -0.50000000      -0.50000000      -0.50000000 </v>
   <v>      -0.43750000      -0.43750000      -0.43750000 </v>
  </varray>
 </structure>
 <varray name="primitive_index" >
  <v type="int" >        1 </v>
  <v type="int" >       65 </v>
  <v type="int" >       69 </v>
  <v type="int" >       66 </v>
  <v type="int" >       81 </v>
  <v type="int" >        4 </v>
  <v type="int" >        8 </v>
  <v type="int" >       49 </v>
  <v type="int" >       53 </v>
  <v type="int" >        5 </v>
  <v type="int" >       13 </v>
  <v type="int" >       20 </v>
  <v type="int" >       50 </v>
  <v type="int" >        2 </v>
  <v type="int" >       14 </v>
  <v type="int" >       17 </v>
  <v type="int" >       29 </v>
  <v type="int" >       72 </v>
  <v type="int" >      117 </v>
  <v type="int" >       84 </v>
  <v type="int" >       88 </v>
  <v type="int" >      114 </v>
  <v type="int" >      118 </v>
  <v type="int" >       70 </v>
  <v type="int" >       85 </v>
  <v type="int" >       78 </v>
  <v type="int" >       93 </v>
  <v type="int" >       82 </v>
  <v type="int" >       94 </v>
  <v type="int" >       56 </v>
  <v type="int" >       24 </v>
  <v type="int" >       32 </v>
  <v type="int" >       54 </v>
  <v type="int" >       62 </v>
  <v type="int" >       30 </v>
  <v type="int" >       68 </v>
  <v type="int" >       76 </v>
  <v type="int" >      113 </v>
  <v type="int" >      121 </v>
  <v type="int" >       73 </v>
  <v type="int" >       77 </v>
  <v type="int" >      100 </v>
  <v type="int" >      115 </v>
  <v type="int" >       67 </v>
  <v type="int" >       97 </v>
  <v type="int" >       79 </v>
  <v type="int" >      109 </v>
  <v type="int" >        7 </v>
  <v type="int" >       37 </v>
  <v type="int" >       52 </v>
  <v type="int" >       60 </v>
  <v type="int" >       12 </v>
  <v type="int" >       23 </v>
  <v type="int" >       34 </v>
  <v type="int" >       61 </v>
  <v type="int" >       16 </v>
  <v type="int" >       19 </v>
  <v type="int" >       38 </v>
  <v type="int" >       57 </v>
  <v type="int" >        6 </v>
  <v type="int" >       10 </v>
  <v type="int" >       21 </v>
  <v type="int" >       25 </v>
  <v type="int" >       36 </v>
  <v type="int" >       48 </v>
  <v type="int" >       51 </v>
  <v type="int" >       63 </v>
  <v type="int" >       15 </v>
  <v type="int" >       18 </v>
  <v type="int" >       26 </v>
  <v type="int" >       45 </v>
  <v type="int" >      120 </v>
  <v type="int" >      124 </v>
  <v type="int" >       87 </v>
  <v type="int" >      102 </v>
  <v type="int" >       92 </v>
  <v type="int" >      122 </v>
  <v type="int" >       96 </v>
  <v type="int" >      126 </v>
  <v type="int" >      104 </v>
  <v type="int" >      119 </v>
  <v type="int" >      112 </v>
  <v type="int" >      127 </v>
  <v type="int" >       86 </v>
  <v type="int" >       90 </v>
  <v type="int" >       95 </v>
  <v type="int" >      110 </v>
  <v type="int" >        3 </v>
  <v type="int" >       11 </v>
  <v type="int" >       33 </v>
  <v type="int" >       41 </v>
  <v type="int" >        9 </v>
  <v type="int" >       35 </v>
  <v type="int" >       75 </v>
  <v type="int" >       71 </v>
  <v type="int" >      101 </v>
  <v type="int" >      105 </v>
  <v type="int" >       91 </v>
  <v type="int" >       83 </v>
  <v type="int" >       98 </v>
  <v type="int" >      106 </v>
  <v type="int" >       99 </v>
  <v type="int" >      103 </v>
  <v type="int" >       74 </v>
  <v type="int" >       89 </v>
  <v type="int" >       40 </v>
  <v type="int" >       44 </v>
  <v type="int" >       55 </v>
  <v type="int" >       59 </v>
  <v type="int" >       27 </v>
  <v type="int" >       31 </v>
  <v type="int" >       42 </v>
  <v type="int" >       46 </v>
  <v type="int" >       28 </v>
  <v type="int" >       39 </v>
  <v type="int" >       47 </v>
  <v type="int" >       58 </v>
  <v type="int" >      116 </v>
  <v type="int" >      128 </v>
  <v type="int" >       80 </v>
  <v type="int" >      125 </v>
  <v type="int" >       64 </v>
  <v type="int" >       22 </v>
  <v type="int" >      108 </v>
  <v type="int" >      123 </v>
  <v type="int" >      111 </v>
  <v type="int" >      107 </v>
  <v type="int" >       43 </v>
 </varray>
 <kpoints>
  <generation param="Gamma">
   <v type="int" name="divisions">       1        1        1 </v>
   <v name="usershift">      0.00000000       0.00000000       0.00000000 </v>
   <v name="genvec1">      1.00000000       0.00000000       0.00000000 </v>
   <v name="genvec2">      0.00000000       1.00000000       0.00000000 </v>
   <v name="genvec3">      0.00000000       0.00000000       1.00000000 </v>
   <v name="shift">      0.00000000       0.00000000       0.00000000 </v>
  </generation>
  <varray name="kpointlist" >
   <v>       0.00000000       0.00000000       0.00000000 </v>
  </varray>
  <varray name="weights" >
   <v>       1.00000000 </v>
  </varray>
 </kpoints>
 <parameters>
  <separator name="general" >
   <i type="string" name="SYSTEM">unknown system</i>
   <i type="logical" name="LCOMPAT"> F  </i>
  </separator>
  <separator name="electronic" >
   <i type="string" name="PREC">accura</i>
   <i name="ENMAX">    500.00000000</i>
   <i name="ENAUG">    322.06900000</i>
   <i name="EDIFF">      0.00000001</i>
   <i type="int" name="IALGO">    38</i>
   <i type="int" name="IWAVPR">    10</i>
   <i type="int" name="NBANDS">   322</i>
   <i name="NELECT">    512.00000000</i>
   <i type="int" name="TURBO">     0</i>
   <i type="int" name="IRESTART">     0</i>
   <i type="int" name="NREBOOT">     0</i>
   <i type="int" name="NMIN">     0</i>
   <i name="EREF">      0.00000000</i>
   <separator name="electronic smearing" >
    <i type="int" name="ISMEAR">     0</i>
    <i name="SIGMA">      0.05000000</i>
    <i name="KSPACING">      0.50000000</i>
    <i type="logical" name="KGAMMA"> T  </i>
   </separator>
   <separator name="electronic projectors" >
    <i type="logical" name="LREAL"> F  </i>
    <v name="ROPT">      0.00000000</v>
    <i type="int" name="LMAXPAW">  -100</i>
    <i type="int" name="LMAXMIX">     2</i>
    <i type="logical" name="NLSPLINE"> F  </i>
   </separator>
   <separator name="electronic startup" >
    <i type="int" name="ISTART">     0</i>
    <i type="int" name="ICHARG">     2</i>
    <i type="int" name="INIWAV">     1</i>
   </separator>
   <separator name="electronic spin" >
    <i type="int" name="ISPIN">     1</i>
    <i type="logical" name="LNONCOLLINEAR"> F  </i>
    <v name="MAGMOM">      1.00000000      1.00000000      1.00000000      1.00000000      1.00000000      1.00000000      1.00000000      1.00000000      1.00000000      1.00000000      1.00000000      1.00000000      1.00000000      1.00000000      1.00000000      1.00000000      1.00000000      1.00000000      1.00000000      1.00000000
      1.00000000      1.00000000      1.00000000      1.00000000      1.00000000      1.00000000      1.00000000      1.00000000      1.00000000      1.00000000      1.00000000      1.00000000      1.00000000      1.00000000      1.00000000      1.00000000      1.00000000      1.00000000      1.00000000      1.00000000
      1.00000000      1.00000000      1.00000000      1.00000000      1.00000000      1.00000000      1.00000000      1.00000000      1.00000000      1.00000000      1.00000000      1.00000000      1.00000000      1.00000000      1.00000000      1.00000000      1.00000000      1.00000000      1.00000000      1.00000000
      1.00000000      1.00000000      1.00000000      1.00000000      1.00000000      1.00000000      1.00000000      1.00000000      1.00000000      1.00000000      1.00000000      1.00000000      1.00000000      1.00000000      1.00000000      1.00000000      1.00000000      1.00000000      1.00000000      1.00000000
      1.00000000      1.00000000      1.00000000      1.00000000      1.00000000      1.00000000      1.00000000      1.00000000      1.00000000      1.00000000      1.00000000      1.00000000      1.00000000      1.00000000      1.00000000      1.00000000      1.00000000      1.00000000      1.00000000      1.00000000
      1.00000000      1.00000000      1.00000000      1.00000000      1.00000000      1.00000000      1.00000000      1.00000000      1.00000000      1.00000000      1.00000000      1.00000000      1.00000000      1.00000000      1.00000000      1.00000000      1.00000000      1.00000000      1.00000000      1.00000000
      1.00000000      1.00000000      1.00000000      1.00000000      1.00000000      1.00000000      1.00000000      1.00000000</v>
    <i name="NUPDOWN">     -1.00000000</i>
    <i type="logical" name="LSORBIT"> F  </i>
    <v name="SAXIS">      0.00000000      0.00000000      1.00000000</v>
    <i type="logical" name="LSPIRAL"> F  </i>
    <v name="QSPIRAL">      0.00000000      0.00000000      0.00000000</v>
    <i type="logical" name="LZEROZ"> F  </i>
   </separator>
   <separator name="electronic exchange-correlation" >
    <i type="logical" name="LASPH"> F  </i>
    <i type="logical" name="LMETAGGA"> F  </i>
   </separator>
   <separator name="electronic convergence" >
    <i type="int" name="NELM">    60</i>
    <i type="int" name="NELMDL">    -5</i>
    <i type="int" name="NELMIN">     2</i>
    <i name="ENINI">    500.00000000</i>
    <separator name="electronic convergence detail" >
     <i type="logical" name="LDIAG"> T  </i>
     <i type="logical" name="LSUBROT"> F  </i>
     <i name="WEIMIN">      0.00000000</i>
     <i name="EBREAK">      0.00000000</i>
     <i name="DEPER">      0.30000000</i>
     <i type="int" name="NRMM">     4</i>
     <i name="TIME">      0.40000000</i>
    </separator>
   </separator>
   <separator name="electronic mixer" >
    <i name="AMIX">      0.40000000</i>
    <i name="BMIX">      1.00000000</i>
    <i name="AMIN">      0.10000000</i>
    <i name="AMIX_MAG">      1.60000000</i>
    <i name="BMIX_MAG">      1.00000000</i>
    <separator name="electronic mixer details" >
     <i type="int" name="IMIX">     4</i>
     <i type="logical" name="MIXFIRST"> F  </i>
     <i type="int" name="MAXMIX">   -45</i>
     <i name="WC">    100.00000000</i>
     <i type="int" name="INIMIX">     1</i>
     <i type="int" name="MIXPRE">     1</i>
     <i type="int" name="MREMOVE">     5</i>
    </separator>
   </separator>
   <separator name="electronic dipolcorrection" >
    <i type="logical" name="LDIPOL"> F  </i>
    <i type="logical" name="LMONO"> F  </i>
    <i type="int" name="IDIPOL">     0</i>
    <i name="EPSILON">      1.00000000</i>
    <v name="DIPOL">   -100.00000000   -100.00000000   -100.00000000</v>
    <i name="EFIELD">      0.00000000</i>
   </separator>
  </separator>
  <separator name="grids" >
   <i type="int" name="NGX">   120</i>
   <i type="int" name="NGY">   120</i>
   <i type="int" name="NGZ">   120</i>
   <i type="int" name="NGXF">   240</i>
   <i type="int" name="NGYF">   240</i>
   <i type="int" name="NGZF">   240</i>
   <i type="logical" name="ADDGRID"> T  </i>
  </separator>
  <separator name="ionic" >
   <i type="int" name="NSW">     0</i>
   <i type="int" name="IBRION">    -1</i>
   <i type="int" name="MDALGO">     0</i>
   <i type="int" name="ISIF">     2</i>
   <i name="PSTRESS">      0.00000000</i>
   <i name="EDIFFG">      0.00000010</i>
   <i type="int" name="NFREE">     0</i>
   <i name="POTIM">      0.50000000</i>
   <i name="SMASS">     -3.00000000</i>
   <i name="SCALEE">      1.00000000</i>
  </separator>
  <separator name="ionic md" >
   <i name="TEBEG">      0.00010000</i>
   <i name="TEEND">      0.00010000</i>
   <i type="int" name="NBLOCK">     1</i>
   <i type="int" name="KBLOCK">     1</i>
   <i type="int" name="NPACO">   256</i>
   <i name="APACO">     16.00000000</i>
  </separator>
  <separator name="symmetry" >
   <i type="int" name="ISYM">     0</i>
   <i name="SYMPREC">      0.00001000</i>
  </separator>
  <separator name="dos" >
   <i type="int" name="LORBIT">     0</i>
   <v name="RWIGS">     -1.00000000</v>
   <i type="int" name="NEDOS">   301</i>
   <i name="EMIN">     10.00000000</i>
   <i name="EMAX">    -10.00000000</i>
   <i name="EFERMI">      0.00000000</i>
  </separator>
  <separator name="writing" >
   <i type="int" name="NWRITE">     2</i>
   <i type="logical" name="LWAVE"> F  </i>
   <i type="logical" name="LDOWNSAMPLE"> F  </i>
   <i type="logical" name="LCHARG"> F  </i>
   <i type="logical" name="LPARD"> F  </i>
   <i type="logical" name="LVTOT"> F  </i>
   <i type="logical" name="LVHAR"> F  </i>
   <i type="logical" name="LELF"> F  </i>
   <i type="logical" name="LOPTICS"> F  </i>
   <v name="STM">      0.00000000      0.00000000      0.00000000      0.00000000      0.00000000      0.00000000      0.00000000</v>
  </separator>
  <separator name="performance" >
   <i type="int" name="NPAR">     2</i>
   <i type="int" name="NSIM">     4</i>
   <i type="int" name="NBLK">    -1</i>
   <i type="logical" name="LPLANE"> T  </i>
   <i type="logical" name="LSCALAPACK"> T  </i>
   <i type="logical" name="LSCAAWARE"> F  </i>
   <i type="logical" name="LSCALU"> F  </i>
   <i type="logical" name="LASYNC"> F  </i>
   <i type="logical" name="LORBITALREAL"> F  </i>
  </separator>
  <separator name="miscellaneous" >
   <i type="int" name="IDIOT">     3</i>
   <i type="int" name="ISPECIAL">     0</i>
   <i type="logical" name="LMUSIC"> F  </i>
   <v name="POMASS">     28.08500000</v>
   <v name="DARWINR">      0.00000000</v>
   <v name="DARWINV">      1.00000000</v>
   <i type="logical" name="LCORR"> T  </i>
  </separator>
  <i type="logical" name="GGA_COMPAT"> T  </i>
  <i type="logical" name="LBERRY"> F  </i>
  <i type="int" name="ICORELEVEL">     0</i>
  <i type="logical" name="LDAU"> F  </i>
  <i type="int" name="I_CONSTRAINED_M">     0</i>
  <separator name="electronic exchange-correlation" >
   <i type="string" name="GGA">--</i>
   <i type="int" name="VOSKOWN">     0</i>
   <i type="logical" name="LHFCALC"> F  </i>
   <i type="string" name="PRECFOCK"></i>
   <i type="logical" name="LSYMGRAD"> F  </i>
   <i type="logical" name="LHFONE"> F  </i>
   <i type="logical" name="LRHFCALC"> F  </i>
   <i type="logical" name="LTHOMAS"> F  </i>
   <i type="logical" name="LMODELHF"> F  </i>
   <i name="ENCUT4O">     -1.00000000</i>
   <i type="int" name="EXXOEP">     0</i>
   <i type="int" name="FOURORBIT">     0</i>
   <i name="AEXX">      0.00000000</i>
   <i name="HFALPHA">      0.00000000</i>
   <i name="MCALPHA">      0.00000000</i>
   <i name="ALDAX">      1.00000000</i>
   <i name="AGGAX">      1.00000000</i>
   <i name="ALDAC">      1.00000000</i>
   <i name="AGGAC">      1.00000000</i>
   <i type="int" name="NKREDX">     1</i>
   <i type="int" name="NKREDY">     1</i>
   <i type="int" name="NKREDZ">     1</i>
   <i type="logical" name="SHIFTRED"> F  </i>
   <i type="logical" name="ODDONLY"> F  </i>
   <i type="logical" name="EVENONLY"> F  </i>
   <i type="int" name="LMAXFOCK">     0</i>
   <i type="int" name="NMAXFOCKAE">     0</i>
   <i type="logical" name="LFOCKAEDFT"> F  </i>
   <i name="HFSCREEN">      0.00000000</i>
   <i name="HFSCREENC">      0.00000000</i>
   <i type="int" name="NBANDSGWLOW">     0</i>
  </separator>
  <separator name="vdW DFT" >
   <i type="logical" name="LUSE_VDW"> F  </i>
   <i name="Zab_VDW">     -0.84910000</i>
   <i name="PARAM1">      0.12340000</i>
   <i name="PARAM2">      1.00000000</i>
   <i name="PARAM3">      0.00000000</i>
  </separator>
  <separator name="model GW" >
   <i type="int" name="MODEL_GW">     0</i>
   <i name="MODEL_EPS0">     12.26549432</i>
   <i name="MODEL_ALPHA">      1.00000000</i>
  </separator>
  <separator name="linear response parameters" >
   <i type="logical" name="LEPSILON"> F  </i>
   <i type="logical" name="LRPA"> F  </i>
   <i type="logical" name="LNABLA"> F  </i>
   <i type="logical" name="LVEL"> F  </i>
   <i type="int" name="KINTER">     0</i>
   <i name="CSHIFT">      0.10000000</i>
   <i name="OMEGAMAX">     -1.00000000</i>
   <i name="DEG_THRESHOLD">      0.00200000</i>
   <i name="RTIME">     -0.10000000</i>
   <i name="WPLASMAI">      0.00000000</i>
   <v name="DFIELD">      0.00000000      0.00000000      0.00000000</v>
   <v name="WPLASMA">      0.00000000      0.00000000      0.00000000      0.00000000      0.00000000      0.00000000      0.00000000      0.00000000      0.00000000</v>
  </separator>
  <separator name="orbital magnetization" >
   <i type="logical" name="NUCIND"> F  </i>
   <v name="MAGPOS">      0.00000000      0.00000000      0.00000000</v>
   <i type="logical" name="LNICSALL"> T  </i>
   <i type="logical" name="ORBITALMAG"> F  </i>
   <i type="logical" name="LMAGBLOCH"> F  </i>
   <i type="logical" name="LCHIMAG"> F  </i>
   <i type="logical" name="LGAUGE"> T  </i>
   <i type="int" name="MAGATOM">     0</i>
   <v name="MAGDIPOL">      0.00000000      0.00000000      0.00000000</v>
   <v name="AVECCONST">      0.00000000      0.00000000      0.00000000</v>
  </separator>
  <separator name="response functions" >
   <i type="logical" name="LADDER"> F  </i>
   <i type="logical" name="LRPAFORCE"> F  </i>
   <i type="logical" name="LFXC"> F  </i>
   <i type="logical" name="LHARTREE"> T  </i>
   <i type="int" name="IBSE">     0</i>
   <v type="int" name="KPOINT">    -1     0     0     0</v>
   <i type="logical" name="LTCTE"> F  </i>
   <i type="logical" name="LTETE"> F  </i>
   <i type="logical" name="LTRIPLET"> F  </i>
   <i type="logical" name="LFXCEPS"> F  </i>
   <i type="logical" name="LFXHEG"> F  </i>
   <i type="int" name="NATURALO">     2</i>
   <i type="logical" name="L2ORDER"> F  </i>
   <i type="logical" name="LMP2LT"> F  </i>
   <i type="logical" name="LUSEW"> F  </i>
   <i name="ENCUTGW">     -2.00000000</i>
   <i name="ENCUTGWSOFT">     -2.00000000</i>
   <i name="ENCUTLF">     -1.00000000</i>
   <i type="int" name="LMAXMP2">    -1</i>
   <i name="SCISSOR">      0.00000000</i>
   <i type="int" name="NOMEGA">     0</i>
   <i type="int" name="NOMEGAR">     0</i>
   <i type="int" name="NBANDSGW">    -1</i>
   <i type="int" name="NBANDSO">    -1</i>
   <i type="int" name="NBANDSV">    -1</i>
   <i type="int" name="NELM">     1</i>
   <i type="int" name="NELMHF">     1</i>
   <i type="int" name="DIM">     3</i>
   <i type="int" name="ANTIRES">     0</i>
   <i name="OMEGAMAX">    -30.00000000</i>
   <i name="OMEGAMIN">    -30.00000000</i>
   <i name="OMEGATL">   -200.00000000</i>
   <i type="int" name="OMEGAGRID">   140</i>
   <i name="CSHIFT">     -0.10000000</i>
   <i type="logical" name="SELFENERGY"> F  </i>
   <i type="logical" name="LSPECTRAL"> F  </i>
   <i type="logical" name="LSPECTRALGW"> F  </i>
   <i type="logical" name="LSINGLES"> F  </i>
   <i type="logical" name="LFERMIGW"> F  </i>
   <i type="logical" name="ODDONLYGW"> F  </i>
   <i type="logical" name="EVENONLYGW"> F  </i>
   <i type="int" name="NKREDLFX">     1</i>
   <i type="int" name="NKREDLFY">     1</i>
   <i type="int" name="NKREDLFZ">     1</i>
   <i type="int" name="MAXMEM">  2800</i>
   <i type="int" name="TELESCOPE">     0</i>
   <i type="int" name="TAUPAR">     1</i>
   <i type="int" name="OMEGAPAR">    -1</i>
   <i name="LAMBDA">      1.00000000</i>
  </separator>
  <separator name="External order field" >
   <i name="OFIELD_KAPPA">      0.00000000</i>
   <v name="OFIELD_K">      0.00000000      0.00000000      0.00000000</v>
   <i name="OFIELD_Q6_NEAR">      0.00000000</i>
   <i name="OFIELD_Q6_FAR">      0.00000000</i>
   <i name="OFIELD_A">      0.00000000</i>
  </separator>
 </parameters>
 <atominfo>
  <atoms>     128 </atoms>
  <types>       1 </types>
  <array name="atoms" >
   <dimension dim="1">ion</dimension>
   <field type="string">element</field>
   <field type="int">atomtype</field>
   <set>
    <rc><c>Si</c><c>   1</c></rc>
    <rc><c>Si</c><c>   1</c></rc>
    <rc><c>Si</c><c>   1</c></rc>
    <rc><c>Si</c><c>   1</c></rc>
    <rc><c>Si</c><c>   1</c></rc>
    <rc><c>Si</c><c>   1</c></rc>
    <rc><c>Si</c><c>   1</c></rc>
    <rc><c>Si</c><c>   1</c></rc>
    <rc><c>Si</c><c>   1</c></rc>
    <rc><c>Si</c><c>   1</c></rc>
    <rc><c>Si</c><c>   1</c></rc>
    <rc><c>Si</c><c>   1</c></rc>
    <rc><c>Si</c><c>   1</c></rc>
    <rc><c>Si</c><c>   1</c></rc>
    <rc><c>Si</c><c>   1</c></rc>
    <rc><c>Si</c><c>   1</c></rc>
    <rc><c>Si</c><c>   1</c></rc>
    <rc><c>Si</c><c>   1</c></rc>
    <rc><c>Si</c><c>   1</c></rc>
    <rc><c>Si</c><c>   1</c></rc>
    <rc><c>Si</c><c>   1</c></rc>
    <rc><c>Si</c><c>   1</c></rc>
    <rc><c>Si</c><c>   1</c></rc>
    <rc><c>Si</c><c>   1</c></rc>
    <rc><c>Si</c><c>   1</c></rc>
    <rc><c>Si</c><c>   1</c></rc>
    <rc><c>Si</c><c>   1</c></rc>
    <rc><c>Si</c><c>   1</c></rc>
    <rc><c>Si</c><c>   1</c></rc>
    <rc><c>Si</c><c>   1</c></rc>
    <rc><c>Si</c><c>   1</c></rc>
    <rc><c>Si</c><c>   1</c></rc>
    <rc><c>Si</c><c>   1</c></rc>
    <rc><c>Si</c><c>   1</c></rc>
    <rc><c>Si</c><c>   1</c></rc>
    <rc><c>Si</c><c>   1</c></rc>
    <rc><c>Si</c><c>   1</c></rc>
    <rc><c>Si</c><c>   1</c></rc>
    <rc><c>Si</c><c>   1</c></rc>
    <rc><c>Si</c><c>   1</c></rc>
    <rc><c>Si</c><c>   1</c></rc>
    <rc><c>Si</c><c>   1</c></rc>
    <rc><c>Si</c><c>   1</c></rc>
    <rc><c>Si</c><c>   1</c></rc>
    <rc><c>Si</c><c>   1</c></rc>
    <rc><c>Si</c><c>   1</c></rc>
    <rc><c>Si</c><c>   1</c></rc>
    <rc><c>Si</c><c>   1</c></rc>
    <rc><c>Si</c><c>   1</c></rc>
    <rc><c>Si</c><c>   1</c></rc>
    <rc><c>Si</c><c>   1</c></rc>
    <rc><c>Si</c><c>   1</c></rc>
    <rc><c>Si</c><c>   1</c></rc>
    <rc><c>Si</c><c>   1</c></rc>
    <rc><c>Si</c><c>   1</c></rc>
    <rc><c>Si</c><c>   1</c></rc>
    <rc><c>Si</c><c>   1</c></rc>
    <rc><c>Si</c><c>   1</c></rc>
    <rc><c>Si</c><c>   1</c></rc>
    <rc><c>Si</c><c>   1</c></rc>
    <rc><c>Si</c><c>   1</c></rc>
    <rc><c>Si</c><c>   1</c></rc>
    <rc><c>Si</c><c>   1</c></rc>
    <rc><c>Si</c><c>   1</c></rc>
    <rc><c>Si</c><c>   1</c></rc>
    <rc><c>Si</c><c>   1</c></rc>
    <rc><c>Si</c><c>   1</c></rc>
    <rc><c>Si</c><c>   1</c></rc>
    <rc><c>Si</c><c>   1</c></rc>
    <rc><c>Si</c><c>   1</c></rc>
    <rc><c>Si</c><c>   1</c></rc>
    <rc><c>Si</c><c>   1</c></rc>
    <rc><c>Si</c><c>   1</c></rc>
    <rc><c>Si</c><c>   1</c></rc>
    <rc><c>Si</c><c>   1</c></rc>
    <rc><c>Si</c><c>   1</c></rc>
    <rc><c>Si</c><c>   1</c></rc>
    <rc><c>Si</c><c>   1</c></rc>
    <rc><c>Si</c><c>   1</c></rc>
    <rc><c>Si</c><c>   1</c></rc>
    <rc><c>Si</c><c>   1</c></rc>
    <rc><c>Si</c><c>   1</c></rc>
    <rc><c>Si</c><c>   1</c></rc>
    <rc><c>Si</c><c>   1</c></rc>
    <rc><c>Si</c><c>   1</c></rc>
    <rc><c>Si</c><c>   1</c></rc>
    <rc><c>Si</c><c>   1</c></rc>
    <rc><c>Si</c><c>   1</c></rc>
    <rc><c>Si</c><c>   1</c></rc>
    <rc><c>Si</c><c>   1</c></rc>
    <rc><c>Si</c><c>   1</c></rc>
    <rc><c>Si</c><c>   1</c></rc>
    <rc><c>Si</c><c>   1</c></rc>
    <rc><c>Si</c><c>   1</c></rc>
    <rc><c>Si</c><c>   1</c></rc>
    <rc><c>Si</c><c>   1</c></rc>
    <rc><c>Si</c><c>   1</c></rc>
    <rc><c>Si</c><c>   1</c></rc>
    <rc><c>Si</c><c>   1</c></rc>
    <rc><c>Si</c><c>   1</c></rc>
    <rc><c>Si</c><c>   1</c></rc>
    <rc><c>Si</c><c>   1</c></rc>
    <rc><c>Si</c><c>   1</c></rc>
    <rc><c>Si</c><c>   1</c></rc>
    <rc><c>Si</c><c>   1</c></rc>
    <rc><c>Si</c><c>   1</c></rc>
    <rc><c>Si</c><c>   1</c></rc>
    <rc><c>Si</c><c>   1</c></rc>
    <rc><c>Si</c><c>   1</c></rc>
    <rc><c>Si</c><c>   1</c></rc>
    <rc><c>Si</c><c>   1</c></rc>
    <rc><c>Si</c><c>   1</c></rc>
    <rc><c>Si</c><c>   1</c></rc>
    <rc><c>Si</c><c>   1</c></rc>
    <rc><c>Si</c><c>   1</c></rc>
    <rc><c>Si</c><c>   1</c></rc>
    <rc><c>Si</c><c>   1</c></rc>
    <rc><c>Si</c><c>   1</c></rc>
    <rc><c>Si</c><c>   1</c></rc>
    <rc><c>Si</c><c>   1</c></rc>
    <rc><c>Si</c><c>   1</c></rc>
    <rc><c>Si</c><c>   1</c></rc>
    <rc><c>Si</c><c>   1</c></rc>
    <rc><c>Si</c><c>   1</c></rc>
    <rc><c>Si</c><c>   1</c></rc>
    <rc><c>Si</c><c>   1</c></rc>
    <rc><c>Si</c><c>   1</c></rc>
    <rc><c>Si</c><c>   1</c></rc>
   </set>
  </array>
  <array name="atomtypes" >
   <dimension dim="1">type</dimension>
   <field type="int">atomspertype</field>
   <field type="string">element</field>
   <field>mass</field>
   <field>valence</field>
   <field type="string">pseudopotential</field>
   <set>
    <rc><c> 128</c><c>Si</c><c>     28.08500000</c><c>      4.00000000</c><c> PAW_PBE Si 05Jan2001                   </c></rc>
   </set>
  </array>
 </atominfo>
 <structure name="initialpos" >
  <crystal>
   <varray name="basis" >
    <v>       0.00000000      10.93716070      10.93716070 </v>
    <v>      10.93716070       0.00000000      10.93716070 </v>
    <v>      10.93716070      10.93716070       0.00000000 </v>
   </varray>
   <i name="volume">   2616.63878844 </i>
   <varray name="rec_basis" >
    <v>      -0.04571570       0.04571570       0.04571570 </v>
    <v>       0.04571570      -0.04571570       0.04571570 </v>
    <v>       0.04571570       0.04571570      -0.04571570 </v>
   </varray>
  </crystal>
  <varray name="positions" >
   <v>       0.06204284       0.06295716       0.06204284 </v>
   <v>       0.31250000       0.06250000       0.06250000 </v>
   <v>       0.56250000       0.06250000       0.06250000 </v>
   <v>       0.81250000       0.06250000       0.06250000 </v>
   <v>       0.06250000       0.31250000       0.06250000 </v>
   <v>       0.31250000       0.31250000       0.06250000 </v>
   <v>       0.56250000       0.31250000       0.06250000 </v>
   <v>       0.81250000       0.31250000       0.06250000 </v>
   <v>       0.06250000       0.56250000       0.06250000 </v>
   <v>       0.31250000       0.56250000       0.06250000 </v>
   <v>       0.56250000       0.56250000       0.06250000 </v>
   <v>       0.81250000       0.56250000       0.06250000 </v>
   <v>       0.06250000       0.81250000       0.06250000 </v>
   <v>       0.31250000       0.81250000       0.06250000 </v>
   <v>       0.56250000       0.81250000       0.06250000 </v>
   <v>       0.81250000       0.81250000       0.06250000 </v>
   <v>       0.06250000       0.06250000       0.31250000 </v>
   <v>       0.31250000       0.06250000       0.31250000 </v>
   <v>       0.56250000       0.06250000       0.31250000 </v>
   <v>       0.81250000       0.06250000       0.31250000 </v>
   <v>       0.06250000       0.31250000       0.31250000 </v>
   <v>       0.31250000       0.31250000       0.31250000 </v>
   <v>       0.56250000       0.31250000       0.31250000 </v>
   <v>       0.81250000       0.31250000       0.31250000 </v>
   <v>       0.06250000       0.56250000       0.31250000 </v>
   <v>       0.31250000       0.56250000       0.31250000 </v>
   <v>       0.56250000       0.56250000       0.31250000 </v>
   <v>       0.81250000       0.56250000       0.31250000 </v>
   <v>       0.06250000       0.81250000       0.31250000 </v>
   <v>       0.31250000       0.81250000       0.31250000 </v>
   <v>       0.56250000       0.81250000       0.31250000 </v>
   <v>       0.81250000       0.81250000       0.31250000 </v>
   <v>       0.06250000       0.06250000       0.56250000 </v>
   <v>       0.31250000       0.06250000       0.56250000 </v>
   <v>       0.56250000       0.06250000       0.56250000 </v>
   <v>       0.81250000       0.06250000       0.56250000 </v>
   <v>       0.06250000       0.31250000       0.56250000 </v>
   <v>       0.31250000       0.31250000       0.56250000 </v>
   <v>       0.56250000       0.31250000       0.56250000 </v>
   <v>       0.81250000       0.31250000       0.56250000 </v>
   <v>       0.06250000       0.56250000       0.56250000 </v>
   <v>       0.31250000       0.56250000       0.56250000 </v>
   <v>       0.56250000       0.56250000       0.56250000 </v>
   <v>       0.81250000       0.56250000       0.56250000 </v>
   <v>       0.06250000       0.81250000       0.56250000 </v>
   <v>       0.31250000       0.81250000       0.56250000 </v>
   <v>       0.56250000       0.81250000       0.56250000 </v>
   <v>       0.81250000       0.81250000       0.56250000 </v>
   <v>       0.06250000       0.06250000       0.81250000 </v>
   <v>       0.31250000       0.06250000       0.81250000 </v>
   <v>       0.56250000       0.06250000       0.81250000 </v>
   <v>       0.81250000       0.06250000       0.81250000 </v>
   <v>       0.06250000       0.31250000       0.81250000 </v>
   <v>       0.31250000       0.31250000       0.81250000 </v>
   <v>       0.56250000       0.31250000       0.81250000 </v>
   <v>       0.81250000       0.31250000       0.81250000 </v>
   <v>       0.06250000       0.56250000       0.81250000 </v>
   <v>       0.31250000       0.56250000       0.81250000 </v>
   <v>       0.56250000       0.56250000       0.81250000 </v>
   <v>       0.81250000       0.56250000       0.81250000 </v>
   <v>       0.06250000       0.81250000       0.81250000 </v>
   <v>       0.31250000       0.81250000       0.81250000 </v>
   <v>       0.56250000       0.81250000       0.81250000 </v>
   <v>       0.81250000       0.81250000       0.81250000 </v>
   <v>       0.99954284       0.00045716       0.00045716 </v>
   <v>       0.25000000       0.00000000       0.00000000 </v>
   <v>       0.50000000       0.00000000       0.00000000 </v>
   <v>       0.75000000       0.00000000       0.00000000 </v>
   <v>       0.00000000       0.25000000       0.00000000 </v>
   <v>       0.25000000       0.25000000       0.00000000 </v>
   <v>       0.50000000       0.25000000       0.00000000 </v>
   <v>       0.75000000       0.25000000       0.00000000 </v>
   <v>       0.00000000       0.50000000       0.00000000 </v>
   <v>       0.25000000       0.50000000       0.00000000 </v>
   <v>       0.50000000       0.50000000       0.00000000 </v>
   <v>       0.75000000       0.50000000       0.00000000 </v>
   <v>       0.00000000       0.75000000       0.00000000 </v>
   <v>       0.25000000       0.75000000       0.00000000 </v>
   <v>       0.50000000       0.75000000       0.00000000 </v>
   <v>       0.75000000       0.75000000       0.00000000 </v>
   <v>       0.00000000       0.00000000       0.25000000 </v>
   <v>       0.25000000       0.00000000       0.25000000 </v>
   <v>       0.50000000       0.00000000       0.25000000 </v>
   <v>       0.75000000       0.00000000       0.25000000 </v>
   <v>       0.00000000       0.25000000       0.25000000 </v>
   <v>       0.25000000       0.25000000       0.25000000 </v>
   <v>       0.50000000       0.25000000       0.25000000 </v>
   <v>       0.75000000       0.25000000       0.25000000 </v>
   <v>       0.00000000       0.50000000       0.25000000 </v>
   <v>       0.25000000       0.50000000       0.25000000 </v>
   <v>       0.50000000       0.50000000       0.25000000 </v>
   <v>       0.75000000       0.50000000       0.25000000 </v>
   <v>       0.00000000       0.75000000       0.25000000 </v>
   <v>       0.25000000       0.75000000       0.25000000 </v>
   <v>       0.50000000       0.75000000       0.25000000 </v>
   <v>       0.75000000       0.75000000       0.25000000 </v>
   <v>       0.00000000       0.00000000       0.50000000 </v>
   <v>       0.25000000       0.00000000       0.50000000 </v>
   <v>       0.50000000       0.00000000       0.50000000 </v>
   <v>       0.75000000       0.00000000       0.50000000 </v>
   <v>       0.00000000       0.25000000       0.50000000 </v>
   <v>       0.25000000       0.25000000       0.50000000 </v>
   <v>       0.50000000       0.25000000       0.50000000 </v>
   <v>       0.75000000       0.25000000       0.50000000 </v>
   <v>       0.00000000       0.50000000       0.50000000 </v>
   <v>       0.25000000       0.50000000       0.50000000 </v>
   <v>       0.50000000       0.50000000       0.50000000 </v>
   <v>       0.75000000       0.50000000       0.50000000 </v>
   <v>       0.00000000       0.75000000       0.50000000 </v>
   <v>       0.25000000       0.75000000       0.50000000 </v>
   <v>       0.50000000       0.75000000       0.50000000 </v>
   <v>       0.75000000       0.75000000       0.50000000 </v>
   <v>       0.00000000       0.00000000       0.75000000 </v>
   <v>       0.25000000       0.00000000       0.75000000 </v>
   <v>       0.50000000       0.00000000       0.75000000 </v>
   <v>       0.75000000       0.00000000       0.75000000 </v>
   <v>       0.00000000       0.25000000       0.75000000 </v>
   <v>       0.25000000       0.25000000       0.75000000 </v>
   <v>       0.50000000       0.25000000       0.75000000 </v>
   <v>       0.75000000       0.25000000       0.75000000 </v>
   <v>       0.00000000       0.50000000       0.75000000 </v>
   <v>       0.25000000       0.50000000       0.75000000 </v>
   <v>       0.50000000       0.50000000       0.75000000 </v>
   <v>       0.75000000       0.50000000       0.75000000 </v>
   <v>       0.00000000       0.75000000       0.75000000 </v>
   <v>       0.25000000       0.75000000       0.75000000 </v>
   <v>       0.50000000       0.75000000       0.75000000 </v>
   <v>       0.75000000       0.75000000       0.75000000 </v>
  </varray>
 </structure>
 <calculation>
  <scstep>
   <time name="dav">    4.85    4.86</time>
   <time name="total">    5.38    5.40</time>
   <energy>
    <i name="alphaZ">    210.78028765 </i>
    <i name="ewald"> -14524.86347568 </i>
    <i name="hartreedc">   -724.62138615 </i>
    <i name="XCdc">  -1195.83144796 </i>
    <i name="pawpsdc">   4221.13331941 </i>
    <i name="pawaedc">  -1969.18571412 </i>
    <i name="eentropy">     -0.01575006 </i>
    <i name="bandstr">   2164.99068967 </i>
    <i name="atom">  13192.48085998 </i>
    <i name="e_fr_energy">   1374.86738275 </i>
    <i name="e_wo_entrp">   1374.88313281 </i>
    <i name="e_0_energy">   1374.87525778 </i>
   </energy>
  </scstep>
  <scstep>
   <time name="dav">    5.46    5.48</time>
   <time name="total">    5.46    5.48</time>
   <energy>
    <i name="e_fr_energy">   -537.01749173 </i>
    <i name="e_wo_entrp">   -537.01748985 </i>
    <i name="e_0_energy">   -537.01749079 </i>
   </energy>
  </scstep>
  <scstep>
   <time name="dav">    5.51    5.53</time>
   <time name="total">    5.51    5.53</time>
   <energy>
    <i name="e_fr_energy">   -690.02301381 </i>
    <i name="e_wo_entrp">   -690.02301381 </i>
    <i name="e_0_energy">   -690.02301381 </i>
   </energy>
  </scstep>
  <scstep>
   <time name="dav">    5.49    5.51</time>
   <time name="total">    5.49    5.51</time>
   <energy>
    <i name="e_fr_energy">   -694.53310268 </i>
    <i name="e_wo_entrp">   -694.53310268 </i>
    <i name="e_0_energy">   -694.53310268 </i>
   </energy>
  </scstep>
  <scstep>
   <time name="dav">    5.43    5.45</time>
   <time name="total">    5.96    5.98</time>
   <energy>
    <i name="e_fr_energy">   -694.69900357 </i>
    <i name="e_wo_entrp">   -694.69900357 </i>
    <i name="e_0_energy">   -694.69900357 </i>
   </energy>
  </scstep>
  <scstep>
   <time name="dav">    5.12    5.14</time>
   <time name="total">    6.14    6.16</time>
   <energy>
    <i name="e_fr_energy">   -686.29957667 </i>
    <i name="e_wo_entrp">   -686.29957667 </i>
    <i name="e_0_energy">   -686.29957667 </i>
   </energy>
  </scstep>
  <scstep>
   <time name="dav">    4.94    4.95</time>
   <time name="total">    5.95    5.97</time>
   <energy>
    <i name="e_fr_energy">   -682.42675007 </i>
    <i name="e_wo_entrp">   -682.42675007 </i>
    <i name="e_0_energy">   -682.42675007 </i>
   </energy>
  </scstep>
  <scstep>
   <time name="dav">    5.04    5.06</time>
   <time name="total">    6.06    6.08</time>
   <energy>
    <i name="e_fr_energy">   -682.55889364 </i>
    <i name="e_wo_entrp">   -682.55889364 </i>
    <i name="e_0_energy">   -682.55889364 </i>
   </energy>
  </scstep>
  <scstep>
   <time name="dav">    5.50    5.52</time>
   <time name="total">    6.52    6.54</time>
   <energy>
    <i name="e_fr_energy">   -682.56528579 </i>
    <i name="e_wo_entrp">   -682.56528579 </i>
    <i name="e_0_energy">   -682.56528579 </i>
   </energy>
  </scstep>
  <scstep>
   <time name="dav">    4.98    4.99</time>
   <time name="total">    6.00    6.02</time>
   <energy>
    <i name="e_fr_energy">   -682.56797499 </i>
    <i name="e_wo_entrp">   -682.56797499 </i>
    <i name="e_0_energy">   -682.56797499 </i>
   </energy>
  </scstep>
  <scstep>
   <time name="dav">    5.47    5.49</time>
   <time name="total">    6.49    6.52</time>
   <energy>
    <i name="e_fr_energy">   -682.56798859 </i>
    <i name="e_wo_entrp">   -682.56798859 </i>
    <i name="e_0_energy">   -682.56798859 </i>
   </energy>
  </scstep>
  <scstep>
   <time name="dav">    5.23    5.24</time>
   <time name="total">    6.25    6.26</time>
   <energy>
    <i name="e_fr_energy">   -682.56799211 </i>
    <i name="e_wo_entrp">   -682.56799211 </i>
    <i name="e_0_energy">   -682.56799211 </i>
   </energy>
  </scstep>
  <scstep>
   <time name="dav">    5.35    5.37</time>
   <time name="total">    6.37    6.40</time>
   <energy>
    <i name="e_fr_energy">   -682.56798863 </i>
    <i name="e_wo_entrp">   -682.56798863 </i>
    <i name="e_0_energy">   -682.56798863 </i>
   </energy>
  </scstep>
  <scstep>
   <time name="dav">    5.46    5.48</time>
   <time name="total">    6.49    6.52</time>
   <energy>
    <i name="e_fr_energy">   -682.56798941 </i>
    <i name="e_wo_entrp">   -682.56798941 </i>
    <i name="e_0_energy">   -682.56798941 </i>
   </energy>
  </scstep>
  <scstep>
   <time name="dav">    4.04    4.05</time>
   <time name="total">    5.07    5.08</time>
   <energy>
    <i name="e_fr_energy">   -682.56798836 </i>
    <i name="e_wo_entrp">   -682.56798836 </i>
    <i name="e_0_energy">   -682.56798836 </i>
   </energy>
  </scstep>
  <scstep>
   <time name="dav">    3.34    3.35</time>
   <time name="total">    4.37    4.38</time>
   <energy>
    <i name="e_fr_energy">   -682.56798842 </i>
    <i name="e_wo_entrp">   -682.56798842 </i>
    <i name="e_0_energy">   -682.56798842 </i>
   </energy>
  </scstep>
  <scstep>
   <time name="dav">    3.25    3.26</time>
   <time name="total">    4.28    4.29</time>
   <energy>
    <i name="e_fr_energy">   -682.56798845 </i>
    <i name="e_wo_entrp">   -682.56798845 </i>
    <i name="e_0_energy">   -682.56798845 </i>
   </energy>
  </scstep>
  <scstep>
   <time name="dav">    3.26    3.26</time>
   <time name="total">    4.28    4.29</time>
   <energy>
    <i name="e_fr_energy">   -682.56798843 </i>
    <i name="e_wo_entrp">   -682.56798843 </i>
    <i name="e_0_energy">   -682.56798843 </i>
   </energy>
  </scstep>
  <scstep>
   <time name="dav">    3.26    3.27</time>
   <time name="total">    3.77    3.78</time>
   <energy>
    <i name="alphaZ">    210.78028765 </i>
    <i name="ewald"> -14524.86347568 </i>
    <i name="hartreedc">   -991.73430613 </i>
    <i name="XCdc">  -1153.28593715 </i>
    <i name="pawpsdc">   4723.40872145 </i>
    <i name="pawaedc">  -2485.14687554 </i>
    <i name="eentropy">     -0.00000000 </i>
    <i name="bandstr">    345.79273698 </i>
    <i name="atom">  13192.48085998 </i>
    <i name="e_fr_energy">   -682.56798843 </i>
    <i name="e_wo_entrp">   -682.56798843 </i>
    <i name="e_0_energy">   -682.56798843 </i>
   </energy>
  </scstep>
  <structure>
   <crystal>
    <varray name="basis" >
     <v>       0.00000000      10.93716070      10.93716070 </v>
     <v>      10.93716070       0.00000000      10.93716070 </v>
     <v>      10.93716070      10.93716070       0.00000000 </v>
    </varray>
    <i name="volume">   2616.63878844 </i>
    <varray name="rec_basis" >
     <v>      -0.04571570       0.04571570       0.04571570 </v>
     <v>       0.04571570      -0.04571570       0.04571570 </v>
     <v>       0.04571570       0.04571570      -0.04571570 </v>
    </varray>
   </crystal>
   <varray name="positions" >
    <v>       0.06204284       0.06295716       0.06204284 </v>
    <v>       0.31250000       0.06250000       0.06250000 </v>
    <v>       0.56250000       0.06250000       0.06250000 </v>
    <v>       0.81250000       0.06250000       0.06250000 </v>
    <v>       0.06250000       0.31250000       0.06250000 </v>
    <v>       0.31250000       0.31250000       0.06250000 </v>
    <v>       0.56250000       0.31250000       0.06250000 </v>
    <v>       0.81250000       0.31250000       0.06250000 </v>
    <v>       0.06250000       0.56250000       0.06250000 </v>
    <v>       0.31250000       0.56250000       0.06250000 </v>
    <v>       0.56250000       0.56250000       0.06250000 </v>
    <v>       0.81250000       0.56250000       0.06250000 </v>
    <v>       0.06250000       0.81250000       0.06250000 </v>
    <v>       0.31250000       0.81250000       0.06250000 </v>
    <v>       0.56250000       0.81250000       0.06250000 </v>
    <v>       0.81250000       0.81250000       0.06250000 </v>
    <v>       0.06250000       0.06250000       0.31250000 </v>
    <v>       0.31250000       0.06250000       0.31250000 </v>
    <v>       0.56250000       0.06250000       0.31250000 </v>
    <v>       0.81250000       0.06250000       0.31250000 </v>
    <v>       0.06250000       0.31250000       0.31250000 </v>
    <v>       0.31250000       0.31250000       0.31250000 </v>
    <v>       0.56250000       0.31250000       0.31250000 </v>
    <v>       0.81250000       0.31250000       0.31250000 </v>
    <v>       0.06250000       0.56250000       0.31250000 </v>
    <v>       0.31250000       0.56250000       0.31250000 </v>
    <v>       0.56250000       0.56250000       0.31250000 </v>
    <v>       0.81250000       0.56250000       0.31250000 </v>
    <v>       0.06250000       0.81250000       0.31250000 </v>
    <v>       0.31250000       0.81250000       0.31250000 </v>
    <v>       0.56250000       0.81250000       0.31250000 </v>
    <v>       0.81250000       0.81250000       0.31250000 </v>
    <v>       0.06250000       0.06250000       0.56250000 </v>
    <v>       0.31250000       0.06250000       0.56250000 </v>
    <v>       0.56250000       0.06250000       0.56250000 </v>
    <v>       0.81250000       0.06250000       0.56250000 </v>
    <v>       0.06250000       0.31250000       0.56250000 </v>
    <v>       0.31250000       0.31250000       0.56250000 </v>
    <v>       0.56250000       0.31250000       0.56250000 </v>
    <v>       0.81250000       0.31250000       0.56250000 </v>
    <v>       0.06250000       0.56250000       0.56250000 </v>
    <v>       0.31250000       0.56250000       0.56250000 </v>
    <v>       0.56250000       0.56250000       0.56250000 </v>
    <v>       0.81250000       0.56250000       0.56250000 </v>
    <v>       0.06250000       0.81250000       0.56250000 </v>
    <v>       0.31250000       0.81250000       0.56250000 </v>
    <v>       0.56250000       0.81250000       0.56250000 </v>
    <v>       0.81250000       0.81250000       0.56250000 </v>
    <v>       0.06250000       0.06250000       0.81250000 </v>
    <v>       0.31250000       0.06250000       0.81250000 </v>
    <v>       0.56250000       0.06250000       0.81250000 </v>
    <v>       0.81250000       0.06250000       0.81250000 </v>
    <v>       0.06250000       0.31250000       0.81250000 </v>
    <v>       0.31250000       0.31250000       0.81250000 </v>
    <v>       0.56250000       0.31250000       0.81250000 </v>
    <v>       0.81250000       0.31250000       0.81250000 </v>
    <v>       0.06250000       0.56250000       0.81250000 </v>
    <v>       0.31250000       0.56250000       0.81250000 </v>
    <v>       0.56250000       0.56250000       0.81250000 </v>
    <v>       0.81250000       0.56250000       0.81250000 </v>
    <v>       0.06250000       0.81250000       0.81250000 </v>
    <v>       0.31250000       0.81250000       0.81250000 </v>
    <v>       0.56250000       0.81250000       0.81250000 </v>
    <v>       0.81250000       0.81250000       0.81250000 </v>
    <v>       0.99954284       0.00045716       0.00045716 </v>
    <v>       0.25000000       0.00000000       0.00000000 </v>
    <v>       0.50000000       0.00000000       0.00000000 </v>
    <v>       0.75000000       0.00000000       0.00000000 </v>
    <v>       0.00000000       0.25000000       0.00000000 </v>
    <v>       0.25000000       0.25000000       0.00000000 </v>
    <v>       0.50000000       0.25000000       0.00000000 </v>
    <v>       0.75000000       0.25000000       0.00000000 </v>
    <v>       0.00000000       0.50000000       0.00000000 </v>
    <v>       0.25000000       0.50000000       0.00000000 </v>
    <v>       0.50000000       0.50000000       0.00000000 </v>
    <v>       0.75000000       0.50000000       0.00000000 </v>
    <v>       0.00000000       0.75000000       0.00000000 </v>
    <v>       0.25000000       0.75000000       0.00000000 </v>
    <v>       0.50000000       0.75000000       0.00000000 </v>
    <v>       0.75000000       0.75000000       0.00000000 </v>
    <v>       0.00000000       0.00000000       0.25000000 </v>
    <v>       0.25000000       0.00000000       0.25000000 </v>
    <v>       0.50000000       0.00000000       0.25000000 </v>
    <v>       0.75000000       0.00000000       0.25000000 </v>
    <v>       0.00000000       0.25000000       0.25000000 </v>
    <v>       0.25000000       0.25000000       0.25000000 </v>
    <v>       0.50000000       0.25000000       0.25000000 </v>
    <v>       0.75000000       0.25000000       0.25000000 </v>
    <v>       0.00000000       0.50000000       0.25000000 </v>
    <v>       0.25000000       0.50000000       0.25000000 </v>
    <v>       0.50000000       0.50000000       0.25000000 </v>
    <v>       0.75000000       0.50000000       0.25000000 </v>
    <v>       0.00000000       0.75000000       0.25000000 </v>
    <v>       0.25000000       0.75000000       0.25000000 </v>
    <v>       0.50000000       0.75000000       0.25000000 </v>
    <v>       0.75000000       0.75000000       0.25000000 </v>
    <v>       0.00000000       0.00000000       0.50000000 </v>
    <v>       0.25000000       0.00000000       0.50000000 </v>
    <v>       0.50000000       0.00000000       0.50000000 </v>
    <v>       0.75000000       0.00000000       0.50000000 </v>
    <v>       0.00000000       0.25000000       0.50000000 </v>
    <v>       0.25000000       0.25000000       0.50000000 </v>
    <v>       0.50000000       0.25000000       0.50000000 </v>
    <v>       0.75000000       0.25000000       0.50000000 </v>
    <v>       0.00000000       0.50000000       0.50000000 </v>
    <v>       0.25000000       0.50000000       0.50000000 </v>
    <v>       0.50000000       0.50000000       0.50000000 </v>
    <v>       0.75000000       0.50000000       0.50000000 </v>
    <v>       0.00000000       0.75000000       0.50000000 </v>
    <v>       0.25000000       0.75000000       0.50000000 </v>
    <v>       0.50000000       0.75000000       0.50000000 </v>
    <v>       0.75000000       0.75000000       0.50000000 </v>
    <v>       0.00000000       0.00000000       0.75000000 </v>
    <v>       0.25000000       0.00000000       0.75000000 </v>
    <v>       0.50000000       0.00000000       0.75000000 </v>
    <v>       0.75000000       0.00000000       0.75000000 </v>
    <v>       0.00000000       0.25000000       0.75000000 </v>
    <v>       0.25000000       0.25000000       0.75000000 </v>
    <v>       0.50000000       0.25000000       0.75000000 </v>
    <v>       0.75000000       0.25000000       0.75000000 </v>
    <v>       0.00000000       0.50000000       0.75000000 </v>
    <v>       0.25000000       0.50000000       0.75000000 </v>
    <v>       0.50000000       0.50000000       0.75000000 </v>
    <v>       0.75000000       0.50000000       0.75000000 </v>
    <v>       0.00000000       0.75000000       0.75000000 </v>
    <v>       0.25000000       0.75000000       0.75000000 </v>
    <v>       0.50000000       0.75000000       0.75000000 </v>
    <v>       0.75000000       0.75000000       0.75000000 </v>
   </varray>
  </structure>
  <varray name="forces" >
   <v>       0.03343469       0.15140856       0.02132790 </v>
   <v>       0.00300874      -0.00204598      -0.00248412 </v>
   <v>       0.00205144       0.00033595       0.00010526 </v>
   <v>       0.03189106      -0.02210896      -0.02253798 </v>
   <v>      -0.00075826       0.00444286      -0.00076862 </v>
   <v>       0.00002163       0.00027971      -0.00053476 </v>
   <v>       0.00041733      -0.00024529       0.00026588 </v>
   <v>       0.00195622      -0.00124501       0.00062415 </v>
   <v>       0.00020603       0.00215433       0.00019498 </v>
   <v>       0.00035670      -0.00030138      -0.00074859 </v>
   <v>       0.00042586      -0.00006236      -0.00015814 </v>
   <v>       0.00026263       0.00005413      -0.00035149 </v>
   <v>       0.03351469      -0.01502917       0.02092699 </v>
   <v>       0.00177302      -0.00123531      -0.00129594 </v>
   <v>       0.00007074       0.00011122      -0.00030891 </v>
   <v>       0.00001904       0.00023811      -0.00054844 </v>
   <v>      -0.00180595      -0.00137628       0.00048108 </v>
   <v>      -0.00045879      -0.00043170       0.00017581 </v>
   <v>      -0.00006145       0.00036879      -0.00034711 </v>
   <v>       0.00087240       0.00457639      -0.00060651 </v>
   <v>      -0.00040113      -0.00049086      -0.00011465 </v>
   <v>      -0.00025156       0.00028415       0.00038627 </v>
   <v>       0.00008421      -0.00012615       0.00024846 </v>
   <v>      -0.00006468      -0.00022942       0.00002173 </v>
   <v>       0.00176189       0.00036725      -0.00032185 </v>
   <v>       0.00005234      -0.00006833       0.00021533 </v>
   <v>      -0.00010437      -0.00007038      -0.00001147 </v>
   <v>      -0.00014331      -0.00013384       0.00000954 </v>
   <v>      -0.00120273      -0.00191589       0.00168350 </v>
   <v>      -0.00015581      -0.00014342       0.00000796 </v>
   <v>      -0.00016779      -0.00010164      -0.00002368 </v>
   <v>      -0.00025100       0.00008530       0.00034235 </v>
   <v>      -0.00016303       0.00005603       0.00047527 </v>
   <v>       0.00005672      -0.00057703      -0.00046526 </v>
   <v>       0.00005592       0.00151108       0.00007957 </v>
   <v>      -0.00015384      -0.00018419      -0.00011144 </v>
   <v>       0.00182697      -0.00052232       0.00068101 </v>
   <v>       0.00011404      -0.00009733       0.00012735 </v>
   <v>      -0.00011849      -0.00014997       0.00001112 </v>
   <v>      -0.00015700      -0.00007264       0.00000489 </v>
   <v>      -0.00007533      -0.00029841       0.00021330 </v>
   <v>      -0.00009315      -0.00011812      -0.00002243 </v>
   <v>      -0.00010543      -0.00008865       0.00002406 </v>
   <v>      -0.00008975       0.00006287       0.00015860 </v>
   <v>      -0.00009473      -0.00012849      -0.00000782 </v>
   <v>      -0.00006581      -0.00007223      -0.00003357 </v>
   <v>       0.00006764       0.00003098       0.00009281 </v>
   <v>       0.00017162      -0.00008583       0.00019006 </v>
   <v>       0.03052613       0.01836357      -0.02089647 </v>
   <v>      -0.00119431       0.00456770       0.00128587 </v>
   <v>      -0.00034851      -0.00026317      -0.00004981 </v>
   <v>      -0.00039961      -0.00038514       0.00019403 </v>
   <v>       0.00071102      -0.00192100       0.00169001 </v>
   <v>      -0.00015555      -0.00024359       0.00002209 </v>
   <v>      -0.00014321      -0.00011627      -0.00000901 </v>
   <v>      -0.00025172       0.00017702       0.00033722 </v>
   <v>      -0.00021603      -0.00026174       0.00012741 </v>
   <v>      -0.00007653      -0.00014842       0.00003389 </v>
   <v>       0.00005637      -0.00001414       0.00014541 </v>
   <v>       0.00005078      -0.00006372       0.00016771 </v>
   <v>      -0.00028491      -0.00044707      -0.00007161 </v>
   <v>      -0.00007774       0.00009080       0.00034336 </v>
   <v>       0.00010994      -0.00012311       0.00025149 </v>
   <v>      -0.00009861      -0.00008508       0.00001842 </v>
   <v>      -0.15140856      -0.03343470      -0.02132786 </v>
   <v>       0.01502917      -0.03351470      -0.02092703 </v>
   <v>      -0.00215435      -0.00020602      -0.00019499 </v>
   <v>      -0.00444288       0.00075826       0.00076864 </v>
   <v>       0.02210898      -0.03189105       0.02253799 </v>
   <v>      -0.00023813      -0.00001904       0.00054844 </v>
   <v>      -0.00005414      -0.00026264       0.00035151 </v>
   <v>       0.00124504      -0.00195623      -0.00062413 </v>
   <v>      -0.00033596      -0.00205144      -0.00010527 </v>
   <v>      -0.00011119      -0.00007076       0.00030891 </v>
   <v>       0.00006238      -0.00042587       0.00015809 </v>
   <v>       0.00024531      -0.00041734      -0.00026586 </v>
   <v>       0.00204597      -0.00300874       0.00248411 </v>
   <v>       0.00123531      -0.00177300       0.00129594 </v>
   <v>       0.00030139      -0.00035673       0.00074855 </v>
   <v>      -0.00027973      -0.00002161       0.00053477 </v>
   <v>      -0.01836355      -0.03052613       0.02089648 </v>
   <v>       0.00044709       0.00028491       0.00007160 </v>
   <v>       0.00026173       0.00021601      -0.00012742 </v>
   <v>       0.00192100      -0.00071100      -0.00168999 </v>
   <v>       0.00038515       0.00039960      -0.00019408 </v>
   <v>       0.00008509       0.00009862      -0.00001845 </v>
   <v>       0.00006371      -0.00005074      -0.00016767 </v>
   <v>      -0.00017701       0.00025172      -0.00033722 </v>
   <v>       0.00026313       0.00034848       0.00004976 </v>
   <v>       0.00012307      -0.00010993      -0.00025153 </v>
   <v>       0.00001413      -0.00005635      -0.00014541 </v>
   <v>       0.00011627       0.00014325       0.00000899 </v>
   <v>      -0.00456771       0.00119432      -0.00128588 </v>
   <v>      -0.00009079       0.00007770      -0.00034334 </v>
   <v>       0.00014840       0.00007656      -0.00003390 </v>
   <v>       0.00024361       0.00015554      -0.00002208 </v>
   <v>      -0.00005604       0.00016299      -0.00047529 </v>
   <v>       0.00012846       0.00009472       0.00000780 </v>
   <v>       0.00029841       0.00007535      -0.00021332 </v>
   <v>       0.00052233      -0.00182701      -0.00068105 </v>
   <v>       0.00018419       0.00015383       0.00011143 </v>
   <v>       0.00008580      -0.00017161      -0.00019006 </v>
   <v>      -0.00006286       0.00008973      -0.00015861 </v>
   <v>       0.00007265       0.00015700      -0.00000490 </v>
   <v>      -0.00151108      -0.00005593      -0.00007958 </v>
   <v>      -0.00003098      -0.00006765      -0.00009281 </v>
   <v>       0.00008864       0.00010543      -0.00002406 </v>
   <v>       0.00014995       0.00011852      -0.00001112 </v>
   <v>       0.00057706      -0.00005675       0.00046525 </v>
   <v>       0.00007221       0.00006583       0.00003359 </v>
   <v>       0.00011814       0.00009315       0.00002246 </v>
   <v>       0.00009735      -0.00011403      -0.00012735 </v>
   <v>       0.00137626       0.00180595      -0.00048107 </v>
   <v>       0.00191587       0.00120271      -0.00168348 </v>
   <v>      -0.00036724      -0.00176191       0.00032187 </v>
   <v>       0.00049083       0.00040116       0.00011464 </v>
   <v>      -0.00457641      -0.00087237       0.00060654 </v>
   <v>      -0.00008527       0.00025101      -0.00034232 </v>
   <v>       0.00013384       0.00014327      -0.00000956 </v>
   <v>       0.00022943       0.00006470      -0.00002171 </v>
   <v>      -0.00036876       0.00006144       0.00034718 </v>
   <v>       0.00010167       0.00016782       0.00002371 </v>
   <v>       0.00007040       0.00010435       0.00001146 </v>
   <v>       0.00012616      -0.00008420      -0.00024840 </v>
   <v>       0.00043169       0.00045879      -0.00017583 </v>
   <v>       0.00014343       0.00015580      -0.00000794 </v>
   <v>       0.00006837      -0.00005235      -0.00021532 </v>
   <v>      -0.00028414       0.00025158      -0.00038627 </v>
  </varray>
  <varray name="stress" >
   <v>       5.73208423       0.00033997       0.05391098 </v>
   <v>       0.00033996       5.73208418       0.05391097 </v>
   <v>       0.05391097       0.05391097       5.73339698 </v>
  </varray>
  <energy>
   <i name="e_fr_energy">   -682.56798843 </i>
   <i name="e_wo_entrp">   -682.56798843 </i>
   <i name="e_0_energy">     -0.00000000 </i>
  </energy>
  <time name="totalsc">  122.66  123.05</time>
  <eigenvalues>
   <array>
    <dimension dim="1">band</dimension>
    <dimension dim="2">kpoint</dimension>
    <dimension dim="3">spin</dimension>
    <field>eigene</field>
    <field>occ</field>
    <set>
     <set comment="spin 1">
      <set comment="kpoint 1">
       <r>   -6.1630    1.0000 </r>
       <r>   -5.3793    1.0000 </r>
       <r>   -5.3778    1.0000 </r>
       <r>   -5.3775    1.0000 </r>
       <r>   -5.3774    1.0000 </r>
       <r>   -5.3773    1.0000 </r>
       <r>   -5.3771    1.0000 </r>
       <r>   -5.3767    1.0000 </r>
       <r>   -5.3766    1.0000 </r>
       <r>   -5.1012    1.0000 </r>
       <r>   -5.0999    1.0000 </r>
       <r>   -5.0995    1.0000 </r>
       <r>   -5.0994    1.0000 </r>
       <r>   -5.0989    1.0000 </r>
       <r>   -5.0989    1.0000 </r>
       <r>   -4.1604    1.0000 </r>
       <r>   -4.1580    1.0000 </r>
       <r>   -4.1571    1.0000 </r>
       <r>   -4.1570    1.0000 </r>
       <r>   -4.1570    1.0000 </r>
       <r>   -4.1569    1.0000 </r>
       <r>   -4.1569    1.0000 </r>
       <r>   -4.1568    1.0000 </r>
       <r>   -4.1564    1.0000 </r>
       <r>   -4.1563    1.0000 </r>
       <r>   -4.1559    1.0000 </r>
       <r>   -4.1549    1.0000 </r>
       <r>   -3.8820    1.0000 </r>
       <r>   -3.8816    1.0000 </r>
       <r>   -3.8807    1.0000 </r>
       <r>   -3.8804    1.0000 </r>
       <r>   -3.5029    1.0000 </r>
       <r>   -3.4989    1.0000 </r>
       <r>   -3.4966    1.0000 </r>
       <r>   -3.4965    1.0000 </r>
       <r>   -3.4964    1.0000 </r>
       <r>   -3.4963    1.0000 </r>
       <r>   -3.4963    1.0000 </r>
       <r>   -3.4963    1.0000 </r>
       <r>   -3.4963    1.0000 </r>
       <r>   -3.4962    1.0000 </r>
       <r>   -3.4962    1.0000 </r>
       <r>   -3.4962    1.0000 </r>
       <r>   -3.4962    1.0000 </r>
       <r>   -3.4961    1.0000 </r>
       <r>   -3.4961    1.0000 </r>
       <r>   -3.4960    1.0000 </r>
       <r>   -3.4960    1.0000 </r>
       <r>   -3.4960    1.0000 </r>
       <r>   -3.4959    1.0000 </r>
       <r>   -3.4958    1.0000 </r>
       <r>   -3.4950    1.0000 </r>
       <r>   -3.4950    1.0000 </r>
       <r>   -3.4947    1.0000 </r>
       <r>   -3.4914    1.0000 </r>
       <r>   -2.0927    1.0000 </r>
       <r>   -2.0917    1.0000 </r>
       <r>   -2.0909    1.0000 </r>
       <r>   -2.0904    1.0000 </r>
       <r>   -2.0904    1.0000 </r>
       <r>   -2.0894    1.0000 </r>
       <r>   -1.9387    1.0000 </r>
       <r>   -1.9371    1.0000 </r>
       <r>   -1.9355    1.0000 </r>
       <r>   -1.9355    1.0000 </r>
       <r>   -1.9354    1.0000 </r>
       <r>   -1.9354    1.0000 </r>
       <r>   -1.9354    1.0000 </r>
       <r>   -1.9352    1.0000 </r>
       <r>   -1.9352    1.0000 </r>
       <r>   -1.9344    1.0000 </r>
       <r>   -1.9344    1.0000 </r>
       <r>   -1.9325    1.0000 </r>
       <r>   -1.2193    1.0000 </r>
       <r>   -1.2186    1.0000 </r>
       <r>   -1.2182    1.0000 </r>
       <r>   -1.2175    1.0000 </r>
       <r>   -0.6748    1.0000 </r>
       <r>   -0.6720    1.0000 </r>
       <r>   -0.6696    1.0000 </r>
       <r>   -0.6689    1.0000 </r>
       <r>   -0.6688    1.0000 </r>
       <r>   -0.6688    1.0000 </r>
       <r>   -0.6688    1.0000 </r>
       <r>   -0.6687    1.0000 </r>
       <r>   -0.6686    1.0000 </r>
       <r>   -0.6686    1.0000 </r>
       <r>   -0.6686    1.0000 </r>
       <r>   -0.6686    1.0000 </r>
       <r>   -0.6686    1.0000 </r>
       <r>   -0.6685    1.0000 </r>
       <r>   -0.6685    1.0000 </r>
       <r>   -0.6685    1.0000 </r>
       <r>   -0.6684    1.0000 </r>
       <r>   -0.6684    1.0000 </r>
       <r>   -0.6684    1.0000 </r>
       <r>   -0.6683    1.0000 </r>
       <r>   -0.6679    1.0000 </r>
       <r>   -0.6666    1.0000 </r>
       <r>   -0.6666    1.0000 </r>
       <r>   -0.6635    1.0000 </r>
       <r>    0.2139    1.0000 </r>
       <r>    0.2149    1.0000 </r>
       <r>    0.2163    1.0000 </r>
       <r>    0.2167    1.0000 </r>
       <r>    0.2167    1.0000 </r>
       <r>    0.2168    1.0000 </r>
       <r>    0.2168    1.0000 </r>
       <r>    0.2168    1.0000 </r>
       <r>    0.2169    1.0000 </r>
       <r>    0.2179    1.0000 </r>
       <r>    0.2181    1.0000 </r>
       <r>    0.2191    1.0000 </r>
       <r>    1.7662    1.0000 </r>
       <r>    1.7666    1.0000 </r>
       <r>    1.7676    1.0000 </r>
       <r>    1.7680    1.0000 </r>
       <r>    1.7681    1.0000 </r>
       <r>    1.7682    1.0000 </r>
       <r>    1.7687    1.0000 </r>
       <r>    1.7691    1.0000 </r>
       <r>    1.8842    1.0000 </r>
       <r>    1.8853    1.0000 </r>
       <r>    1.8856    1.0000 </r>
       <r>    1.8859    1.0000 </r>
       <r>    1.8860    1.0000 </r>
       <r>    1.8861    1.0000 </r>
       <r>    1.8861    1.0000 </r>
       <r>    1.8862    1.0000 </r>
       <r>    1.8862    1.0000 </r>
       <r>    1.8863    1.0000 </r>
       <r>    1.8870    1.0000 </r>
       <r>    1.8871    1.0000 </r>
       <r>    1.9775    1.0000 </r>
       <r>    1.9776    1.0000 </r>
       <r>    1.9780    1.0000 </r>
       <r>    1.9786    1.0000 </r>
       <r>    1.9788    1.0000 </r>
       <r>    1.9789    1.0000 </r>
       <r>    1.9791    1.0000 </r>
       <r>    1.9794    1.0000 </r>
       <r>    1.9794    1.0000 </r>
       <r>    1.9794    1.0000 </r>
       <r>    1.9797    1.0000 </r>
       <r>    1.9801    1.0000 </r>
       <r>    2.1395    1.0000 </r>
       <r>    2.1402    1.0000 </r>
       <r>    2.1409    1.0000 </r>
       <r>    2.1414    1.0000 </r>
       <r>    2.1421    1.0000 </r>
       <r>    2.1423    1.0000 </r>
       <r>    2.1837    1.0000 </r>
       <r>    2.1848    1.0000 </r>
       <r>    2.1849    1.0000 </r>
       <r>    2.1860    1.0000 </r>
       <r>    2.1864    1.0000 </r>
       <r>    2.1868    1.0000 </r>
       <r>    2.1869    1.0000 </r>
       <r>    2.1869    1.0000 </r>
       <r>    2.1869    1.0000 </r>
       <r>    2.1869    1.0000 </r>
       <r>    2.1869    1.0000 </r>
       <r>    2.1870    1.0000 </r>
       <r>    2.1870    1.0000 </r>
       <r>    2.1870    1.0000 </r>
       <r>    2.1870    1.0000 </r>
       <r>    2.1871    1.0000 </r>
       <r>    2.1871    1.0000 </r>
       <r>    2.1872    1.0000 </r>
       <r>    2.1873    1.0000 </r>
       <r>    2.1877    1.0000 </r>
       <r>    2.1881    1.0000 </r>
       <r>    2.1881    1.0000 </r>
       <r>    2.1892    1.0000 </r>
       <r>    2.1896    1.0000 </r>
       <r>    2.8558    1.0000 </r>
       <r>    2.8565    1.0000 </r>
       <r>    2.8566    1.0000 </r>
       <r>    2.8567    1.0000 </r>
       <r>    2.8569    1.0000 </r>
       <r>    2.8571    1.0000 </r>
       <r>    3.4884    1.0000 </r>
       <r>    3.4908    1.0000 </r>
       <r>    3.4909    1.0000 </r>
       <r>    3.4922    1.0000 </r>
       <r>    3.4922    1.0000 </r>
       <r>    3.4924    1.0000 </r>
       <r>    3.4924    1.0000 </r>
       <r>    3.4924    1.0000 </r>
       <r>    3.4925    1.0000 </r>
       <r>    3.4925    1.0000 </r>
       <r>    3.4925    1.0000 </r>
       <r>    3.4925    1.0000 </r>
       <r>    3.4926    1.0000 </r>
       <r>    3.4926    1.0000 </r>
       <r>    3.4927    1.0000 </r>
       <r>    3.4927    1.0000 </r>
       <r>    3.4928    1.0000 </r>
       <r>    3.4928    1.0000 </r>
       <r>    3.4929    1.0000 </r>
       <r>    3.4930    1.0000 </r>
       <r>    3.4934    1.0000 </r>
       <r>    3.4935    1.0000 </r>
       <r>    3.4948    1.0000 </r>
       <r>    3.4949    1.0000 </r>
       <r>    3.8016    1.0000 </r>
       <r>    3.8029    1.0000 </r>
       <r>    3.8035    1.0000 </r>
       <r>    3.8036    1.0000 </r>
       <r>    3.8038    1.0000 </r>
       <r>    3.8038    1.0000 </r>
       <r>    3.8039    1.0000 </r>
       <r>    3.8040    1.0000 </r>
       <r>    3.8040    1.0000 </r>
       <r>    3.8044    1.0000 </r>
       <r>    3.8048    1.0000 </r>
       <r>    3.8058    1.0000 </r>
       <r>    4.3501    1.0000 </r>
       <r>    4.3516    1.0000 </r>
       <r>    4.3519    1.0000 </r>
       <r>    4.3528    1.0000 </r>
       <r>    4.3528    1.0000 </r>
       <r>    4.3529    1.0000 </r>
       <r>    4.3530    1.0000 </r>
       <r>    4.3530    1.0000 </r>
       <r>    4.3531    1.0000 </r>
       <r>    4.3532    1.0000 </r>
       <r>    4.3544    1.0000 </r>
       <r>    4.3548    1.0000 </r>
       <r>    4.4758    1.0000 </r>
       <r>    4.4770    1.0000 </r>
       <r>    4.4773    1.0000 </r>
       <r>    4.4777    1.0000 </r>
       <r>    4.4779    1.0000 </r>
       <r>    4.4779    1.0000 </r>
       <r>    4.4789    1.0000 </r>
       <r>    4.4791    1.0000 </r>
       <r>    4.9074    1.0000 </r>
       <r>    4.9104    1.0000 </r>
       <r>    4.9112    1.0000 </r>
       <r>    4.9115    1.0000 </r>
       <r>    4.9116    1.0000 </r>
       <r>    4.9117    1.0000 </r>
       <r>    4.9118    1.0000 </r>
       <r>    4.9118    1.0000 </r>
       <r>    4.9118    1.0000 </r>
       <r>    4.9119    1.0000 </r>
       <r>    4.9119    1.0000 </r>
       <r>    4.9120    1.0000 </r>
       <r>    4.9121    1.0000 </r>
       <r>    4.9122    1.0000 </r>
       <r>    4.9135    1.0000 </r>
       <r>    4.9158    1.0000 </r>
       <r>    5.6594    1.0000 </r>
       <r>    5.6604    1.0000 </r>
       <r>    5.6615    1.0000 </r>
       <r>    6.3941    0.0000 </r>
       <r>    6.3943    0.0000 </r>
       <r>    6.3950    0.0000 </r>
       <r>    6.3956    0.0000 </r>
       <r>    6.3959    0.0000 </r>
       <r>    6.3959    0.0000 </r>
       <r>    6.7950    0.0000 </r>
       <r>    6.7952    0.0000 </r>
       <r>    6.7962    0.0000 </r>
       <r>    6.7968    0.0000 </r>
       <r>    6.7969    0.0000 </r>
       <r>    6.7974    0.0000 </r>
       <r>    7.1206    0.0000 </r>
       <r>    7.1208    0.0000 </r>
       <r>    7.1209    0.0000 </r>
       <r>    7.1211    0.0000 </r>
       <r>    7.1817    0.0000 </r>
       <r>    7.1823    0.0000 </r>
       <r>    7.1847    0.0000 </r>
       <r>    7.1857    0.0000 </r>
       <r>    7.1858    0.0000 </r>
       <r>    7.1858    0.0000 </r>
       <r>    7.1859    0.0000 </r>
       <r>    7.1859    0.0000 </r>
       <r>    7.1859    0.0000 </r>
       <r>    7.1860    0.0000 </r>
       <r>    7.1860    0.0000 </r>
       <r>    7.1860    0.0000 </r>
       <r>    7.1860    0.0000 </r>
       <r>    7.1861    0.0000 </r>
       <r>    7.1861    0.0000 </r>
       <r>    7.1861    0.0000 </r>
       <r>    7.1862    0.0000 </r>
       <r>    7.1862    0.0000 </r>
       <r>    7.1863    0.0000 </r>
       <r>    7.1863    0.0000 </r>
       <r>    7.1874    0.0000 </r>
       <r>    7.1878    0.0000 </r>
       <r>    7.1886    0.0000 </r>
       <r>    7.1892    0.0000 </r>
       <r>    7.6113    0.0000 </r>
       <r>    7.6116    0.0000 </r>
       <r>    7.6121    0.0000 </r>
       <r>    7.6123    0.0000 </r>
       <r>    7.6123    0.0000 </r>
       <r>    7.6126    0.0000 </r>
       <r>    7.6127    0.0000 </r>
       <r>    7.6129    0.0000 </r>
       <r>    8.0809    0.0000 </r>
       <r>    8.0810    0.0000 </r>
       <r>    8.0823    0.0000 </r>
       <r>    8.0828    0.0000 </r>
       <r>    8.0828    0.0000 </r>
       <r>    8.0830    0.0000 </r>
       <r>    8.0830    0.0000 </r>
       <r>    8.0831    0.0000 </r>
       <r>    8.0834    0.0000 </r>
       <r>    8.0841    0.0000 </r>
       <r>    8.0842    0.0000 </r>
       <r>    8.0847    0.0000 </r>
       <r>    8.1987    0.0000 </r>
       <r>    8.1993    0.0000 </r>
       <r>    8.2000    0.0000 </r>
       <r>    8.7789    0.0000 </r>
       <r>    8.7793    0.0000 </r>
       <r>    8.7869    0.0000 </r>
      </set>
     </set>
    </set>
   </array>
  </eigenvalues>
  <separator name="orbital magnetization" >
   <v name="MAGDIPOLOUT">      0.00000000      0.00000000      0.00000000</v>
  </separator>
  <dos>
   <i name="efermi">      5.91993292 </i>
   <total>
    <array>
     <dimension dim="1">gridpoints</dimension>
     <dimension dim="2">spin</dimension>
     <field>energy</field>
     <field>total</field>
     <field>integrated</field>
     <set>
      <set comment="spin 1">
       <r>    -6.9105     0.0000     0.0000 </r>
       <r>    -6.8557     0.0000     0.0000 </r>
       <r>    -6.8009     0.0000     0.0000 </r>
       <r>    -6.7461     0.0000     0.0000 </r>
       <r>    -6.6912     0.0000     0.0000 </r>
       <r>    -6.6364     0.0000     0.0000 </r>
       <r>    -6.5816     0.0000     0.0000 </r>
       <r>    -6.5268     0.0000     0.0000 </r>
       <r>    -6.4720     0.0000     0.0000 </r>
       <r>    -6.4172     0.0000     0.0000 </r>
       <r>    -6.3624     0.0000     0.0000 </r>
       <r>    -6.3075     0.0008     0.0000 </r>
       <r>    -6.2527     0.2031     0.0112 </r>
       <r>    -6.1979     5.7034     0.3238 </r>
       <r>    -6.1431    20.1270     1.4271 </r>
       <r>    -6.0883     9.8218     1.9655 </r>
       <r>    -6.0335     0.6248     1.9998 </r>
       <r>    -5.9786     0.0045     2.0000 </r>
       <r>    -5.9238     0.0000     2.0000 </r>
       <r>    -5.8690     0.0000     2.0000 </r>
       <r>    -5.8142     0.0000     2.0000 </r>
       <r>    -5.7594     0.0000     2.0000 </r>
       <r>    -5.7046     0.0000     2.0000 </r>
       <r>    -5.6497     0.0000     2.0000 </r>
       <r>    -5.5949     0.0000     2.0000 </r>
       <r>    -5.5401     0.0006     2.0000 </r>
       <r>    -5.4853     0.3350     2.0184 </r>
       <r>    -5.4305    19.2201     3.0720 </r>
       <r>    -5.3757   132.3807    10.3286 </r>
       <r>    -5.3208   124.0022    17.1259 </r>
       <r>    -5.2660    15.7084    17.9870 </r>
       <r>    -5.2112     0.4121    18.0096 </r>
       <r>    -5.1564    11.7053    18.6513 </r>
       <r>    -5.1016    92.8004    23.7382 </r>
       <r>    -5.0468    99.4752    29.1911 </r>
       <r>    -4.9919    14.5023    29.9861 </r>
       <r>    -4.9371     0.2538    30.0000 </r>
       <r>    -4.8823     0.0005    30.0000 </r>
       <r>    -4.8275     0.0000    30.0000 </r>
       <r>    -4.7727     0.0000    30.0000 </r>
       <r>    -4.7179     0.0000    30.0000 </r>
       <r>    -4.6630     0.0000    30.0000 </r>
       <r>    -4.6082     0.0000    30.0000 </r>
       <r>    -4.5534     0.0000    30.0000 </r>
       <r>    -4.4986     0.0000    30.0000 </r>
       <r>    -4.4438     0.0000    30.0000 </r>
       <r>    -4.3890     0.0000    30.0000 </r>
       <r>    -4.3341     0.0001    30.0000 </r>
       <r>    -4.2793     0.1187    30.0065 </r>
       <r>    -4.2245    12.1874    30.6746 </r>
       <r>    -4.1697   145.0674    38.6266 </r>
       <r>    -4.1149   229.1750    51.1892 </r>
       <r>    -4.0601    49.9282    53.9261 </r>
       <r>    -4.0052     1.3778    54.0016 </r>
       <r>    -3.9504     3.6314    54.2006 </r>
       <r>    -3.8956    46.1774    56.7319 </r>
       <r>    -3.8408    77.6029    60.9858 </r>
       <r>    -3.7860    17.9830    61.9716 </r>
       <r>    -3.7312     0.5167    61.9999 </r>
       <r>    -3.6764     0.0018    62.0000 </r>
       <r>    -3.6215     0.1758    62.0096 </r>
       <r>    -3.5667    20.1815    63.1159 </r>
       <r>    -3.5119   267.7387    77.7924 </r>
       <r>    -3.4571   469.8448   103.5475 </r>
       <r>    -3.4023   114.2298   109.8092 </r>
       <r>    -3.3475     3.4691   109.9994 </r>
       <r>    -3.2926     0.0115   110.0000 </r>
       <r>    -3.2378     0.0000   110.0000 </r>
       <r>    -3.1830     0.0000   110.0000 </r>
       <r>    -3.1282     0.0000   110.0000 </r>
       <r>    -3.0734     0.0000   110.0000 </r>
       <r>    -3.0186     0.0000   110.0000 </r>
       <r>    -2.9637     0.0000   110.0000 </r>
       <r>    -2.9089     0.0000   110.0000 </r>
       <r>    -2.8541     0.0000   110.0000 </r>
       <r>    -2.7993     0.0000   110.0000 </r>
       <r>    -2.7445     0.0000   110.0000 </r>
       <r>    -2.6897     0.0000   110.0000 </r>
       <r>    -2.6348     0.0000   110.0000 </r>
       <r>    -2.5800     0.0000   110.0000 </r>
       <r>    -2.5252     0.0000   110.0000 </r>
       <r>    -2.4704     0.0000   110.0000 </r>
       <r>    -2.4156     0.0000   110.0000 </r>
       <r>    -2.3608     0.0000   110.0000 </r>
       <r>    -2.3059     0.0000   110.0000 </r>
       <r>    -2.2511     0.0006   110.0000 </r>
       <r>    -2.1963     0.3161   110.0174 </r>
       <r>    -2.1415    16.4285   110.9179 </r>
       <r>    -2.0867   103.2318   116.5767 </r>
       <r>    -2.0319    89.9590   121.5079 </r>
       <r>    -1.9770    61.1850   124.8619 </r>
       <r>    -1.9222   230.2152   137.4814 </r>
       <r>    -1.8674   143.4271   145.3436 </r>
       <r>    -1.8126    11.8616   145.9938 </r>
       <r>    -1.7578     0.1136   146.0000 </r>
       <r>    -1.7030     0.0001   146.0000 </r>
       <r>    -1.6481     0.0000   146.0000 </r>
       <r>    -1.5933     0.0000   146.0000 </r>
       <r>    -1.5385     0.0000   146.0000 </r>
       <r>    -1.4837     0.0000   146.0000 </r>
       <r>    -1.4289     0.0000   146.0000 </r>
       <r>    -1.3741     0.0008   146.0000 </r>
       <r>    -1.3192     0.3166   146.0174 </r>
       <r>    -1.2644    13.7729   146.7724 </r>
       <r>    -1.2096    73.2120   150.7856 </r>
       <r>    -1.1548    53.3827   153.7118 </r>
       <r>    -1.1000     5.1978   153.9968 </r>
       <r>    -1.0452     0.0591   154.0000 </r>
       <r>    -0.9904     0.0001   154.0000 </r>
       <r>    -0.9355     0.0000   154.0000 </r>
       <r>    -0.8807     0.0000   154.0000 </r>
       <r>    -0.8259     0.0039   154.0002 </r>
       <r>    -0.7711     1.6634   154.0914 </r>
       <r>    -0.7163    76.4562   158.2824 </r>
       <r>    -0.6615   429.9909   181.8530 </r>
       <r>    -0.6066   332.5232   200.0807 </r>
       <r>    -0.5518    34.5893   201.9767 </r>
       <r>    -0.4970     0.4240   202.0000 </r>
       <r>    -0.4422     0.0005   202.0000 </r>
       <r>    -0.3874     0.0000   202.0000 </r>
       <r>    -0.3326     0.0000   202.0000 </r>
       <r>    -0.2777     0.0000   202.0000 </r>
       <r>    -0.2229     0.0000   202.0000 </r>
       <r>    -0.1681     0.0000   202.0000 </r>
       <r>    -0.1133     0.0000   202.0000 </r>
       <r>    -0.0585     0.0000   202.0000 </r>
       <r>    -0.0037     0.0000   202.0000 </r>
       <r>     0.0512     0.0006   202.0000 </r>
       <r>     0.1060     0.3813   202.0209 </r>
       <r>     0.1608    24.5377   203.3660 </r>
       <r>     0.2156   188.4380   213.6955 </r>
       <r>     0.2704   196.2027   224.4506 </r>
       <r>     0.3252    27.7921   225.9741 </r>
       <r>     0.3801     0.4725   226.0000 </r>
       <r>     0.4349     0.0009   226.0000 </r>
       <r>     0.4897     0.0000   226.0000 </r>
       <r>     0.5445     0.0000   226.0000 </r>
       <r>     0.5993     0.0000   226.0000 </r>
       <r>     0.6541     0.0000   226.0000 </r>
       <r>     0.7090     0.0000   226.0000 </r>
       <r>     0.7638     0.0000   226.0000 </r>
       <r>     0.8186     0.0000   226.0000 </r>
       <r>     0.8734     0.0000   226.0000 </r>
       <r>     0.9282     0.0000   226.0000 </r>
       <r>     0.9830     0.0000   226.0000 </r>
       <r>     1.0379     0.0000   226.0000 </r>
       <r>     1.0927     0.0000   226.0000 </r>
       <r>     1.1475     0.0000   226.0000 </r>
       <r>     1.2023     0.0000   226.0000 </r>
       <r>     1.2571     0.0000   226.0000 </r>
       <r>     1.3119     0.0000   226.0000 </r>
       <r>     1.3668     0.0000   226.0000 </r>
       <r>     1.4216     0.0000   226.0000 </r>
       <r>     1.4764     0.0000   226.0000 </r>
       <r>     1.5312     0.0000   226.0000 </r>
       <r>     1.5860     0.0000   226.0000 </r>
       <r>     1.6408     0.0481   226.0026 </r>
       <r>     1.6956     5.9752   226.3302 </r>
       <r>     1.7505    85.0018   230.9897 </r>
       <r>     1.8053   163.5152   239.9530 </r>
       <r>     1.8601   137.7598   247.5044 </r>
       <r>     1.9149   262.3253   261.8842 </r>
       <r>     1.9697   245.4089   275.3366 </r>
       <r>     2.0245   224.5643   287.6464 </r>
       <r>     2.0794    51.8566   290.4890 </r>
       <r>     2.1342   143.1385   298.3353 </r>
       <r>     2.1890   505.8868   326.0661 </r>
       <r>     2.2438   389.0019   347.3898 </r>
       <r>     2.2986    46.9196   349.9618 </r>
       <r>     2.3534     0.6965   349.9999 </r>
       <r>     2.4083     0.0011   350.0000 </r>
       <r>     2.4631     0.0000   350.0000 </r>
       <r>     2.5179     0.0000   350.0000 </r>
       <r>     2.5727     0.0000   350.0000 </r>
       <r>     2.6275     0.0000   350.0000 </r>
       <r>     2.6823     0.0001   350.0000 </r>
       <r>     2.7372     0.0797   350.0044 </r>
       <r>     2.7920     7.3150   350.4054 </r>
       <r>     2.8468    78.1260   354.6879 </r>
       <r>     2.9016   111.1605   360.7813 </r>
       <r>     2.9564    21.7109   361.9715 </r>
       <r>     3.0112     0.5193   361.9999 </r>
       <r>     3.0661     0.0013   362.0000 </r>
       <r>     3.1209     0.0000   362.0000 </r>
       <r>     3.1757     0.0000   362.0000 </r>
       <r>     3.2305     0.0000   362.0000 </r>
       <r>     3.2853     0.0000   362.0000 </r>
       <r>     3.3401     0.0072   362.0004 </r>
       <r>     3.3950     2.5410   362.1397 </r>
       <r>     3.4498    96.8142   367.4467 </r>
       <r>     3.5046   455.3991   392.4100 </r>
       <r>     3.5594   295.2109   408.5924 </r>
       <r>     3.6142    25.4247   409.9861 </r>
       <r>     3.6690     0.2843   410.0016 </r>
       <r>     3.7239     5.1666   410.2849 </r>
       <r>     3.7787    99.1762   415.7213 </r>
       <r>     3.8335   245.4871   429.1780 </r>
       <r>     3.8883    84.2595   433.7968 </r>
       <r>     3.9431     3.6883   433.9990 </r>
       <r>     3.9979     0.0180   434.0000 </r>
       <r>     4.0528     0.0000   434.0000 </r>
       <r>     4.1076     0.0000   434.0000 </r>
       <r>     4.1624     0.0000   434.0000 </r>
       <r>     4.2172     0.0276   434.0015 </r>
       <r>     4.2720     4.8701   434.2685 </r>
       <r>     4.3268    96.3984   439.5527 </r>
       <r>     4.3816   246.6560   453.0735 </r>
       <r>     4.4365   121.4793   459.7325 </r>
       <r>     4.4913   157.9386   468.3901 </r>
       <r>     4.5461    94.5822   473.5748 </r>
       <r>     4.6009     7.6852   473.9960 </r>
       <r>     4.6557     0.0722   474.0000 </r>
       <r>     4.7105     0.0001   474.0000 </r>
       <r>     4.7654     0.0103   474.0006 </r>
       <r>     4.8202     2.8053   474.1543 </r>
       <r>     4.8750    84.3377   478.7774 </r>
       <r>     4.9298   318.4204   496.2321 </r>
       <r>     4.9846   166.6443   505.3669 </r>
       <r>     5.0394    11.4594   505.9950 </r>
       <r>     5.0943     0.0903   506.0000 </r>
       <r>     5.1491     0.0001   506.0000 </r>
       <r>     5.2039     0.0000   506.0000 </r>
       <r>     5.2587     0.0000   506.0000 </r>
       <r>     5.3135     0.0000   506.0000 </r>
       <r>     5.3683     0.0000   506.0000 </r>
       <r>     5.4232     0.0000   506.0000 </r>
       <r>     5.4780     0.0000   506.0000 </r>
       <r>     5.5328     0.0168   506.0009 </r>
       <r>     5.5876     2.1435   506.1184 </r>
       <r>     5.6424    31.2559   507.8318 </r>
       <r>     5.6972    59.7313   511.1060 </r>
       <r>     5.7521    15.7847   511.9713 </r>
       <r>     5.8069     0.5223   511.9999 </r>
       <r>     5.8617     0.0019   512.0000 </r>
       <r>     5.9165     0.0000   512.0000 </r>
       <r>     5.9713     0.0000   512.0000 </r>
       <r>     6.0261     0.0000   512.0000 </r>
       <r>     6.0810     0.0000   512.0000 </r>
       <r>     6.1358     0.0000   512.0000 </r>
       <r>     6.1906     0.0000   512.0000 </r>
       <r>     6.2454     0.0025   512.0001 </r>
       <r>     6.3002     0.7945   512.0437 </r>
       <r>     6.3550    27.3317   513.5419 </r>
       <r>     6.4099   116.6835   519.9381 </r>
       <r>     6.4647    68.7134   523.7047 </r>
       <r>     6.5195     5.3394   523.9974 </r>
       <r>     6.5743     0.0478   524.0000 </r>
       <r>     6.6291     0.0003   524.0000 </r>
       <r>     6.6839     0.1633   524.0090 </r>
       <r>     6.7388    11.2178   524.6239 </r>
       <r>     6.7936    91.4540   529.6371 </r>
       <r>     6.8484   100.7034   535.1572 </r>
       <r>     6.9032    15.1012   535.9850 </r>
       <r>     6.9580     0.2728   536.0000 </r>
       <r>     7.0128     0.1650   536.0090 </r>
       <r>     7.0676     9.8658   536.5498 </r>
       <r>     7.1225    97.4202   541.8901 </r>
       <r>     7.1773   383.0934   562.8898 </r>
       <r>     7.2321   446.5731   587.3693 </r>
       <r>     7.2869    82.5724   591.8956 </r>
       <r>     7.3417     1.8990   591.9997 </r>
       <r>     7.3965     0.0047   592.0000 </r>
       <r>     7.4514     0.0008   592.0000 </r>
       <r>     7.5062     0.3942   592.0217 </r>
       <r>     7.5610    21.1085   593.1787 </r>
       <r>     7.6158   136.2127   600.6454 </r>
       <r>     7.6706   119.7742   607.2110 </r>
       <r>     7.7254    14.1942   607.9891 </r>
       <r>     7.7803     0.1990   608.0000 </r>
       <r>     7.8351     0.0003   608.0000 </r>
       <r>     7.8899     0.0000   608.0000 </r>
       <r>     7.9447     0.0204   608.0011 </r>
       <r>     7.9995     4.0026   608.2205 </r>
       <r>     8.0543    87.6924   613.0275 </r>
       <r>     8.1092   246.3446   626.5312 </r>
       <r>     8.1640   112.3247   632.6884 </r>
       <r>     8.2188    65.0108   636.2521 </r>
       <r>     8.2736    29.9338   637.8930 </r>
       <r>     8.3284     1.9385   637.9992 </r>
       <r>     8.3832     0.0143   638.0000 </r>
       <r>     8.4381     0.0000   638.0000 </r>
       <r>     8.4929     0.0000   638.0000 </r>
       <r>     8.5477     0.0000   638.0000 </r>
       <r>     8.6025     0.0000   638.0000 </r>
       <r>     8.6573     0.0254   638.0014 </r>
       <r>     8.7121     2.7301   638.1510 </r>
       <r>     8.7670    34.3831   640.0358 </r>
       <r>     8.8218    58.1157   643.2215 </r>
       <r>     8.8766    13.7858   643.9772 </r>
       <r>     8.9314     0.4149   643.9999 </r>
       <r>     8.9862     0.0014   644.0000 </r>
       <r>     9.0410     0.0000   644.0000 </r>
       <r>     9.0959     0.0000   644.0000 </r>
       <r>     9.1507     0.0000   644.0000 </r>
       <r>     9.2055     0.0000   644.0000 </r>
       <r>     9.2603     0.0000   644.0000 </r>
       <r>     9.3151     0.0000   644.0000 </r>
       <r>     9.3699     0.0000   644.0000 </r>
       <r>     9.4248     0.0000   644.0000 </r>
       <r>     9.4796     0.0000   644.0000 </r>
       <r>     9.5344     0.0000   644.0000 </r>
      </set>
     </set>
    </array>
   </total>
  </dos>
 </calculation>
 <structure name="finalpos" >
  <crystal>
   <varray name="basis" >
    <v>       0.00000000      10.93716070      10.93716070 </v>
    <v>      10.93716070       0.00000000      10.93716070 </v>
    <v>      10.93716070      10.93716070       0.00000000 </v>
   </varray>
   <i name="volume">   2616.63878844 </i>
   <varray name="rec_basis" >
    <v>      -0.04571570       0.04571570       0.04571570 </v>
    <v>       0.04571570      -0.04571570       0.04571570 </v>
    <v>       0.04571570       0.04571570      -0.04571570 </v>
   </varray>
  </crystal>
  <varray name="positions" >
   <v>       0.06204284       0.06295716       0.06204284 </v>
   <v>       0.31250000       0.06250000       0.06250000 </v>
   <v>       0.56250000       0.06250000       0.06250000 </v>
   <v>       0.81250000       0.06250000       0.06250000 </v>
   <v>       0.06250000       0.31250000       0.06250000 </v>
   <v>       0.31250000       0.31250000       0.06250000 </v>
   <v>       0.56250000       0.31250000       0.06250000 </v>
   <v>       0.81250000       0.31250000       0.06250000 </v>
   <v>       0.06250000       0.56250000       0.06250000 </v>
   <v>       0.31250000       0.56250000       0.06250000 </v>
   <v>       0.56250000       0.56250000       0.06250000 </v>
   <v>       0.81250000       0.56250000       0.06250000 </v>
   <v>       0.06250000       0.81250000       0.06250000 </v>
   <v>       0.31250000       0.81250000       0.06250000 </v>
   <v>       0.56250000       0.81250000       0.06250000 </v>
   <v>       0.81250000       0.81250000       0.06250000 </v>
   <v>       0.06250000       0.06250000       0.31250000 </v>
   <v>       0.31250000       0.06250000       0.31250000 </v>
   <v>       0.56250000       0.06250000       0.31250000 </v>
   <v>       0.81250000       0.06250000       0.31250000 </v>
   <v>       0.06250000       0.31250000       0.31250000 </v>
   <v>       0.31250000       0.31250000       0.31250000 </v>
   <v>       0.56250000       0.31250000       0.31250000 </v>
   <v>       0.81250000       0.31250000       0.31250000 </v>
   <v>       0.06250000       0.56250000       0.31250000 </v>
   <v>       0.31250000       0.56250000       0.31250000 </v>
   <v>       0.56250000       0.56250000       0.31250000 </v>
   <v>       0.81250000       0.56250000       0.31250000 </v>
   <v>       0.06250000       0.81250000       0.31250000 </v>
   <v>       0.31250000       0.81250000       0.31250000 </v>
   <v>       0.56250000       0.81250000       0.31250000 </v>
   <v>       0.81250000       0.81250000       0.31250000 </v>
   <v>       0.06250000       0.06250000       0.56250000 </v>
   <v>       0.31250000       0.06250000       0.56250000 </v>
   <v>       0.56250000       0.06250000       0.56250000 </v>
   <v>       0.81250000       0.06250000       0.56250000 </v>
   <v>       0.06250000       0.31250000       0.56250000 </v>
   <v>       0.31250000       0.31250000       0.56250000 </v>
   <v>       0.56250000       0.31250000       0.56250000 </v>
   <v>       0.81250000       0.31250000       0.56250000 </v>
   <v>       0.06250000       0.56250000       0.56250000 </v>
   <v>       0.31250000       0.56250000       0.56250000 </v>
   <v>       0.56250000       0.56250000       0.56250000 </v>
   <v>       0.81250000       0.56250000       0.56250000 </v>
   <v>       0.06250000       0.81250000       0.56250000 </v>
   <v>       0.31250000       0.81250000       0.56250000 </v>
   <v>       0.56250000       0.81250000       0.56250000 </v>
   <v>       0.81250000       0.81250000       0.56250000 </v>
   <v>       0.06250000       0.06250000       0.81250000 </v>
   <v>       0.31250000       0.06250000       0.81250000 </v>
   <v>       0.56250000       0.06250000       0.81250000 </v>
   <v>       0.81250000       0.06250000       0.81250000 </v>
   <v>       0.06250000       0.31250000       0.81250000 </v>
   <v>       0.31250000       0.31250000       0.81250000 </v>
   <v>       0.56250000       0.31250000       0.81250000 </v>
   <v>       0.81250000       0.31250000       0.81250000 </v>
   <v>       0.06250000       0.56250000       0.81250000 </v>
   <v>       0.31250000       0.56250000       0.81250000 </v>
   <v>       0.56250000       0.56250000       0.81250000 </v>
   <v>       0.81250000       0.56250000       0.81250000 </v>
   <v>       0.06250000       0.81250000       0.81250000 </v>
   <v>       0.31250000       0.81250000       0.81250000 </v>
   <v>       0.56250000       0.81250000       0.81250000 </v>
   <v>       0.81250000       0.81250000       0.81250000 </v>
   <v>       0.99954284       0.00045716       0.00045716 </v>
   <v>       0.25000000       0.00000000       0.00000000 </v>
   <v>       0.50000000       0.00000000       0.00000000 </v>
   <v>       0.75000000       0.00000000       0.00000000 </v>
   <v>       0.00000000       0.25000000       0.00000000 </v>
   <v>       0.25000000       0.25000000       0.00000000 </v>
   <v>       0.50000000       0.25000000       0.00000000 </v>
   <v>       0.75000000       0.25000000       0.00000000 </v>
   <v>       0.00000000       0.50000000       0.00000000 </v>
   <v>       0.25000000       0.50000000       0.00000000 </v>
   <v>       0.50000000       0.50000000       0.00000000 </v>
   <v>       0.75000000       0.50000000       0.00000000 </v>
   <v>       0.00000000       0.75000000       0.00000000 </v>
   <v>       0.25000000       0.75000000       0.00000000 </v>
   <v>       0.50000000       0.75000000       0.00000000 </v>
   <v>       0.75000000       0.75000000       0.00000000 </v>
   <v>       0.00000000       0.00000000       0.25000000 </v>
   <v>       0.25000000       0.00000000       0.25000000 </v>
   <v>       0.50000000       0.00000000       0.25000000 </v>
   <v>       0.75000000       0.00000000       0.25000000 </v>
   <v>       0.00000000       0.25000000       0.25000000 </v>
   <v>       0.25000000       0.25000000       0.25000000 </v>
   <v>       0.50000000       0.25000000       0.25000000 </v>
   <v>       0.75000000       0.25000000       0.25000000 </v>
   <v>       0.00000000       0.50000000       0.25000000 </v>
   <v>       0.25000000       0.50000000       0.25000000 </v>
   <v>       0.50000000       0.50000000       0.25000000 </v>
   <v>       0.75000000       0.50000000       0.25000000 </v>
   <v>       0.00000000       0.75000000       0.25000000 </v>
   <v>       0.25000000       0.75000000       0.25000000 </v>
   <v>       0.50000000       0.75000000       0.25000000 </v>
   <v>       0.75000000       0.75000000       0.25000000 </v>
   <v>       0.00000000       0.00000000       0.50000000 </v>
   <v>       0.25000000       0.00000000       0.50000000 </v>
   <v>       0.50000000       0.00000000       0.50000000 </v>
   <v>       0.75000000       0.00000000       0.50000000 </v>
   <v>       0.00000000       0.25000000       0.50000000 </v>
   <v>       0.25000000       0.25000000       0.50000000 </v>
   <v>       0.50000000       0.25000000       0.50000000 </v>
   <v>       0.75000000       0.25000000       0.50000000 </v>
   <v>       0.00000000       0.50000000       0.50000000 </v>
   <v>       0.25000000       0.50000000       0.50000000 </v>
   <v>       0.50000000       0.50000000       0.50000000 </v>
   <v>       0.75000000       0.50000000       0.50000000 </v>
   <v>       0.00000000       0.75000000       0.50000000 </v>
   <v>       0.25000000       0.75000000       0.50000000 </v>
   <v>       0.50000000       0.75000000       0.50000000 </v>
   <v>       0.75000000       0.75000000       0.50000000 </v>
   <v>       0.00000000       0.00000000       0.75000000 </v>
   <v>       0.25000000       0.00000000       0.75000000 </v>
   <v>       0.50000000       0.00000000       0.75000000 </v>
   <v>       0.75000000       0.00000000       0.75000000 </v>
   <v>       0.00000000       0.25000000       0.75000000 </v>
   <v>       0.25000000       0.25000000       0.75000000 </v>
   <v>       0.50000000       0.25000000       0.75000000 </v>
   <v>       0.75000000       0.25000000       0.75000000 </v>
   <v>       0.00000000       0.50000000       0.75000000 </v>
   <v>       0.25000000       0.50000000       0.75000000 </v>
   <v>       0.50000000       0.50000000       0.75000000 </v>
   <v>       0.75000000       0.50000000       0.75000000 </v>
   <v>       0.00000000       0.75000000       0.75000000 </v>
   <v>       0.25000000       0.75000000       0.75000000 </v>
   <v>       0.50000000       0.75000000       0.75000000 </v>
   <v>       0.75000000       0.75000000       0.75000000 </v>
  </varray>
 </structure>
</modeling>
