 vasp.5.4.4.18Apr17-6-g9f103f2a35 (build Aug 16 2020 16:33:06) complex          
  
 executed on             LinuxIFC date 2026.08.15  15:02:18
 running on   40 total cores
 distrk:  each k-point on   40 cores,    1 groups
 distr:  one band on NCORES_PER_BAND=  20 cores,    2 groups


--------------------------------------------------------------------------------------------------------


 INCAR:
 POTCAR:   PAW_PBE Si 05Jan2001                   

 ----------------------------------------------------------------------------- 
|                                                                             |
|           W    W    AA    RRRRR   N    N  II  N    N   GGGG   !!!           |
|           W    W   A  A   R    R  NN   N  II  NN   N  G    G  !!!           |
|           W    W  A    A  R    R  N N  N  II  N N  N  G       !!!           |
|           W WW W  AAAAAA  RRRRR   N  N N  II  N  N N  G  GGG   !            |
|           WW  WW  A    A  R   R   N   NN  II  N   NN  G    G                |
|           W    W  A    A  R    R  N    N  II  N    N   GGGG   !!!           |
|                                                                             |
|      For optimal performance we recommend to set                            |
|        NCORE= 4 - approx SQRT( number of cores)                             |
|      NCORE specifies how many cores store one orbital (NPAR=cpu/NCORE).     |
|      This setting can  greatly improve the performance of VASP for DFT.     |
|      The default,   NCORE=1            might be grossly inefficient         |
|      on modern multi-core architectures or massively parallel machines.     |
|      Do your own testing !!!!                                               |
|      Unfortunately you need to use the default for GW and RPA calculations. |
|      (for HF NCORE is supported but not extensively tested yet)             |
|                                                                             |
 ----------------------------------------------------------------------------- 

 POTCAR:   PAW_PBE Si 05Jan2001                   
   VRHFIN =Si: s2p2                                                             
   LEXCH  = PE                                                                  
   EATOM  =   103.0669 eV,    7.5752 Ry                                         
                                                                                
   TITEL  = PAW_PBE Si 05Jan2001                                                
   LULTRA =        F    use ultrasoft PP ?                                      
   IUNSCR =        1    unscreen: 0-lin 1-nonlin 2-no                           
   RPACOR =    1.500    partial core radius                                     
   POMASS =   28.085; ZVAL   =    4.000    mass and valenz                      
   RCORE  =    1.900    outmost cutoff radius                                   
   RWIGS  =    2.480; RWIGS  =    1.312    wigner-seitz radius (au A)           
   ENMAX  =  245.345; ENMIN  =  184.009 eV                                      
   ICORE  =        2    local potential                                         
   LCOR   =        T    correct aug charges                                     
   LPAW   =        T    paw PP                                                  
   EAUG   =  322.069                                                            
   DEXC   =    -.007                                                            
   RMAX   =    2.944    core radius for proj-oper                               
   RAUG   =    1.300    factor for augmentation sphere                          
   RDEP   =    1.993    radius for radial grids                                 
   QCUT   =   -4.246; QGAM   =    8.493    optimization parameters              
                                                                                
   Description                                                                  
     l     E      TYP  RCUT    TYP  RCUT                                        
     0   .000     23  1.900                                                     
     0   .000     23  1.900                                                     
     1   .000     23  1.900                                                     
     1   .000     23  1.900                                                     
     2   .000      7  1.900                                                     
  local pseudopotential read in
  partial core-charges read in
  atomic valenz-charges read in
  non local Contribution for L=           0  read in
    real space projection operators read in
  non local Contribution for L=           0  read in
    real space projection operators read in
  non local Contribution for L=           1  read in
    real space projection operators read in
  non local Contribution for L=           1  read in
    real space projection operators read in
    PAW grid and wavefunctions read in
 
   number of l-projection  operators is LMAX  =           4
   number of lm-projection operators is LMMAX =           8
 

 ----------------------------------------------------------------------------- 
|                                                                             |
|  ADVICE TO THIS USER RUNNING 'VASP/VAMP'   (HEAR YOUR MASTER'S VOICE ...):  |
|                                                                             |
|      You have a (more or less) 'large supercell' and for larger cells       |
|      it might be more efficient to use real space projection operators      |
|      So try LREAL= Auto  in the INCAR   file.                               |
|      Mind: If you want to do a very accurate calculations keep the          |
|      reciprocal projection scheme          (i.e. LREAL=.FALSE.)             |
|                                                                             |
 ----------------------------------------------------------------------------- 

 PAW_PBE Si 05Jan2001                   :
 energy of atom  1       EATOM= -103.0669
 kinetic energy error for atom=    0.0006 (will be added to EATOM!!)
 
 
 POSCAR: Si                                      
  positions in direct lattice
  No initial velocities read in
 exchange correlation table for  LEXCH =        8
   RHO(1)=    0.500       N(1)  =     2000
   RHO(2)=  100.500       N(2)  =     4000
 


--------------------------------------------------------------------------------------------------------


 ion  position               nearest neighbor table
   1  0.063  0.063  0.062-   4 2.36  10 2.36   2 2.37  34 2.37
   2  0.000  0.000  0.000-   7 2.37  25 2.37  97 2.37   1 2.37
   3  0.313  0.062  0.062-   6 2.36   4 2.36  12 2.37  36 2.37
   4  0.250  0.000  0.000-   1 2.36   3 2.36  27 2.37  99 2.37
   5  0.562  0.062  0.062-   6 2.37   8 2.37  14 2.37  38 2.37
   6  0.500  0.000  0.000-   3 2.36   5 2.37  29 2.37 101 2.37
   7  0.812  0.062  0.062-   2 2.37   8 2.37  16 2.37  40 2.37
   8  0.750  0.000  0.000-   5 2.37   7 2.37  31 2.37 103 2.37
   9  0.062  0.312  0.062-  10 2.37  12 2.37  18 2.37  42 2.37
  10  0.000  0.250  0.000-   1 2.36   9 2.37  15 2.37 105 2.37
  11  0.312  0.312  0.062-  12 2.37  14 2.37  20 2.37  44 2.37
  12  0.250  0.250  0.000-   9 2.37  11 2.37 107 2.37   3 2.37
  13  0.562  0.312  0.062-  14 2.37  16 2.37  22 2.37  46 2.37
  14  0.500  0.250  0.000-   5 2.37  11 2.37  13 2.37 109 2.37
  15  0.812  0.312  0.062-  10 2.37  16 2.37  24 2.37  48 2.37
  16  0.750  0.250  0.000-   7 2.37  13 2.37  15 2.37 111 2.37
  17  0.062  0.562  0.062-  18 2.37  20 2.37  26 2.37  50 2.37
  18  0.000  0.500  0.000-   9 2.37  17 2.37  23 2.37 113 2.37
  19  0.312  0.562  0.062-  20 2.37  22 2.37  28 2.37  52 2.37
  20  0.250  0.500  0.000-  11 2.37  17 2.37  19 2.37 115 2.37
  21  0.562  0.562  0.062-  22 2.37  24 2.37  30 2.37  54 2.37
  22  0.500  0.500  0.000-  13 2.37  19 2.37  21 2.37 117 2.37
  23  0.812  0.562  0.062-  18 2.37  24 2.37  32 2.37  56 2.37
  24  0.750  0.500  0.000-  15 2.37  21 2.37  23 2.37 119 2.37
  25  0.062  0.812  0.062-   2 2.37  26 2.37  28 2.37  58 2.37
  26  0.000  0.750  0.000-  17 2.37  25 2.37  31 2.37 121 2.37
  27  0.312  0.812  0.062-   4 2.37  28 2.37  30 2.37  60 2.37
  28  0.250  0.750  0.000-  19 2.37  25 2.37  27 2.37 123 2.37
  29  0.562  0.812  0.062-   6 2.37  30 2.37  32 2.37  62 2.37
  30  0.500  0.750  0.000-  21 2.37  27 2.37  29 2.37 125 2.37
  31  0.812  0.812  0.062-   8 2.37  26 2.37  32 2.37  64 2.37
  32  0.750  0.750  0.000-  23 2.37  29 2.37  31 2.37 127 2.37
  33  0.062  0.062  0.312-  34 2.37  36 2.37  42 2.37  66 2.37
  34  0.000  0.000  0.250-  33 2.37  39 2.37  57 2.37   1 2.37
  35  0.312  0.062  0.312-  36 2.37  38 2.37  44 2.37  68 2.37
  36  0.250  0.000  0.250-  33 2.37  35 2.37  59 2.37   3 2.37
  37  0.562  0.062  0.312-  38 2.37  40 2.37  46 2.37  70 2.37
  38  0.500  0.000  0.250-   5 2.37  35 2.37  37 2.37  61 2.37
  39  0.812  0.062  0.312-  34 2.37  40 2.37  48 2.37  72 2.37
  40  0.750  0.000  0.250-   7 2.37  37 2.37  39 2.37  63 2.37
  41  0.062  0.312  0.312-  42 2.37  44 2.37  50 2.37  74 2.37
  42  0.000  0.250  0.250-   9 2.37  33 2.37  41 2.37  47 2.37
  43  0.312  0.312  0.312-  44 2.37  46 2.37  52 2.37  76 2.37
  44  0.250  0.250  0.250-  11 2.37  35 2.37  41 2.37  43 2.37
  45  0.562  0.312  0.312-  46 2.37  48 2.37  54 2.37  78 2.37
  46  0.500  0.250  0.250-  13 2.37  37 2.37  43 2.37  45 2.37
  47  0.812  0.312  0.312-  42 2.37  48 2.37  56 2.37  80 2.37
  48  0.750  0.250  0.250-  15 2.37  39 2.37  45 2.37  47 2.37
  49  0.062  0.562  0.312-  50 2.37  52 2.37  58 2.37  82 2.37
  50  0.000  0.500  0.250-  17 2.37  41 2.37  49 2.37  55 2.37
  51  0.312  0.562  0.312-  52 2.37  54 2.37  60 2.37  84 2.37
  52  0.250  0.500  0.250-  19 2.37  43 2.37  49 2.37  51 2.37
  53  0.562  0.562  0.312-  54 2.37  56 2.37  62 2.37  86 2.37
  54  0.500  0.500  0.250-  21 2.37  45 2.37  51 2.37  53 2.37
  55  0.812  0.562  0.312-  50 2.37  56 2.37  64 2.37  88 2.37
  56  0.750  0.500  0.250-  23 2.37  47 2.37  53 2.37  55 2.37
  57  0.062  0.812  0.312-  34 2.37  58 2.37  60 2.37  90 2.37
  58  0.000  0.750  0.250-  25 2.37  49 2.37  57 2.37  63 2.37
  59  0.312  0.812  0.312-  36 2.37  60 2.37  62 2.37  92 2.37
  60  0.250  0.750  0.250-  27 2.37  51 2.37  57 2.37  59 2.37
  61  0.562  0.812  0.312-  38 2.37  62 2.37  64 2.37  94 2.37
  62  0.500  0.750  0.250-  29 2.37  53 2.37  59 2.37  61 2.37
  63  0.812  0.812  0.312-  40 2.37  58 2.37  64 2.37  96 2.37
  64  0.750  0.750  0.250-  31 2.37  55 2.37  61 2.37  63 2.37
  65  0.062  0.062  0.562-  66 2.37  68 2.37  74 2.37  98 2.37
  66  0.000  0.000  0.500-  33 2.37  65 2.37  71 2.37  89 2.37
  67  0.312  0.062  0.562-  68 2.37  70 2.37  76 2.37 100 2.37
  68  0.250  0.000  0.500-  35 2.37  65 2.37  67 2.37  91 2.37
  69  0.562  0.062  0.562-  70 2.37  72 2.37  78 2.37 102 2.37
  70  0.500  0.000  0.500-  37 2.37  67 2.37  69 2.37  93 2.37
  71  0.812  0.062  0.562-  66 2.37  72 2.37  80 2.37 104 2.37
  72  0.750  0.000  0.500-  39 2.37  69 2.37  71 2.37  95 2.37
  73  0.062  0.312  0.562-  74 2.37  76 2.37  82 2.37 106 2.37
  74  0.000  0.250  0.500-  41 2.37  65 2.37  73 2.37  79 2.37
  75  0.312  0.312  0.562-  76 2.37  78 2.37  84 2.37 108 2.37
  76  0.250  0.250  0.500-  43 2.37  67 2.37  73 2.37  75 2.37
  77  0.562  0.312  0.562-  78 2.37  80 2.37  86 2.37 110 2.37
  78  0.500  0.250  0.500-  45 2.37  69 2.37  75 2.37  77 2.37
  79  0.812  0.312  0.562-  74 2.37  80 2.37  88 2.37 112 2.37
  80  0.750  0.250  0.500-  47 2.37  71 2.37  77 2.37  79 2.37
  81  0.062  0.562  0.562-  82 2.37  84 2.37  90 2.37 114 2.37
  82  0.000  0.500  0.500-  49 2.37  73 2.37  81 2.37  87 2.37
  83  0.312  0.562  0.562-  84 2.37  86 2.37  92 2.37 116 2.37
  84  0.250  0.500  0.500-  51 2.37  75 2.37  81 2.37  83 2.37
  85  0.562  0.562  0.562-  86 2.37  88 2.37  94 2.37 118 2.37
  86  0.500  0.500  0.500-  53 2.37  77 2.37  83 2.37  85 2.37
  87  0.812  0.562  0.562-  82 2.37  88 2.37  96 2.37 120 2.37
  88  0.750  0.500  0.500-  55 2.37  79 2.37  85 2.37  87 2.37
  89  0.062  0.812  0.562-  66 2.37  90 2.37  92 2.37 122 2.37
  90  0.000  0.750  0.500-  57 2.37  81 2.37  89 2.37  95 2.37
  91  0.312  0.812  0.562-  68 2.37  92 2.37  94 2.37 124 2.37
  92  0.250  0.750  0.500-  59 2.37  83 2.37  89 2.37  91 2.37
  93  0.562  0.812  0.562-  70 2.37  94 2.37  96 2.37 126 2.37
  94  0.500  0.750  0.500-  61 2.37  85 2.37  91 2.37  93 2.37
  95  0.812  0.812  0.562-  72 2.37  90 2.37  96 2.37 128 2.37
  96  0.750  0.750  0.500-  63 2.37  87 2.37  93 2.37  95 2.37
  97  0.062  0.062  0.812-   2 2.37  98 2.37 100 2.37 106 2.37
  98  0.000  0.000  0.750-  65 2.37  97 2.37 103 2.37 121 2.37
  99  0.312  0.062  0.812-   4 2.37 100 2.37 102 2.37 108 2.37
 100  0.250  0.000  0.750-  67 2.37  97 2.37  99 2.37 123 2.37
 101  0.562  0.062  0.812-   6 2.37 102 2.37 104 2.37 110 2.37
 102  0.500  0.000  0.750-  69 2.37  99 2.37 101 2.37 125 2.37
 103  0.812  0.062  0.812-   8 2.37  98 2.37 104 2.37 112 2.37
 104  0.750  0.000  0.750-  71 2.37 101 2.37 103 2.37 127 2.37
 105  0.062  0.312  0.812-  10 2.37 106 2.37 108 2.37 114 2.37
 106  0.000  0.250  0.750-  73 2.37  97 2.37 105 2.37 111 2.37
 107  0.312  0.312  0.812-  12 2.37 108 2.37 110 2.37 116 2.37
 108  0.250  0.250  0.750-  75 2.37  99 2.37 105 2.37 107 2.37
 109  0.562  0.312  0.812-  14 2.37 110 2.37 112 2.37 118 2.37
 110  0.500  0.250  0.750-  77 2.37 101 2.37 107 2.37 109 2.37
 111  0.812  0.312  0.812-  16 2.37 106 2.37 112 2.37 120 2.37
 112  0.750  0.250  0.750-  79 2.37 103 2.37 109 2.37 111 2.37
 113  0.062  0.562  0.812-  18 2.37 114 2.37 116 2.37 122 2.37
 114  0.000  0.500  0.750-  81 2.37 105 2.37 113 2.37 119 2.37
 115  0.312  0.562  0.812-  20 2.37 116 2.37 118 2.37 124 2.37
 116  0.250  0.500  0.750-  83 2.37 107 2.37 113 2.37 115 2.37
 117  0.562  0.562  0.812-  22 2.37 118 2.37 120 2.37 126 2.37
 118  0.500  0.500  0.750-  85 2.37 109 2.37 115 2.37 117 2.37
 119  0.812  0.562  0.812-  24 2.37 114 2.37 120 2.37 128 2.37
 120  0.750  0.500  0.750-  87 2.37 111 2.37 117 2.37 119 2.37
 121  0.062  0.812  0.812-  26 2.37  98 2.37 122 2.37 124 2.37
 122  0.000  0.750  0.750-  89 2.37 113 2.37 121 2.37 127 2.37
 123  0.312  0.812  0.812-  28 2.37 100 2.37 124 2.37 126 2.37
 124  0.250  0.750  0.750-  91 2.37 115 2.37 121 2.37 123 2.37
 125  0.562  0.812  0.812-  30 2.37 102 2.37 126 2.37 128 2.37
 126  0.500  0.750  0.750-  93 2.37 117 2.37 123 2.37 125 2.37
 127  0.812  0.812  0.812-  32 2.37 104 2.37 122 2.37 128 2.37
 128  0.750  0.750  0.750-  95 2.37 119 2.37 125 2.37 127 2.37
 

IMPORTANT INFORMATION: All symmetrisations will be switched off!
NOSYMM: (Re-)initialisation of all symmetry stuff for point group C_1.

 
 
 KPOINTS: K-Spacing Value to Generate K-Mesh: 0.03

Automatic generation of k-mesh.
Space group operators:
 irot       det(A)        alpha          n_x          n_y          n_z        tau_x        tau_y        tau_z
    1     1.000000     0.000000     1.000000     0.000000     0.000000     0.000000     0.000000     0.000000
 
 Subroutine IBZKPT returns following result:
 ===========================================
 
 Found      1 irreducible k-points:
 
 Following reciprocal coordinates:
            Coordinates               Weight
  0.000000  0.000000  0.000000      1.000000
 
 Following cartesian coordinates:
            Coordinates               Weight
  0.000000  0.000000  0.000000      1.000000
 


--------------------------------------------------------------------------------------------------------




 Dimension of arrays:
   k-points           NKPTS =      1   k-points in BZ     NKDIM =      1   number of bands    NBANDS=    322
   number of dos      NEDOS =    301   number of ions     NIONS =    128
   non local maximal  LDIM  =      4   non local SUM 2l+1 LMDIM =      8
   total plane-waves  NPLWV = ******
   max r-space proj   IRMAX =      1   max aug-charges    IRDMAX= 176819
   dimension x,y,z NGX =   120 NGY =  120 NGZ =  120
   dimension x,y,z NGXF=   240 NGYF=  240 NGZF=  240
   support grid    NGXF=   480 NGYF=  480 NGZF=  480
   ions per type =             128
   NGX,Y,Z   is equivalent  to a cutoff of  12.90, 12.90, 12.90 a.u.
   NGXF,Y,Z  is equivalent  to a cutoff of  25.80, 25.80, 25.80 a.u.

 SYSTEM =  unknown system                          
 POSCAR =  Si                                      

 Startparameter for this run:
   NWRITE =      2    write-flag & timer
   PREC   = accura    normal or accurate (medium, high low for compatibility)
   ISTART =      0    job   : 0-new  1-cont  2-samecut
   ICHARG =      2    charge: 1-file 2-atom 10-const
   ISPIN  =      1    spin polarized calculation?
   LNONCOLLINEAR =      F non collinear calculations
   LSORBIT =      F    spin-orbit coupling
   INIWAV =      1    electr: 0-lowe 1-rand  2-diag
   LASPH  =      F    aspherical Exc in radial PAW
   METAGGA=      F    non-selfconsistent MetaGGA calc.

 Electronic Relaxation 1
   ENCUT  =  500.0 eV  36.75 Ry    6.06 a.u.  28.20 28.20 28.20*2*pi/ulx,y,z
   ENINI  =  500.0     initial cutoff
   ENAUG  =  322.1 eV  augmentation charge cutoff
   NELM   =     60;   NELMIN=  2; NELMDL= -5     # of ELM steps 
   EDIFF  = 0.1E-07   stopping-criterion for ELM
   LREAL  =      F    real-space projection
   NLSPLINE    = F    spline interpolate recip. space projectors
   LCOMPAT=      F    compatible to vasp.4.4
   GGA_COMPAT  = T    GGA compatible to vasp.4.4-vasp.4.6
   LMAXPAW     = -100 max onsite density
   LMAXMIX     =    2 max onsite mixed and CHGCAR
   VOSKOWN=      0    Vosko Wilk Nusair interpolation
   ROPT   =    0.00000
 Ionic relaxation
   EDIFFG = 0.1E-06   stopping-criterion for IOM
   NSW    =      0    number of steps for IOM
   NBLOCK =      1;   KBLOCK =      1    inner block; outer block 
   IBRION =     -1    ionic relax: 0-MD 1-quasi-New 2-CG
   NFREE  =      0    steps in history (QN), initial steepest desc. (CG)
   ISIF   =      2    stress and relaxation
   IWAVPR =     10    prediction:  0-non 1-charg 2-wave 3-comb
   ISYM   =      0    0-nonsym 1-usesym 2-fastsym
   LCORR  =      T    Harris-Foulkes like correction to forces

   POTIM  = 0.5000    time-step for ionic-motion
   TEIN   =    0.0    initial temperature
   TEBEG  =    0.0;   TEEND  =   0.0 temperature during run
   SMASS  =  -3.00    Nose mass-parameter (am)
   estimated Nose-frequenzy (Omega)   =  0.10E-29 period in steps =****** mass=  -0.547E-26a.u.
   SCALEE = 1.0000    scale energy and forces
   NPACO  =    256;   APACO  = 16.0  distance and # of slots for P.C.
   PSTRESS=    0.0 pullay stress

  Mass of Ions in am
   POMASS =  28.09
  Ionic Valenz
   ZVAL   =   4.00
  Atomic Wigner-Seitz radii
   RWIGS  =  -1.00
  virtual crystal weights 
   VCA    =   1.00
   NELECT =     512.0000    total number of electrons
   NUPDOWN=      -1.0000    fix difference up-down

 DOS related values:
   EMIN   =  10.00;   EMAX   =-10.00  energy-range for DOS
   EFERMI =   0.00
   ISMEAR =     0;   SIGMA  =   0.05  broadening in eV -4-tet -1-fermi 0-gaus

 Electronic relaxation 2 (details)
   IALGO  =     38    algorithm
   LDIAG  =      T    sub-space diagonalisation (order eigenvalues)
   LSUBROT=      F    optimize rotation matrix (better conditioning)
   TURBO    =      0    0=normal 1=particle mesh
   IRESTART =      0    0=no restart 2=restart with 2 vectors
   NREBOOT  =      0    no. of reboots
   NMIN     =      0    reboot dimension
   EREF     =   0.00    reference energy to select bands
   IMIX   =      4    mixing-type and parameters
     AMIX     =   0.40;   BMIX     =  1.00
     AMIX_MAG =   1.60;   BMIX_MAG =  1.00
     AMIN     =   0.10
     WC   =   100.;   INIMIX=   1;  MIXPRE=   1;  MAXMIX= -45

 Intra band minimization:
   WEIMIN = 0.0000     energy-eigenvalue tresh-hold
   EBREAK =  0.78E-11  absolut break condition
   DEPER  =   0.30     relativ break condition  

   TIME   =   0.40     timestep for ELM

  volume/ion in A,a.u.               =      20.44       137.95
  Fermi-wavevector in a.u.,A,eV,Ry     =   0.950423  1.796039 12.290193  0.903304
  Thomas-Fermi vector in A             =   2.078798
 
 Write flags
   LWAVE        =      F    write WAVECAR
   LDOWNSAMPLE  =      F    k-point downsampling of WAVECAR
   LCHARG       =      F    write CHGCAR
   LVTOT        =      F    write LOCPOT, total local potential
   LVHAR        =      F    write LOCPOT, Hartree potential only
   LELF         =      F    write electronic localiz. function (ELF)
   LORBIT       =      0    0 simple, 1 ext, 2 COOP (PROOUT), +10 PAW based schemes


 Dipole corrections
   LMONO  =      F    monopole corrections only (constant potential shift)
   LDIPOL =      F    correct potential (dipole corrections)
   IDIPOL =      0    1-x, 2-y, 3-z, 4-all directions 
   EPSILON=  1.0000000 bulk dielectric constant

 Exchange correlation treatment:
   GGA     =    --    GGA type
   LEXCH   =     8    internal setting for exchange type
   VOSKOWN=      0    Vosko Wilk Nusair interpolation
   LHFCALC =     F    Hartree Fock is set to
   LHFONE  =     F    Hartree Fock one center treatment
   AEXX    =    0.0000 exact exchange contribution

 Linear response parameters
   LEPSILON=     F    determine dielectric tensor
   LRPA    =     F    only Hartree local field effects (RPA)
   LNABLA  =     F    use nabla operator in PAW spheres
   LVEL    =     F    velocity operator in full k-point grid
   LINTERFAST=   F  fast interpolation
   KINTER  =     0    interpolate to denser k-point grid
   CSHIFT  =0.1000    complex shift for real part using Kramers Kronig
   OMEGAMAX=  -1.0    maximum frequency
   DEG_THRESHOLD= 0.2000000E-02 threshold for treating states as degnerate
   RTIME   =   -0.100 relaxation time in fs
  (WPLASMAI=    0.000 imaginary part of plasma frequency in eV, 0.658/RTIME)
   DFIELD  = 0.0000000 0.0000000 0.0000000 field for delta impulse in time
 
 Orbital magnetization related:
   ORBITALMAG=     F  switch on orbital magnetization
   LCHIMAG   =     F  perturbation theory with respect to B field
   DQ        =  0.001000  dq finite difference perturbation B field
   LLRAUG    =     F  two centre corrections for induced B field



--------------------------------------------------------------------------------------------------------


 Static calculation
 charge density and potential will be updated during run
 non-spin polarized calculation
 Variant of blocked Davidson
 Davidson routine will perform the subspace rotation
 perform sub-space diagonalisation
    after iterative eigenvector-optimisation
 modified Broyden-mixing scheme, WC =      100.0
 initial mixing is a Kerker type mixing with AMIX =  0.4000 and BMIX =      1.0000
 Hartree-type preconditioning will be used
 using additional bands           66
 reciprocal scheme for non local part
 use partial core corrections
 calculate Harris-corrections to forces 
   (improved forces if not selfconsistent)
 use gradient corrections 
 use of overlap-Matrix (Vanderbilt PP)
 Gauss-broadening in eV      SIGMA  =   0.05


--------------------------------------------------------------------------------------------------------


  energy-cutoff  :      500.00
  volume of cell :     2616.64
      direct lattice vectors                 reciprocal lattice vectors
     0.000000000 10.937160696 10.937160696    -0.045715704  0.045715704  0.045715704
    10.937160696  0.000000000 10.937160696     0.045715704 -0.045715704  0.045715704
    10.937160696 10.937160696  0.000000000     0.045715704  0.045715704 -0.045715704

  length of vectors
    15.467480990 15.467480990 15.467480990     0.079181922  0.079181922  0.079181922


 
 k-points in units of 2pi/SCALE and weight: K-Spacing Value to Generate K-Mesh: 0.03
   0.00000000  0.00000000  0.00000000       1.000
 
 k-points in reciprocal lattice and weights: K-Spacing Value to Generate K-Mesh: 0.03
   0.00000000  0.00000000  0.00000000       1.000
 
 position of ions in fractional coordinates (direct lattice) 
   0.06295716  0.06295716  0.06204284
   0.00000000  0.00000000  0.00000000
   0.31295716  0.06204284  0.06204284
   0.25000000  0.00000000  0.00000000
   0.56250000  0.06250000  0.06250000
   0.50000000  0.00000000  0.00000000
   0.81250000  0.06250000  0.06250000
   0.75000000  0.00000000  0.00000000
   0.06250000  0.31250000  0.06250000
   0.00000000  0.25000000  0.00000000
   0.31250000  0.31250000  0.06250000
   0.25000000  0.25000000  0.00000000
   0.56250000  0.31250000  0.06250000
   0.50000000  0.25000000  0.00000000
   0.81250000  0.31250000  0.06250000
   0.75000000  0.25000000  0.00000000
   0.06250000  0.56250000  0.06250000
   0.00000000  0.50000000  0.00000000
   0.31250000  0.56250000  0.06250000
   0.25000000  0.50000000  0.00000000
   0.56250000  0.56250000  0.06250000
   0.50000000  0.50000000  0.00000000
   0.81250000  0.56250000  0.06250000
   0.75000000  0.50000000  0.00000000
   0.06250000  0.81250000  0.06250000
   0.00000000  0.75000000  0.00000000
   0.31250000  0.81250000  0.06250000
   0.25000000  0.75000000  0.00000000
   0.56250000  0.81250000  0.06250000
   0.50000000  0.75000000  0.00000000
   0.81250000  0.81250000  0.06250000
   0.75000000  0.75000000  0.00000000
   0.06250000  0.06250000  0.31250000
   0.00000000  0.00000000  0.25000000
   0.31250000  0.06250000  0.31250000
   0.25000000  0.00000000  0.25000000
   0.56250000  0.06250000  0.31250000
   0.50000000  0.00000000  0.25000000
   0.81250000  0.06250000  0.31250000
   0.75000000  0.00000000  0.25000000
   0.06250000  0.31250000  0.31250000
   0.00000000  0.25000000  0.25000000
   0.31250000  0.31250000  0.31250000
   0.25000000  0.25000000  0.25000000
   0.56250000  0.31250000  0.31250000
   0.50000000  0.25000000  0.25000000
   0.81250000  0.31250000  0.31250000
   0.75000000  0.25000000  0.25000000
   0.06250000  0.56250000  0.31250000
   0.00000000  0.50000000  0.25000000
   0.31250000  0.56250000  0.31250000
   0.25000000  0.50000000  0.25000000
   0.56250000  0.56250000  0.31250000
   0.50000000  0.50000000  0.25000000
   0.81250000  0.56250000  0.31250000
   0.75000000  0.50000000  0.25000000
   0.06250000  0.81250000  0.31250000
   0.00000000  0.75000000  0.25000000
   0.31250000  0.81250000  0.31250000
   0.25000000  0.75000000  0.25000000
   0.56250000  0.81250000  0.31250000
   0.50000000  0.75000000  0.25000000
   0.81250000  0.81250000  0.31250000
   0.75000000  0.75000000  0.25000000
   0.06250000  0.06250000  0.56250000
   0.00000000  0.00000000  0.50000000
   0.31250000  0.06250000  0.56250000
   0.25000000  0.00000000  0.50000000
   0.56250000  0.06250000  0.56250000
   0.50000000  0.00000000  0.50000000
   0.81250000  0.06250000  0.56250000
   0.75000000  0.00000000  0.50000000
   0.06250000  0.31250000  0.56250000
   0.00000000  0.25000000  0.50000000
   0.31250000  0.31250000  0.56250000
   0.25000000  0.25000000  0.50000000
   0.56250000  0.31250000  0.56250000
   0.50000000  0.25000000  0.50000000
   0.81250000  0.31250000  0.56250000
   0.75000000  0.25000000  0.50000000
   0.06250000  0.56250000  0.56250000
   0.00000000  0.50000000  0.50000000
   0.31250000  0.56250000  0.56250000
   0.25000000  0.50000000  0.50000000
   0.56250000  0.56250000  0.56250000
   0.50000000  0.50000000  0.50000000
   0.81250000  0.56250000  0.56250000
   0.75000000  0.50000000  0.50000000
   0.06250000  0.81250000  0.56250000
   0.00000000  0.75000000  0.50000000
   0.31250000  0.81250000  0.56250000
   0.25000000  0.75000000  0.50000000
   0.56250000  0.81250000  0.56250000
   0.50000000  0.75000000  0.50000000
   0.81250000  0.81250000  0.56250000
   0.75000000  0.75000000  0.50000000
   0.06250000  0.06250000  0.81250000
   0.00000000  0.00000000  0.75000000
   0.31250000  0.06250000  0.81250000
   0.25000000  0.00000000  0.75000000
   0.56250000  0.06250000  0.81250000
   0.50000000  0.00000000  0.75000000
   0.81250000  0.06250000  0.81250000
   0.75000000  0.00000000  0.75000000
   0.06250000  0.31250000  0.81250000
   0.00000000  0.25000000  0.75000000
   0.31250000  0.31250000  0.81250000
   0.25000000  0.25000000  0.75000000
   0.56250000  0.31250000  0.81250000
   0.50000000  0.25000000  0.75000000
   0.81250000  0.31250000  0.81250000
   0.75000000  0.25000000  0.75000000
   0.06250000  0.56250000  0.81250000
   0.00000000  0.50000000  0.75000000
   0.31250000  0.56250000  0.81250000
   0.25000000  0.50000000  0.75000000
   0.56250000  0.56250000  0.81250000
   0.50000000  0.50000000  0.75000000
   0.81250000  0.56250000  0.81250000
   0.75000000  0.50000000  0.75000000
   0.06250000  0.81250000  0.81250000
   0.00000000  0.75000000  0.75000000
   0.31250000  0.81250000  0.81250000
   0.25000000  0.75000000  0.75000000
   0.56250000  0.81250000  0.81250000
   0.50000000  0.75000000  0.75000000
   0.81250000  0.81250000  0.81250000
   0.75000000  0.75000000  0.75000000
 
 position of ions in cartesian coordinates  (Angst):
   1.36714509  1.36714509  1.37714509
   0.00000000  0.00000000  0.00000000
   1.35714509  4.10143526  4.10143526
   0.00000000  2.73429017  2.73429017
   1.36714509  6.83572544  6.83572544
   0.00000000  5.46858035  5.46858035
   1.36714509  9.57001561  9.57001561
   0.00000000  8.20287052  8.20287052
   4.10143526  1.36714509  4.10143526
   2.73429017  0.00000000  2.73429017
   4.10143526  4.10143526  6.83572544
   2.73429017  2.73429017  5.46858035
   4.10143526  6.83572544  9.57001561
   2.73429017  5.46858035  8.20287052
   4.10143526  9.57001561 12.30430578
   2.73429017  8.20287052 10.93716070
   6.83572544  1.36714509  6.83572544
   5.46858035  0.00000000  5.46858035
   6.83572544  4.10143526  9.57001561
   5.46858035  2.73429017  8.20287052
   6.83572544  6.83572544 12.30430578
   5.46858035  5.46858035 10.93716070
   6.83572544  9.57001561 15.03859596
   5.46858035  8.20287052 13.67145087
   9.57001561  1.36714509  9.57001561
   8.20287052  0.00000000  8.20287052
   9.57001561  4.10143526 12.30430578
   8.20287052  2.73429017 10.93716070
   9.57001561  6.83572544 15.03859596
   8.20287052  5.46858035 13.67145087
   9.57001561  9.57001561 17.77288613
   8.20287052  8.20287052 16.40574104
   4.10143526  4.10143526  1.36714509
   2.73429017  2.73429017  0.00000000
   4.10143526  6.83572544  4.10143526
   2.73429017  5.46858035  2.73429017
   4.10143526  9.57001561  6.83572544
   2.73429017  8.20287052  5.46858035
   4.10143526 12.30430578  9.57001561
   2.73429017 10.93716070  8.20287052
   6.83572544  4.10143526  4.10143526
   5.46858035  2.73429017  2.73429017
   6.83572544  6.83572544  6.83572544
   5.46858035  5.46858035  5.46858035
   6.83572544  9.57001561  9.57001561
   5.46858035  8.20287052  8.20287052
   6.83572544 12.30430578 12.30430578
   5.46858035 10.93716070 10.93716070
   9.57001561  4.10143526  6.83572544
   8.20287052  2.73429017  5.46858035
   9.57001561  6.83572544  9.57001561
   8.20287052  5.46858035  8.20287052
   9.57001561  9.57001561 12.30430578
   8.20287052  8.20287052 10.93716070
   9.57001561 12.30430578 15.03859596
   8.20287052 10.93716070 13.67145087
  12.30430578  4.10143526  9.57001561
  10.93716070  2.73429017  8.20287052
  12.30430578  6.83572544 12.30430578
  10.93716070  5.46858035 10.93716070
  12.30430578  9.57001561 15.03859596
  10.93716070  8.20287052 13.67145087
  12.30430578 12.30430578 17.77288613
  10.93716070 10.93716070 16.40574104
   6.83572544  6.83572544  1.36714509
   5.46858035  5.46858035  0.00000000
   6.83572544  9.57001561  4.10143526
   5.46858035  8.20287052  2.73429017
   6.83572544 12.30430578  6.83572544
   5.46858035 10.93716070  5.46858035
   6.83572544 15.03859596  9.57001561
   5.46858035 13.67145087  8.20287052
   9.57001561  6.83572544  4.10143526
   8.20287052  5.46858035  2.73429017
   9.57001561  9.57001561  6.83572544
   8.20287052  8.20287052  5.46858035
   9.57001561 12.30430578  9.57001561
   8.20287052 10.93716070  8.20287052
   9.57001561 15.03859596 12.30430578
   8.20287052 13.67145087 10.93716070
  12.30430578  6.83572544  6.83572544
  10.93716070  5.46858035  5.46858035
  12.30430578  9.57001561  9.57001561
  10.93716070  8.20287052  8.20287052
  12.30430578 12.30430578 12.30430578
  10.93716070 10.93716070 10.93716070
  12.30430578 15.03859596 15.03859596
  10.93716070 13.67145087 13.67145087
  15.03859596  6.83572544  9.57001561
  13.67145087  5.46858035  8.20287052
  15.03859596  9.57001561 12.30430578
  13.67145087  8.20287052 10.93716070
  15.03859596 12.30430578 15.03859596
  13.67145087 10.93716070 13.67145087
  15.03859596 15.03859596 17.77288613
  13.67145087 13.67145087 16.40574104
   9.57001561  9.57001561  1.36714509
   8.20287052  8.20287052  0.00000000
   9.57001561 12.30430578  4.10143526
   8.20287052 10.93716070  2.73429017
   9.57001561 15.03859596  6.83572544
   8.20287052 13.67145087  5.46858035
   9.57001561 17.77288613  9.57001561
   8.20287052 16.40574104  8.20287052
  12.30430578  9.57001561  4.10143526
  10.93716070  8.20287052  2.73429017
  12.30430578 12.30430578  6.83572544
  10.93716070 10.93716070  5.46858035
  12.30430578 15.03859596  9.57001561
  10.93716070 13.67145087  8.20287052
  12.30430578 17.77288613 12.30430578
  10.93716070 16.40574104 10.93716070
  15.03859596  9.57001561  6.83572544
  13.67145087  8.20287052  5.46858035
  15.03859596 12.30430578  9.57001561
  13.67145087 10.93716070  8.20287052
  15.03859596 15.03859596 12.30430578
  13.67145087 13.67145087 10.93716070
  15.03859596 17.77288613 15.03859596
  13.67145087 16.40574104 13.67145087
  17.77288613  9.57001561  9.57001561
  16.40574104  8.20287052  8.20287052
  17.77288613 12.30430578 12.30430578
  16.40574104 10.93716070 10.93716070
  17.77288613 15.03859596 15.03859596
  16.40574104 13.67145087 13.67145087
  17.77288613 17.77288613 17.77288613
  16.40574104 16.40574104 16.40574104
 


--------------------------------------------------------------------------------------------------------


 k-point  1 :   0.0000 0.0000 0.0000  plane waves:   66299

 maximum and minimum number of plane-waves per node :      3320     3310

 maximum number of plane-waves:     66299
 maximum index in each direction: 
   IXMAX=   28   IYMAX=   28   IZMAX=   28
   IXMIN=  -28   IYMIN=  -28   IZMIN=  -28


 parallel 3D FFT for wavefunctions:
    minimum data exchange during FFTs selected (reduces bandwidth)
 parallel 3D FFT for charge:
    minimum data exchange during FFTs selected (reduces bandwidth)


 total amount of memory used by VASP MPI-rank0   118934. kBytes
=======================================================================

   base      :      30000. kBytes
   nonl-proj :       7011. kBytes
   fftplans  :      53058. kBytes
   grid      :      20148. kBytes
   one-center:         21. kBytes
   wavefun   :       8696. kBytes
 
     INWAV:  cpu time    0.0000: real time    0.0002
 Broyden mixing: mesh for mixing (old mesh)
   NGX = 57   NGY = 57   NGZ = 57
  (NGX  =240   NGY  =240   NGZ  =240)
  gives a total of 185193 points

 initial charge density was supplied:
 charge density of overlapping atoms calculated
 number of electron     512.0000000 magnetization 
 keeping initial charge density in first step


--------------------------------------------------------------------------------------------------------


 Maximum index for augmentation-charges         4417 (set IRDMAX)


--------------------------------------------------------------------------------------------------------


 First call to EWALD:  gamma=   0.129
 Maximum number of real-space cells 3x 3x 3
 Maximum number of reciprocal cells 3x 3x 3

    FEWALD:  cpu time    0.0049: real time    0.0049


--------------------------------------- Iteration      1(   1)  ---------------------------------------


    POTLOK:  cpu time    0.2298: real time    0.2354
    SETDIJ:  cpu time    0.2989: real time    0.3028
     EDDAV:  cpu time    4.8088: real time    4.8237
       DOS:  cpu time    0.0006: real time    0.0006
    --------------------------------------------
      LOOP:  cpu time    5.3381: real time    5.3625

 eigenvalue-minimisations  :   644
 total energy-change (2. order) : 0.1374885E+04  (-0.1908717E+05)
 number of electron     512.0000000 magnetization 
 augmentation part      512.0000000 magnetization 

 Free energy of the ion-electron system (eV)
  ---------------------------------------------------
  alpha Z        PSCENC =       210.78028765
  Ewald energy   TEWEN  =    -14524.86522100
  -Hartree energ DENC   =      -724.62052845
  -exchange      EXHF   =         0.00000000
  -V(xc)+E(xc)   XCENC  =     -1195.83148142
  PAW double counting   =      4221.13331941    -1969.18571412
  entropy T*S    EENTRO =        -0.01605641
  eigenvalues    EBANDS =      2165.00956095
  atomic energy  EATOM  =     13192.48085998
  Solvation  Ediel_sol  =         0.00000000
  ---------------------------------------------------
  free energy    TOTEN  =      1374.88502661 eV

  energy without entropy =     1374.90108302  energy(sigma->0) =     1374.89305481


--------------------------------------------------------------------------------------------------------




--------------------------------------- Iteration      1(   2)  ---------------------------------------


     EDDAV:  cpu time    5.4647: real time    5.4807
       DOS:  cpu time    0.0005: real time    0.0005
    --------------------------------------------
      LOOP:  cpu time    5.4652: real time    5.4812

 eigenvalue-minimisations  :   758
 total energy-change (2. order) :-0.1911904E+04  (-0.1811831E+04)
 number of electron     512.0000000 magnetization 
 augmentation part      512.0000000 magnetization 

 Free energy of the ion-electron system (eV)
  ---------------------------------------------------
  alpha Z        PSCENC =       210.78028765
  Ewald energy   TEWEN  =    -14524.86522100
  -Hartree energ DENC   =      -724.62052845
  -exchange      EXHF   =         0.00000000
  -V(xc)+E(xc)   XCENC  =     -1195.83148142
  PAW double counting   =      4221.13331941    -1969.18571412
  entropy T*S    EENTRO =        -0.00000192
  eigenvalues    EBANDS =       253.08918109
  atomic energy  EATOM  =     13192.48085998
  Solvation  Ediel_sol  =         0.00000000
  ---------------------------------------------------
  free energy    TOTEN  =      -537.01929876 eV

  energy without entropy =     -537.01929684  energy(sigma->0) =     -537.01929780


--------------------------------------------------------------------------------------------------------




--------------------------------------- Iteration      1(   3)  ---------------------------------------


     EDDAV:  cpu time    5.4887: real time    5.5086
       DOS:  cpu time    0.0003: real time    0.0003
    --------------------------------------------
      LOOP:  cpu time    5.4890: real time    5.5089

 eigenvalue-minimisations  :   768
 total energy-change (2. order) :-0.1530042E+03  (-0.1483210E+03)
 number of electron     512.0000000 magnetization 
 augmentation part      512.0000000 magnetization 

 Free energy of the ion-electron system (eV)
  ---------------------------------------------------
  alpha Z        PSCENC =       210.78028765
  Ewald energy   TEWEN  =    -14524.86522100
  -Hartree energ DENC   =      -724.62052845
  -exchange      EXHF   =         0.00000000
  -V(xc)+E(xc)   XCENC  =     -1195.83148142
  PAW double counting   =      4221.13331941    -1969.18571412
  entropy T*S    EENTRO =        -0.00000000
  eigenvalues    EBANDS =       100.08499626
  atomic energy  EATOM  =     13192.48085998
  Solvation  Ediel_sol  =         0.00000000
  ---------------------------------------------------
  free energy    TOTEN  =      -690.02348167 eV

  energy without entropy =     -690.02348167  energy(sigma->0) =     -690.02348167


--------------------------------------------------------------------------------------------------------




--------------------------------------- Iteration      1(   4)  ---------------------------------------


     EDDAV:  cpu time    5.4015: real time    5.4151
       DOS:  cpu time    0.0003: real time    0.0003
    --------------------------------------------
      LOOP:  cpu time    5.4018: real time    5.4154

 eigenvalue-minimisations  :   752
 total energy-change (2. order) :-0.4509693E+01  (-0.4453844E+01)
 number of electron     512.0000000 magnetization 
 augmentation part      512.0000000 magnetization 

 Free energy of the ion-electron system (eV)
  ---------------------------------------------------
  alpha Z        PSCENC =       210.78028765
  Ewald energy   TEWEN  =    -14524.86522100
  -Hartree energ DENC   =      -724.62052845
  -exchange      EXHF   =         0.00000000
  -V(xc)+E(xc)   XCENC  =     -1195.83148142
  PAW double counting   =      4221.13331941    -1969.18571412
  entropy T*S    EENTRO =        -0.00000000
  eigenvalues    EBANDS =        95.57530352
  atomic energy  EATOM  =     13192.48085998
  Solvation  Ediel_sol  =         0.00000000
  ---------------------------------------------------
  free energy    TOTEN  =      -694.53317441 eV

  energy without entropy =     -694.53317441  energy(sigma->0) =     -694.53317441


--------------------------------------------------------------------------------------------------------




--------------------------------------- Iteration      1(   5)  ---------------------------------------


     EDDAV:  cpu time    5.3580: real time    5.3730
       DOS:  cpu time    0.0004: real time    0.0004
    CHARGE:  cpu time    0.5147: real time    0.5160
    MIXING:  cpu time    0.0102: real time    0.0103
    --------------------------------------------
      LOOP:  cpu time    5.8833: real time    5.8998

 eigenvalue-minimisations  :   736
 total energy-change (2. order) :-0.1655287E+00  (-0.1647351E+00)
 number of electron     511.9999999 magnetization 
 augmentation part      -29.7895527 magnetization 

 Broyden mixing:
  rms(total) = 0.24757E+01    rms(broyden)= 0.24757E+01
  rms(prec ) = 0.29957E+01
  weight for this iteration     100.00

 Free energy of the ion-electron system (eV)
  ---------------------------------------------------
  alpha Z        PSCENC =       210.78028765
  Ewald energy   TEWEN  =    -14524.86522100
  -Hartree energ DENC   =      -724.62052845
  -exchange      EXHF   =         0.00000000
  -V(xc)+E(xc)   XCENC  =     -1195.83148142
  PAW double counting   =      4221.13331941    -1969.18571412
  entropy T*S    EENTRO =        -0.00000000
  eigenvalues    EBANDS =        95.40977481
  atomic energy  EATOM  =     13192.48085998
  Solvation  Ediel_sol  =         0.00000000
  ---------------------------------------------------
  free energy    TOTEN  =      -694.69870312 eV

  energy without entropy =     -694.69870312  energy(sigma->0) =     -694.69870312


--------------------------------------------------------------------------------------------------------




--------------------------------------- Iteration      1(   6)  ---------------------------------------


    POTLOK:  cpu time    0.2240: real time    0.2276
    SETDIJ:  cpu time    0.2789: real time    0.2796
     EDDAV:  cpu time    5.0926: real time    5.1054
       DOS:  cpu time    0.0004: real time    0.0004
    CHARGE:  cpu time    0.5003: real time    0.5016
    MIXING:  cpu time    0.0102: real time    0.0102
    --------------------------------------------
      LOOP:  cpu time    6.1064: real time    6.1249

 eigenvalue-minimisations  :   680
 total energy-change (2. order) : 0.8398815E+01  (-0.4784307E+00)
 number of electron     511.9999999 magnetization 
 augmentation part      -29.4083439 magnetization 

 Broyden mixing:
  rms(total) = 0.14788E+01    rms(broyden)= 0.14788E+01
  rms(prec ) = 0.17864E+01
  weight for this iteration     100.00

 eigenvalues of (default mixing * dielectric matrix)
  average eigenvalue GAMMA=   2.4617
  2.4617

 Free energy of the ion-electron system (eV)
  ---------------------------------------------------
  alpha Z        PSCENC =       210.78028765
  Ewald energy   TEWEN  =    -14524.86522100
  -Hartree energ DENC   =      -824.84926644
  -exchange      EXHF   =         0.00000000
  -V(xc)+E(xc)   XCENC  =     -1180.31912304
  PAW double counting   =      4464.76442980    -2219.65133244
  entropy T*S    EENTRO =        -0.00000000
  eigenvalues    EBANDS =       195.35947729
  atomic energy  EATOM  =     13192.48085998
  Solvation  Ediel_sol  =         0.00000000
  ---------------------------------------------------
  free energy    TOTEN  =      -686.29988818 eV

  energy without entropy =     -686.29988818  energy(sigma->0) =     -686.29988818


--------------------------------------------------------------------------------------------------------




--------------------------------------- Iteration      1(   7)  ---------------------------------------


    POTLOK:  cpu time    0.2240: real time    0.2248
    SETDIJ:  cpu time    0.2793: real time    0.2800
     EDDAV:  cpu time    4.9585: real time    4.9709
       DOS:  cpu time    0.0004: real time    0.0004
    CHARGE:  cpu time    0.4996: real time    0.5009
    MIXING:  cpu time    0.0098: real time    0.0098
    --------------------------------------------
      LOOP:  cpu time    5.9717: real time    5.9868

 eigenvalue-minimisations  :   672
 total energy-change (2. order) : 0.3872898E+01  (-0.9698561E+00)
 number of electron     511.9999999 magnetization 
 augmentation part      -28.9142363 magnetization 

 Broyden mixing:
  rms(total) = 0.13038E+00    rms(broyden)= 0.13038E+00
  rms(prec ) = 0.15181E+00
  weight for this iteration     100.00

 eigenvalues of (default mixing * dielectric matrix)
  average eigenvalue GAMMA=   2.4929
  2.4929  2.4929

 Free energy of the ion-electron system (eV)
  ---------------------------------------------------
  alpha Z        PSCENC =       210.78028765
  Ewald energy   TEWEN  =    -14524.86522100
  -Hartree energ DENC   =      -991.88211424
  -exchange      EXHF   =         0.00000000
  -V(xc)+E(xc)   XCENC  =     -1153.93902147
  PAW double counting   =      4789.66737583    -2553.36583212
  entropy T*S    EENTRO =        -0.00000000
  eigenvalues    EBANDS =       348.69667561
  atomic energy  EATOM  =     13192.48085998
  Solvation  Ediel_sol  =         0.00000000
  ---------------------------------------------------
  free energy    TOTEN  =      -682.42698975 eV

  energy without entropy =     -682.42698975  energy(sigma->0) =     -682.42698975


--------------------------------------------------------------------------------------------------------




--------------------------------------- Iteration      1(   8)  ---------------------------------------


    POTLOK:  cpu time    0.2240: real time    0.2247
    SETDIJ:  cpu time    0.2785: real time    0.2792
     EDDAV:  cpu time    5.0412: real time    5.0538
       DOS:  cpu time    0.0005: real time    0.0005
    CHARGE:  cpu time    0.5047: real time    0.5062
    MIXING:  cpu time    0.0090: real time    0.0091
    --------------------------------------------
      LOOP:  cpu time    6.0580: real time    6.0733

 eigenvalue-minimisations  :   680
 total energy-change (2. order) :-0.1320687E+00  (-0.4946969E-01)
 number of electron     511.9999999 magnetization 
 augmentation part      -28.9853462 magnetization 

 Broyden mixing:
  rms(total) = 0.28112E-01    rms(broyden)= 0.28112E-01
  rms(prec ) = 0.37976E-01
  weight for this iteration     100.00

 eigenvalues of (default mixing * dielectric matrix)
  average eigenvalue GAMMA=   2.1010
  1.4518  2.7605  2.0908

 Free energy of the ion-electron system (eV)
  ---------------------------------------------------
  alpha Z        PSCENC =       210.78028765
  Ewald energy   TEWEN  =    -14524.86522100
  -Hartree energ DENC   =      -986.33375009
  -exchange      EXHF   =         0.00000000
  -V(xc)+E(xc)   XCENC  =     -1153.99536794
  PAW double counting   =      4718.76119749    -2480.24292055
  entropy T*S    EENTRO =        -0.00000000
  eigenvalues    EBANDS =       340.85585597
  atomic energy  EATOM  =     13192.48085998
  Solvation  Ediel_sol  =         0.00000000
  ---------------------------------------------------
  free energy    TOTEN  =      -682.55905849 eV

  energy without entropy =     -682.55905849  energy(sigma->0) =     -682.55905849


--------------------------------------------------------------------------------------------------------




--------------------------------------- Iteration      1(   9)  ---------------------------------------


    POTLOK:  cpu time    0.2251: real time    0.2264
    SETDIJ:  cpu time    0.2773: real time    0.2780
     EDDAV:  cpu time    5.4870: real time    5.5006
       DOS:  cpu time    0.0004: real time    0.0004
    CHARGE:  cpu time    0.5023: real time    0.5035
    MIXING:  cpu time    0.0107: real time    0.0107
    --------------------------------------------
      LOOP:  cpu time    6.5026: real time    6.5196

 eigenvalue-minimisations  :   768
 total energy-change (2. order) :-0.6450631E-02  (-0.2456133E-02)
 number of electron     511.9999999 magnetization 
 augmentation part      -28.9800606 magnetization 

 Broyden mixing:
  rms(total) = 0.15915E-01    rms(broyden)= 0.15915E-01
  rms(prec ) = 0.18138E-01
  weight for this iteration     100.00

 eigenvalues of (default mixing * dielectric matrix)
  average eigenvalue GAMMA=   2.2875
  1.0206  3.3890  2.7007  2.0395

 Free energy of the ion-electron system (eV)
  ---------------------------------------------------
  alpha Z        PSCENC =       210.78028765
  Ewald energy   TEWEN  =    -14524.86522100
  -Hartree energ DENC   =      -991.21362355
  -exchange      EXHF   =         0.00000000
  -V(xc)+E(xc)   XCENC  =     -1153.27707174
  PAW double counting   =      4725.23796816    -2486.95677498
  entropy T*S    EENTRO =        -0.00000000
  eigenvalues    EBANDS =       345.24806636
  atomic energy  EATOM  =     13192.48085998
  Solvation  Ediel_sol  =         0.00000000
  ---------------------------------------------------
  free energy    TOTEN  =      -682.56550912 eV

  energy without entropy =     -682.56550912  energy(sigma->0) =     -682.56550912


--------------------------------------------------------------------------------------------------------




--------------------------------------- Iteration      1(  10)  ---------------------------------------


    POTLOK:  cpu time    0.2246: real time    0.2295
    SETDIJ:  cpu time    0.2775: real time    0.2781
     EDDAV:  cpu time    4.9609: real time    4.9738
       DOS:  cpu time    0.0004: real time    0.0004
    CHARGE:  cpu time    0.4999: real time    0.5011
    MIXING:  cpu time    0.0110: real time    0.0110
    --------------------------------------------
      LOOP:  cpu time    5.9743: real time    5.9939

 eigenvalue-minimisations  :   672
 total energy-change (2. order) :-0.2683285E-02  (-0.5902139E-03)
 number of electron     511.9999999 magnetization 
 augmentation part      -28.9811202 magnetization 

 Broyden mixing:
  rms(total) = 0.47928E-02    rms(broyden)= 0.47928E-02
  rms(prec ) = 0.57431E-02
  weight for this iteration     100.00

 eigenvalues of (default mixing * dielectric matrix)
  average eigenvalue GAMMA=   1.9832
  3.2365  2.6102  2.1607  1.0583  0.8506

 Free energy of the ion-electron system (eV)
  ---------------------------------------------------
  alpha Z        PSCENC =       210.78028765
  Ewald energy   TEWEN  =    -14524.86522100
  -Hartree energ DENC   =      -991.21964889
  -exchange      EXHF   =         0.00000000
  -V(xc)+E(xc)   XCENC  =     -1153.35169149
  PAW double counting   =      4721.46328487    -2483.16379411
  entropy T*S    EENTRO =        -0.00000000
  eigenvalues    EBANDS =       345.30773057
  atomic energy  EATOM  =     13192.48085998
  Solvation  Ediel_sol  =         0.00000000
  ---------------------------------------------------
  free energy    TOTEN  =      -682.56819240 eV

  energy without entropy =     -682.56819240  energy(sigma->0) =     -682.56819240


--------------------------------------------------------------------------------------------------------




--------------------------------------- Iteration      1(  11)  ---------------------------------------


    POTLOK:  cpu time    0.2226: real time    0.2234
    SETDIJ:  cpu time    0.2806: real time    0.2813
     EDDAV:  cpu time    5.4677: real time    5.4813
       DOS:  cpu time    0.0004: real time    0.0004
    CHARGE:  cpu time    0.5002: real time    0.5015
    MIXING:  cpu time    0.0108: real time    0.0108
    --------------------------------------------
      LOOP:  cpu time    6.4823: real time    6.4987

 eigenvalue-minimisations  :   760
 total energy-change (2. order) :-0.1341519E-04  (-0.2021548E-04)
 number of electron     511.9999999 magnetization 
 augmentation part      -28.9796174 magnetization 

 Broyden mixing:
  rms(total) = 0.49617E-03    rms(broyden)= 0.49608E-03
  rms(prec ) = 0.57103E-03
  weight for this iteration     100.00

 eigenvalues of (default mixing * dielectric matrix)
  average eigenvalue GAMMA=   2.0305
  3.3649  2.6889  2.1916  1.9699  0.9838  0.9838

 Free energy of the ion-electron system (eV)
  ---------------------------------------------------
  alpha Z        PSCENC =       210.78028765
  Ewald energy   TEWEN  =    -14524.86522100
  -Hartree energ DENC   =      -991.69464532
  -exchange      EXHF   =         0.00000000
  -V(xc)+E(xc)   XCENC  =     -1153.28783042
  PAW double counting   =      4723.32182512    -2485.06748604
  entropy T*S    EENTRO =        -0.00000000
  eigenvalues    EBANDS =       345.76400420
  atomic energy  EATOM  =     13192.48085998
  Solvation  Ediel_sol  =         0.00000000
  ---------------------------------------------------
  free energy    TOTEN  =      -682.56820582 eV

  energy without entropy =     -682.56820582  energy(sigma->0) =     -682.56820582


--------------------------------------------------------------------------------------------------------




--------------------------------------- Iteration      1(  12)  ---------------------------------------


    POTLOK:  cpu time    0.2225: real time    0.2231
    SETDIJ:  cpu time    0.2796: real time    0.2803
     EDDAV:  cpu time    5.3503: real time    5.3636
       DOS:  cpu time    0.0004: real time    0.0004
    CHARGE:  cpu time    0.4991: real time    0.5003
    MIXING:  cpu time    0.0115: real time    0.0115
    --------------------------------------------
      LOOP:  cpu time    6.3634: real time    6.3792

 eigenvalue-minimisations  :   744
 total energy-change (2. order) :-0.4329344E-05  (-0.1295407E-05)
 number of electron     511.9999999 magnetization 
 augmentation part      -28.9793557 magnetization 

 Broyden mixing:
  rms(total) = 0.23367E-03    rms(broyden)= 0.23347E-03
  rms(prec ) = 0.26497E-03
  weight for this iteration     100.00

 eigenvalues of (default mixing * dielectric matrix)
  average eigenvalue GAMMA=   1.9171
  3.3094  2.6885  2.2442  2.2442  1.0228  1.0228  0.8880

 Free energy of the ion-electron system (eV)
  ---------------------------------------------------
  alpha Z        PSCENC =       210.78028765
  Ewald energy   TEWEN  =    -14524.86522100
  -Hartree energ DENC   =      -991.73728292
  -exchange      EXHF   =         0.00000000
  -V(xc)+E(xc)   XCENC  =     -1153.28675074
  PAW double counting   =      4723.42901235    -2485.17088605
  entropy T*S    EENTRO =        -0.00000000
  eigenvalues    EBANDS =       345.80177057
  atomic energy  EATOM  =     13192.48085998
  Solvation  Ediel_sol  =         0.00000000
  ---------------------------------------------------
  free energy    TOTEN  =      -682.56821015 eV

  energy without entropy =     -682.56821015  energy(sigma->0) =     -682.56821015


--------------------------------------------------------------------------------------------------------




--------------------------------------- Iteration      1(  13)  ---------------------------------------


    POTLOK:  cpu time    0.2238: real time    0.2244
    SETDIJ:  cpu time    0.2779: real time    0.2786
     EDDAV:  cpu time    5.3702: real time    5.3836
       DOS:  cpu time    0.0004: real time    0.0004
    CHARGE:  cpu time    0.4989: real time    0.5003
    MIXING:  cpu time    0.0119: real time    0.0120
    --------------------------------------------
      LOOP:  cpu time    6.3831: real time    6.3993

 eigenvalue-minimisations  :   744
 total energy-change (2. order) : 0.3489553E-05  (-0.5737440E-07)
 number of electron     511.9999999 magnetization 
 augmentation part      -28.9794673 magnetization 

 Broyden mixing:
  rms(total) = 0.76503E-04    rms(broyden)= 0.75901E-04
  rms(prec ) = 0.89241E-04
  weight for this iteration     100.00

 eigenvalues of (default mixing * dielectric matrix)
  average eigenvalue GAMMA=   1.8696
  3.3113  2.7007  2.4749  2.1338  0.9624  0.9624  1.2056  1.2056

 Free energy of the ion-electron system (eV)
  ---------------------------------------------------
  alpha Z        PSCENC =       210.78028765
  Ewald energy   TEWEN  =    -14524.86522100
  -Hartree energ DENC   =      -991.72988041
  -exchange      EXHF   =         0.00000000
  -V(xc)+E(xc)   XCENC  =     -1153.28658598
  PAW double counting   =      4723.39893249    -2485.13760958
  entropy T*S    EENTRO =        -0.00000000
  eigenvalues    EBANDS =       345.79101018
  atomic energy  EATOM  =     13192.48085998
  Solvation  Ediel_sol  =         0.00000000
  ---------------------------------------------------
  free energy    TOTEN  =      -682.56820666 eV

  energy without entropy =     -682.56820666  energy(sigma->0) =     -682.56820666


--------------------------------------------------------------------------------------------------------




--------------------------------------- Iteration      1(  14)  ---------------------------------------


    POTLOK:  cpu time    0.2240: real time    0.2246
    SETDIJ:  cpu time    0.2779: real time    0.2786
     EDDAV:  cpu time    5.3141: real time    5.3273
       DOS:  cpu time    0.0005: real time    0.0005
    CHARGE:  cpu time    0.5032: real time    0.5048
    MIXING:  cpu time    0.0096: real time    0.0096
    --------------------------------------------
      LOOP:  cpu time    6.3293: real time    6.3454

 eigenvalue-minimisations  :   728
 total energy-change (2. order) :-0.5661750E-06  (-0.1227794E-07)
 number of electron     511.9999999 magnetization 
 augmentation part      -28.9794358 magnetization 

 Broyden mixing:
  rms(total) = 0.40173E-04    rms(broyden)= 0.39015E-04
  rms(prec ) = 0.50908E-04
  weight for this iteration     100.00

 eigenvalues of (default mixing * dielectric matrix)
  average eigenvalue GAMMA=   1.8133
  3.2922  2.7278  2.4304  2.2616  1.3207  1.3207  0.9325  1.0168  1.0168

 Free energy of the ion-electron system (eV)
  ---------------------------------------------------
  alpha Z        PSCENC =       210.78028765
  Ewald energy   TEWEN  =    -14524.86522100
  -Hartree energ DENC   =      -991.73919997
  -exchange      EXHF   =         0.00000000
  -V(xc)+E(xc)   XCENC  =     -1153.28543633
  PAW double counting   =      4723.43078469    -2485.16957057
  entropy T*S    EENTRO =        -0.00000000
  eigenvalues    EBANDS =       345.79928831
  atomic energy  EATOM  =     13192.48085998
  Solvation  Ediel_sol  =         0.00000000
  ---------------------------------------------------
  free energy    TOTEN  =      -682.56820723 eV

  energy without entropy =     -682.56820723  energy(sigma->0) =     -682.56820723


--------------------------------------------------------------------------------------------------------




--------------------------------------- Iteration      1(  15)  ---------------------------------------


    POTLOK:  cpu time    0.2245: real time    0.2261
    SETDIJ:  cpu time    0.2788: real time    0.2797
     EDDAV:  cpu time    4.1067: real time    4.1187
       DOS:  cpu time    0.0004: real time    0.0004
    CHARGE:  cpu time    0.5016: real time    0.5029
    MIXING:  cpu time    0.0119: real time    0.0119
    --------------------------------------------
      LOOP:  cpu time    5.1239: real time    5.1398

 eigenvalue-minimisations  :   512
 total energy-change (2. order) : 0.1119366E-05  (-0.3167071E-08)
 number of electron     511.9999999 magnetization 
 augmentation part      -28.9794671 magnetization 

 Broyden mixing:
  rms(total) = 0.11632E-04    rms(broyden)= 0.66021E-05
  rms(prec ) = 0.72071E-05
  weight for this iteration     100.00
  WARNING: grid for Broyden might be to small

 eigenvalues of (default mixing * dielectric matrix)
  average eigenvalue GAMMA=   1.8224
  3.2954  2.6686  2.5899  2.0892  2.0892  0.9401  0.9862  1.0344  1.2654  1.2654

 Free energy of the ion-electron system (eV)
  ---------------------------------------------------
  alpha Z        PSCENC =       210.78028765
  Ewald energy   TEWEN  =    -14524.86522100
  -Hartree energ DENC   =      -991.73311746
  -exchange      EXHF   =         0.00000000
  -V(xc)+E(xc)   XCENC  =     -1153.28602619
  PAW double counting   =      4723.40762260    -2485.14560111
  entropy T*S    EENTRO =        -0.00000000
  eigenvalues    EBANDS =       345.79298942
  atomic energy  EATOM  =     13192.48085998
  Solvation  Ediel_sol  =         0.00000000
  ---------------------------------------------------
  free energy    TOTEN  =      -682.56820611 eV

  energy without entropy =     -682.56820611  energy(sigma->0) =     -682.56820611


--------------------------------------------------------------------------------------------------------




--------------------------------------- Iteration      1(  16)  ---------------------------------------


    POTLOK:  cpu time    0.2247: real time    0.2274
    SETDIJ:  cpu time    0.2780: real time    0.2788
     EDDAV:  cpu time    3.3388: real time    3.3472
       DOS:  cpu time    0.0004: real time    0.0004
    CHARGE:  cpu time    0.5006: real time    0.5018
    MIXING:  cpu time    0.0116: real time    0.0116
    --------------------------------------------
      LOOP:  cpu time    4.3541: real time    4.3672

 eigenvalue-minimisations  :   360
 total energy-change (2. order) :-0.8515781E-07  (-0.1988874E-09)
 number of electron     511.9999999 magnetization 
 augmentation part      -28.9794685 magnetization 

 Broyden mixing:
  rms(total) = 0.10072E-04    rms(broyden)= 0.31174E-05
  rms(prec ) = 0.38898E-05
  weight for this iteration     100.00
  WARNING: grid for Broyden might be to small

 eigenvalues of (default mixing * dielectric matrix)
  average eigenvalue GAMMA=   1.7989
  3.2809  2.7786  2.5517  2.2747  2.2747  1.3115  1.3115  1.1579  0.9865  0.9302
  0.9302

 Free energy of the ion-electron system (eV)
  ---------------------------------------------------
  alpha Z        PSCENC =       210.78028765
  Ewald energy   TEWEN  =    -14524.86522100
  -Hartree energ DENC   =      -991.73353011
  -exchange      EXHF   =         0.00000000
  -V(xc)+E(xc)   XCENC  =     -1153.28594401
  PAW double counting   =      4723.40849897    -2485.14660367
  entropy T*S    EENTRO =        -0.00000000
  eigenvalues    EBANDS =       345.79344599
  atomic energy  EATOM  =     13192.48085998
  Solvation  Ediel_sol  =         0.00000000
  ---------------------------------------------------
  free energy    TOTEN  =      -682.56820619 eV

  energy without entropy =     -682.56820619  energy(sigma->0) =     -682.56820619


--------------------------------------------------------------------------------------------------------




--------------------------------------- Iteration      1(  17)  ---------------------------------------


    POTLOK:  cpu time    0.2226: real time    0.2235
    SETDIJ:  cpu time    0.2789: real time    0.2798
     EDDAV:  cpu time    3.2310: real time    3.2391
       DOS:  cpu time    0.0004: real time    0.0004
    CHARGE:  cpu time    0.4987: real time    0.5001
    MIXING:  cpu time    0.0137: real time    0.0137
    --------------------------------------------
      LOOP:  cpu time    4.2454: real time    4.2567

 eigenvalue-minimisations  :   352
 total energy-change (2. order) :-0.2303568E-07  (-0.3079359E-10)
 number of electron     511.9999999 magnetization 
 augmentation part      -28.9794697 magnetization 

 Broyden mixing:
  rms(total) = 0.96378E-05    rms(broyden)= 0.10819E-05
  rms(prec ) = 0.13593E-05
  weight for this iteration     100.00
  WARNING: grid for Broyden might be to small

 eigenvalues of (default mixing * dielectric matrix)
  average eigenvalue GAMMA=   1.7905
  3.2922  2.7114  2.6113  2.1402  2.1402  2.1034  1.2404  1.2404  0.9354  0.9717
  1.0496  1.0496

 Free energy of the ion-electron system (eV)
  ---------------------------------------------------
  alpha Z        PSCENC =       210.78028765
  Ewald energy   TEWEN  =    -14524.86522100
  -Hartree energ DENC   =      -991.73328726
  -exchange      EXHF   =         0.00000000
  -V(xc)+E(xc)   XCENC  =     -1153.28597887
  PAW double counting   =      4723.40843133    -2485.14656735
  entropy T*S    EENTRO =        -0.00000000
  eigenvalues    EBANDS =       345.79326930
  atomic energy  EATOM  =     13192.48085998
  Solvation  Ediel_sol  =         0.00000000
  ---------------------------------------------------
  free energy    TOTEN  =      -682.56820621 eV

  energy without entropy =     -682.56820621  energy(sigma->0) =     -682.56820621


--------------------------------------------------------------------------------------------------------




--------------------------------------- Iteration      1(  18)  ---------------------------------------


    POTLOK:  cpu time    0.2243: real time    0.2250
    SETDIJ:  cpu time    0.2776: real time    0.2783
     EDDAV:  cpu time    3.2322: real time    3.2404
       DOS:  cpu time    0.0004: real time    0.0004
    CHARGE:  cpu time    0.4992: real time    0.5005
    MIXING:  cpu time    0.0125: real time    0.0125
    --------------------------------------------
      LOOP:  cpu time    4.2463: real time    4.2570

 eigenvalue-minimisations  :   352
 total energy-change (2. order) : 0.1751323E-07  (-0.8733569E-11)
 number of electron     511.9999999 magnetization 
 augmentation part      -28.9794702 magnetization 

 Broyden mixing:
  rms(total) = 0.95898E-05    rms(broyden)= 0.49737E-06
  rms(prec ) = 0.62093E-06
  weight for this iteration     100.00
  WARNING: grid for Broyden might be to small

 eigenvalues of (default mixing * dielectric matrix)
  average eigenvalue GAMMA=   1.7907
  3.2933  2.6857  2.6857  2.3999  2.3999  2.1617  1.2771  1.2771  1.2177  1.0754
  1.0052  0.9342  0.8662

 Free energy of the ion-electron system (eV)
  ---------------------------------------------------
  alpha Z        PSCENC =       210.78028765
  Ewald energy   TEWEN  =    -14524.86522100
  -Hartree energ DENC   =      -991.73326755
  -exchange      EXHF   =         0.00000000
  -V(xc)+E(xc)   XCENC  =     -1153.28598152
  PAW double counting   =      4723.40792162    -2485.14604865
  entropy T*S    EENTRO =        -0.00000000
  eigenvalues    EBANDS =       345.79324327
  atomic energy  EATOM  =     13192.48085998
  Solvation  Ediel_sol  =         0.00000000
  ---------------------------------------------------
  free energy    TOTEN  =      -682.56820620 eV

  energy without entropy =     -682.56820620  energy(sigma->0) =     -682.56820620


--------------------------------------------------------------------------------------------------------




--------------------------------------- Iteration      1(  19)  ---------------------------------------


    POTLOK:  cpu time    0.2224: real time    0.2230
    SETDIJ:  cpu time    0.2797: real time    0.2804
     EDDAV:  cpu time    3.2647: real time    3.2730
       DOS:  cpu time    0.0003: real time    0.0003
    --------------------------------------------
      LOOP:  cpu time    3.7670: real time    3.7768

 eigenvalue-minimisations  :   352
 total energy-change (2. order) : 0.2082743E-08  (-0.4469369E-11)
 number of electron     511.9999999 magnetization 
 augmentation part      -28.9794702 magnetization 

 Free energy of the ion-electron system (eV)
  ---------------------------------------------------
  alpha Z        PSCENC =       210.78028765
  Ewald energy   TEWEN  =    -14524.86522100
  -Hartree energ DENC   =      -991.73324498
  -exchange      EXHF   =         0.00000000
  -V(xc)+E(xc)   XCENC  =     -1153.28598576
  PAW double counting   =      4723.40778089    -2485.14590852
  entropy T*S    EENTRO =        -0.00000000
  eigenvalues    EBANDS =       345.79322553
  atomic energy  EATOM  =     13192.48085998
  Solvation  Ediel_sol  =         0.00000000
  ---------------------------------------------------
  free energy    TOTEN  =      -682.56820619 eV

  energy without entropy =     -682.56820619  energy(sigma->0) =     -682.56820619


--------------------------------------------------------------------------------------------------------




 average (electrostatic) potential at core
  the test charge radii are     0.9892
  (the norm of the test charge is              1.0000)
       1 -83.4160       2 -83.4154       3 -83.4136       4 -83.4134       5 -83.4160
       6 -83.4135       7 -83.4150       8 -83.4153       9 -83.4137      10 -83.4139
      11 -83.4140      12 -83.4142      13 -83.4142      14 -83.4142      15 -83.4162
      16 -83.4143      17 -83.4138      18 -83.4137      19 -83.4139      20 -83.4140
      21 -83.4151      22 -83.4142      23 -83.4140      24 -83.4154      25 -83.4141
      26 -83.4140      27 -83.4159      28 -83.4139      29 -83.4139      30 -83.4156
      31 -83.4141      32 -83.4138      33 -83.4116      34 -83.4142      35 -83.4136
      36 -83.4136      37 -83.4138      38 -83.4138      39 -83.4140      40 -83.4137
      41 -83.4134      42 -83.4131      43 -83.4135      44 -83.4133      45 -83.4139
      46 -83.4138      47 -83.4135      48 -83.4140      49 -83.4135      50 -83.4135
      51 -83.4137      52 -83.4136      53 -83.4136      54 -83.4139      55 -83.4137
      56 -83.4136      57 -83.4138      58 -83.4135      59 -83.4115      60 -83.4137
      61 -83.4137      62 -83.4135      63 -83.4137      64 -83.4138      65 -83.4127
      66 -83.4123      67 -83.4135      68 -83.4135      69 -83.4139      70 -83.4137
      71 -83.4134      72 -83.4140      73 -83.4135      74 -83.4134      75 -83.4137
      76 -83.4135      77 -83.4135      78 -83.4138      79 -83.4136      80 -83.4135
      81 -83.4136      82 -83.4135      83 -83.4126      84 -83.4136      85 -83.4136
      86 -83.4135      87 -83.4137      88 -83.4137      89 -83.4131      90 -83.4137
      91 -83.4133      92 -83.4121      93 -83.4137      94 -83.4136      95 -83.4138
      96 -83.4137      97 -83.4118      98 -83.4124      99 -83.4135     100 -83.4133
     101 -83.4135     102 -83.4139     103 -83.4137     104 -83.4134     105 -83.4136
     106 -83.4135     107 -83.4116     108 -83.4138     109 -83.4137     110 -83.4135
     111 -83.4138     112 -83.4137     113 -83.4133     114 -83.4136     115 -83.4134
     116 -83.4122     117 -83.4138     118 -83.4137     119 -83.4140     120 -83.4138
     121 -83.4134     122 -83.4133     123 -83.4136     124 -83.4135     125 -83.4141
     126 -83.4138     127 -83.4136     128 -83.4139
 
 
 
 E-fermi :   5.9204     XC(G=0):  -9.3007     alpha+bet :-11.7327


 k-point     1 :       0.0000    0.0000    0.0000
  band No.  band energies     occupation 
      1      -6.1630      2.00000
      2      -5.3793      2.00000
      3      -5.3781      2.00000
      4      -5.3776      2.00000
      5      -5.3775      2.00000
      6      -5.3774      2.00000
      7      -5.3773      2.00000
      8      -5.3764      2.00000
      9      -5.3763      2.00000
     10      -5.1010      2.00000
     11      -5.1003      2.00000
     12      -5.0997      2.00000
     13      -5.0994      2.00000
     14      -5.0989      2.00000
     15      -5.0986      2.00000
     16      -4.1599      2.00000
     17      -4.1584      2.00000
     18      -4.1577      2.00000
     19      -4.1571      2.00000
     20      -4.1570      2.00000
     21      -4.1570      2.00000
     22      -4.1569      2.00000
     23      -4.1568      2.00000
     24      -4.1564      2.00000
     25      -4.1562      2.00000
     26      -4.1554      2.00000
     27      -4.1547      2.00000
     28      -3.8821      2.00000
     29      -3.8812      2.00000
     30      -3.8812      2.00000
     31      -3.8803      2.00000
     32      -3.5018      2.00000
     33      -3.4997      2.00000
     34      -3.4982      2.00000
     35      -3.4966      2.00000
     36      -3.4966      2.00000
     37      -3.4965      2.00000
     38      -3.4964      2.00000
     39      -3.4963      2.00000
     40      -3.4963      2.00000
     41      -3.4963      2.00000
     42      -3.4962      2.00000
     43      -3.4962      2.00000
     44      -3.4962      2.00000
     45      -3.4961      2.00000
     46      -3.4961      2.00000
     47      -3.4961      2.00000
     48      -3.4960      2.00000
     49      -3.4960      2.00000
     50      -3.4959      2.00000
     51      -3.4958      2.00000
     52      -3.4948      2.00000
     53      -3.4946      2.00000
     54      -3.4934      2.00000
     55      -3.4916      2.00000
     56      -2.0921      2.00000
     57      -2.0920      2.00000
     58      -2.0909      2.00000
     59      -2.0909      2.00000
     60      -2.0899      2.00000
     61      -2.0898      2.00000
     62      -1.9376      2.00000
     63      -1.9370      2.00000
     64      -1.9370      2.00000
     65      -1.9356      2.00000
     66      -1.9354      2.00000
     67      -1.9354      2.00000
     68      -1.9352      2.00000
     69      -1.9352      2.00000
     70      -1.9348      2.00000
     71      -1.9345      2.00000
     72      -1.9336      2.00000
     73      -1.9335      2.00000
     74      -1.2194      2.00000
     75      -1.2184      2.00000
     76      -1.2184      2.00000
     77      -1.2175      2.00000
     78      -0.6733      2.00000
     79      -0.6721      2.00000
     80      -0.6712      2.00000
     81      -0.6691      2.00000
     82      -0.6690      2.00000
     83      -0.6689      2.00000
     84      -0.6689      2.00000
     85      -0.6688      2.00000
     86      -0.6687      2.00000
     87      -0.6686      2.00000
     88      -0.6686      2.00000
     89      -0.6686      2.00000
     90      -0.6686      2.00000
     91      -0.6685      2.00000
     92      -0.6685      2.00000
     93      -0.6684      2.00000
     94      -0.6684      2.00000
     95      -0.6683      2.00000
     96      -0.6683      2.00000
     97      -0.6682      2.00000
     98      -0.6670      2.00000
     99      -0.6664      2.00000
    100      -0.6662      2.00000
    101      -0.6643      2.00000
    102       0.2147      2.00000
    103       0.2149      2.00000
    104       0.2156      2.00000
    105       0.2165      2.00000
    106       0.2167      2.00000
    107       0.2167      2.00000
    108       0.2168      2.00000
    109       0.2169      2.00000
    110       0.2169      2.00000
    111       0.2178      2.00000
    112       0.2184      2.00000
    113       0.2190      2.00000
    114       1.7666      2.00000
    115       1.7670      2.00000
    116       1.7674      2.00000
    117       1.7677      2.00000
    118       1.7678      2.00000
    119       1.7680      2.00000
    120       1.7688      2.00000
    121       1.7693      2.00000
    122       1.8843      2.00000
    123       1.8850      2.00000
    124       1.8856      2.00000
    125       1.8857      2.00000
    126       1.8859      2.00000
    127       1.8861      2.00000
    128       1.8861      2.00000
    129       1.8862      2.00000
    130       1.8862      2.00000
    131       1.8863      2.00000
    132       1.8871      2.00000
    133       1.8873      2.00000
    134       1.9776      2.00000
    135       1.9776      2.00000
    136       1.9779      2.00000
    137       1.9786      2.00000
    138       1.9787      2.00000
    139       1.9789      2.00000
    140       1.9790      2.00000
    141       1.9792      2.00000
    142       1.9795      2.00000
    143       1.9797      2.00000
    144       1.9797      2.00000
    145       1.9802      2.00000
    146       2.1400      2.00000
    147       2.1404      2.00000
    148       2.1409      2.00000
    149       2.1413      2.00000
    150       2.1419      2.00000
    151       2.1421      2.00000
    152       2.1837      2.00000
    153       2.1849      2.00000
    154       2.1852      2.00000
    155       2.1859      2.00000
    156       2.1862      2.00000
    157       2.1865      2.00000
    158       2.1866      2.00000
    159       2.1867      2.00000
    160       2.1868      2.00000
    161       2.1869      2.00000
    162       2.1869      2.00000
    163       2.1870      2.00000
    164       2.1870      2.00000
    165       2.1870      2.00000
    166       2.1871      2.00000
    167       2.1871      2.00000
    168       2.1871      2.00000
    169       2.1872      2.00000
    170       2.1873      2.00000
    171       2.1876      2.00000
    172       2.1882      2.00000
    173       2.1887      2.00000
    174       2.1890      2.00000
    175       2.1894      2.00000
    176       2.8562      2.00000
    177       2.8562      2.00000
    178       2.8566      2.00000
    179       2.8566      2.00000
    180       2.8571      2.00000
    181       2.8571      2.00000
    182       3.4891      2.00000
    183       3.4899      2.00000
    184       3.4912      2.00000
    185       3.4917      2.00000
    186       3.4919      2.00000
    187       3.4922      2.00000
    188       3.4923      2.00000
    189       3.4924      2.00000
    190       3.4925      2.00000
    191       3.4925      2.00000
    192       3.4925      2.00000
    193       3.4925      2.00000
    194       3.4925      2.00000
    195       3.4926      2.00000
    196       3.4926      2.00000
    197       3.4927      2.00000
    198       3.4928      2.00000
    199       3.4928      2.00000
    200       3.4929      2.00000
    201       3.4930      2.00000
    202       3.4934      2.00000
    203       3.4939      2.00000
    204       3.4948      2.00000
    205       3.4954      2.00000
    206       3.8017      2.00000
    207       3.8026      2.00000
    208       3.8033      2.00000
    209       3.8036      2.00000
    210       3.8038      2.00000
    211       3.8038      2.00000
    212       3.8039      2.00000
    213       3.8040      2.00000
    214       3.8041      2.00000
    215       3.8042      2.00000
    216       3.8051      2.00000
    217       3.8058      2.00000
    218       4.3506      2.00000
    219       4.3516      2.00000
    220       4.3521      2.00000
    221       4.3524      2.00000
    222       4.3525      2.00000
    223       4.3528      2.00000
    224       4.3530      2.00000
    225       4.3531      2.00000
    226       4.3532      2.00000
    227       4.3536      2.00000
    228       4.3540      2.00000
    229       4.3548      2.00000
    230       4.4761      2.00000
    231       4.4767      2.00000
    232       4.4774      2.00000
    233       4.4776      2.00000
    234       4.4778      2.00000
    235       4.4780      2.00000
    236       4.4787      2.00000
    237       4.4793      2.00000
    238       4.9076      2.00000
    239       4.9100      2.00000
    240       4.9114      2.00000
    241       4.9114      2.00000
    242       4.9115      2.00000
    243       4.9116      2.00000
    244       4.9117      2.00000
    245       4.9118      2.00000
    246       4.9118      2.00000
    247       4.9119      2.00000
    248       4.9119      2.00000
    249       4.9120      2.00000
    250       4.9122      2.00000
    251       4.9123      2.00000
    252       4.9145      2.00000
    253       4.9152      2.00000
    254       5.6594      2.00000
    255       5.6604      2.00000
    256       5.6615      2.00000
    257       6.3940      0.00000
    258       6.3946      0.00000
    259       6.3951      0.00000
    260       6.3951      0.00000
    261       6.3956      0.00000
    262       6.3962      0.00000
    263       6.7953      0.00000
    264       6.7958      0.00000
    265       6.7961      0.00000
    266       6.7964      0.00000
    267       6.7970      0.00000
    268       6.7970      0.00000
    269       7.1206      0.00000
    270       7.1208      0.00000
    271       7.1208      0.00000
    272       7.1211      0.00000
    273       7.1821      0.00000
    274       7.1831      0.00000
    275       7.1845      0.00000
    276       7.1848      0.00000
    277       7.1857      0.00000
    278       7.1858      0.00000
    279       7.1858      0.00000
    280       7.1858      0.00000
    281       7.1859      0.00000
    282       7.1860      0.00000
    283       7.1860      0.00000
    284       7.1860      0.00000
    285       7.1860      0.00000
    286       7.1861      0.00000
    287       7.1861      0.00000
    288       7.1862      0.00000
    289       7.1862      0.00000
    290       7.1862      0.00000
    291       7.1863      0.00000
    292       7.1863      0.00000
    293       7.1878      0.00000
    294       7.1880      0.00000
    295       7.1884      0.00000
    296       7.1888      0.00000
    297       7.6112      0.00000
    298       7.6116      0.00000
    299       7.6121      0.00000
    300       7.6122      0.00000
    301       7.6124      0.00000
    302       7.6126      0.00000
    303       7.6127      0.00000
    304       7.6130      0.00000
    305       8.0815      0.00000
    306       8.0817      0.00000
    307       8.0819      0.00000
    308       8.0824      0.00000
    309       8.0828      0.00000
    310       8.0829      0.00000
    311       8.0830      0.00000
    312       8.0831      0.00000
    313       8.0833      0.00000
    314       8.0839      0.00000
    315       8.0842      0.00000
    316       8.0846      0.00000
    317       8.1987      0.00000
    318       8.1993      0.00000
    319       8.2000      0.00000
    320       8.7788      0.00000
    321       8.7791      0.00000
    322       8.7875      0.00000


--------------------------------------------------------------------------------------------------------


 soft charge-density along one line, spin component           1
         0         1         2         3         4         5         6         7         8         9
 total charge-density along one line
 
 pseudopotential strength for first ion, spin component:           1
 18.431  -0.001   0.000   0.000  -0.000   0.000  -0.000  -0.000
 -0.001   0.006   0.000  -0.000   0.000  -0.000   0.000  -0.000
  0.000   0.000   4.180   0.000  -0.000  -0.004  -0.000   0.000
  0.000  -0.000   0.000   4.180  -0.000  -0.000  -0.004   0.000
 -0.000   0.000  -0.000  -0.000   4.180   0.000   0.000  -0.004
  0.000  -0.000  -0.004  -0.000   0.000   0.005  -0.000  -0.000
 -0.000   0.000  -0.000  -0.004   0.000  -0.000   0.005   0.000
 -0.000  -0.000   0.000   0.000  -0.004  -0.000   0.000   0.005
 total augmentation occupancy for first ion, spin component:           1
  1.463  -0.793  -0.000   0.003   0.000   0.000  -0.004  -0.000
 -0.793   0.732  -0.000  -0.003   0.000   0.000   0.004  -0.000
 -0.000  -0.000   1.037  -0.000  -0.004  -0.551  -0.000   0.005
  0.003  -0.003  -0.000   1.037   0.000  -0.000  -0.551  -0.000
  0.000   0.000  -0.004   0.000   1.037   0.005  -0.000  -0.551
  0.000   0.000  -0.551  -0.000   0.005   0.351   0.000  -0.004
 -0.004   0.004  -0.000  -0.551  -0.000   0.000   0.351  -0.000
 -0.000  -0.000   0.005  -0.000  -0.551  -0.004  -0.000   0.351


------------------------ aborting loop because EDIFF is reached ----------------------------------------


    CHARGE:  cpu time    0.4994: real time    0.5006
    FORLOC:  cpu time    0.2003: real time    0.2009
    FORNL :  cpu time    5.5406: real time    5.5543
    STRESS:  cpu time    8.8057: real time    8.8280
    FORCOR:  cpu time    0.4118: real time    0.4129
    FORHAR:  cpu time    0.2484: real time    0.2491
    MIXING:  cpu time    0.0099: real time    0.0099
    OFIELD:  cpu time    0.0001: real time    0.0001

  FORCE on cell =-STRESS in cart. coord.  units (eV):
  Direction    XX          YY          ZZ          XY          YZ          ZX
  --------------------------------------------------------------------------------------
  Alpha Z   210.78029   210.78029   210.78029
  Ewald   -4841.67377 -4841.66446 -4841.67377    -0.77548     0.77485    -0.00021
  Hartree   330.57715   330.57891   330.57716    -0.08884     0.08846    -0.00009
  E(xc)   -1619.14448 -1619.14457 -1619.14448     0.00664    -0.00662     0.00001
  Local   -1899.80302 -1899.81362 -1899.80304     0.81978    -0.81828     0.00061
  n-local  4936.76667  4936.76856  4936.76668    -0.15913     0.15917    -0.00000
  augment  -736.53093  -736.53103  -736.53093     0.00675    -0.00729    -0.00027
  Kinetic  3628.38907  3628.38854  3628.38903     0.10308    -0.10315    -0.00002
  Fock        0.00000     0.00000     0.00000     0.00000     0.00000     0.00000
  -------------------------------------------------------------------------------------
  Total       9.36097     9.36261     9.36093    -0.08721     0.08714     0.00002
  in kB       5.73176     5.73276     5.73173    -0.05340     0.05336     0.00001
  external pressure =        5.73 kB  Pullay stress =        0.00 kB


 VOLUME and BASIS-vectors are now :
 -----------------------------------------------------------------------------
  energy-cutoff  :      500.00
  volume of cell :     2616.64
      direct lattice vectors                 reciprocal lattice vectors
     0.000000000 10.937160696 10.937160696    -0.045715704  0.045715704  0.045715704
    10.937160696  0.000000000 10.937160696     0.045715704 -0.045715704  0.045715704
    10.937160696 10.937160696  0.000000000     0.045715704  0.045715704 -0.045715704

  length of vectors
    15.467480990 15.467480990 15.467480990     0.079181922  0.079181922  0.079181922


 FORCES acting on ions
    electron-ion (+dipol)            ewald-force                    non-local-force                 convergence-correction
 -----------------------------------------------------------------------------------------------
   -.249E-01 -.588E-02 0.519E+00   0.363E-01 0.110E-03 -.468E+00   -.648E-02 0.674E-02 -.180E+00   0.167E-06 -.255E-06 -.234E-05
   -.213E+00 -.199E+00 -.343E-02   0.179E+00 0.169E+00 -.101E-03   0.519E-01 0.507E-01 0.366E-01   0.927E-06 0.751E-06 -.426E-06
   -.525E+00 -.599E-01 -.251E-01   0.468E+00 0.604E-01 0.235E-01   0.187E+00 0.148E-02 0.313E-02   0.192E-05 0.699E-06 0.547E-07
   0.205E+00 0.819E-04 0.198E+00   -.177E+00 -.275E-13 -.171E+00   -.818E-01 -.680E-04 -.149E-01   -.135E-06 -.101E-06 -.122E-05
   -.247E-01 -.646E-02 -.212E-02   0.361E-01 0.126E-01 0.740E-02   -.646E-02 -.676E-02 -.610E-02   0.143E-06 0.403E-06 0.209E-06
   0.916E-02 -.220E+00 -.210E+00   -.749E-02 0.191E+00 0.182E+00   -.341E-01 0.499E-01 0.488E-01   0.516E-06 0.759E-06 0.418E-06
   0.159E-02 -.596E-01 -.251E-01   0.394E-02 0.601E-01 0.236E-01   -.290E-02 0.147E-02 0.310E-02   0.349E-07 0.749E-06 0.313E-06
   -.178E-01 -.203E-01 -.108E-01   0.104E-01 0.215E-01 0.131E-01   0.487E-02 -.146E-02 -.253E-02   0.290E-06 0.710E-07 -.775E-07
   -.347E-01 -.604E-01 -.258E-01   0.368E-01 0.601E-01 0.235E-01   -.162E-02 0.131E-02 0.292E-02   0.694E-06 0.740E-06 0.470E-07
   -.214E+00 0.180E+00 -.799E-02   0.188E+00 -.153E+00 0.939E-02   0.471E-01 -.475E-01 0.318E-01   0.453E-06 -.441E-06 -.103E-05
   0.178E-01 -.664E-02 0.497E-01   -.156E-01 0.805E-02 -.500E-01   -.357E-02 -.247E-03 -.175E-02   0.207E-07 0.381E-07 -.798E-06
   -.157E-01 -.222E+00 0.162E+00   0.160E-01 0.194E+00 -.134E+00   -.332E-01 0.479E-01 -.482E-01   0.829E-06 0.822E-06 -.448E-06
   0.355E-02 -.529E-02 0.682E-02   -.277E-02 0.575E-02 -.756E-02   -.612E-03 -.427E-04 0.694E-03   0.149E-06 0.445E-06 0.854E-07
   -.142E-01 -.479E-02 0.152E-01   0.150E-01 0.245E-02 -.142E-01   -.705E-03 0.192E-02 -.587E-03   -.104E-06 0.584E-06 -.133E-06
   0.689E-02 -.137E-01 0.222E-01   -.590E-03 0.815E-02 -.338E-01   -.737E-02 0.668E-02 0.644E-02   0.130E-06 -.803E-07 -.407E-06
   0.353E-02 -.236E-01 0.143E-01   -.497E-02 0.216E-01 -.150E-01   0.117E-02 0.144E-02 0.541E-03   0.220E-06 0.432E-06 0.117E-06
   -.285E-02 -.735E-02 -.648E-03   0.260E-02 0.802E-02 -.514E-03   0.571E-03 -.516E-03 0.115E-02   0.130E-06 0.157E-06 -.138E-06
   -.961E-02 -.125E-01 -.302E-02   0.851E-02 0.122E-01 0.378E-02   0.109E-02 0.971E-03 -.741E-04   0.338E-06 0.284E-06 -.173E-06
   0.171E-03 0.253E-02 0.113E-01   0.534E-03 -.229E-02 -.123E-01   -.698E-03 0.236E-04 0.657E-03   0.280E-06 0.156E-06 0.105E-06
   -.616E-03 -.744E-02 0.118E-01   0.569E-03 0.573E-02 -.106E-01   -.239E-03 0.108E-02 -.137E-02   0.376E-06 -.147E-06 -.138E-06
   0.983E-02 -.738E-02 0.653E-02   -.101E-01 0.805E-02 -.120E-01   0.269E-03 -.458E-03 0.358E-02   0.229E-07 0.167E-06 -.148E-06
   0.460E-02 -.363E-02 0.104E-01   -.525E-02 0.219E-02 -.106E-01   0.431E-03 0.112E-02 0.203E-03   0.873E-07 0.264E-06 0.123E-07
   0.859E-03 -.910E-02 0.483E-04   0.525E-03 0.104E-01 0.447E-03   -.132E-02 -.698E-03 -.390E-03   0.202E-06 0.282E-07 -.280E-06
   0.443E-02 -.728E-02 0.139E-01   -.171E-02 0.437E-02 -.689E-02   -.325E-02 0.331E-02 -.475E-02   -.162E-06 0.248E-06 -.373E-06
   -.596E-01 0.397E-02 -.180E-01   0.597E-01 -.229E-02 0.156E-01   0.187E-02 -.459E-03 0.380E-02   0.876E-06 -.123E-06 0.350E-06
   -.148E-01 -.934E-02 -.511E-02   0.132E-01 0.766E-02 0.540E-02   0.202E-02 0.810E-03 0.300E-03   0.171E-06 0.513E-07 -.458E-07
   0.192E-01 0.507E-02 0.846E-01   -.234E-01 -.109E-03 -.965E-01   0.359E-02 -.689E-02 0.495E-02   -.379E-06 0.171E-06 -.960E-06
   -.129E-01 0.103E-01 0.308E-01   0.121E-01 -.112E-01 -.308E-01   0.274E-03 0.104E-02 -.416E-03   0.417E-06 0.303E-06 0.929E-07
   0.283E-01 -.670E-01 0.842E-03   -.258E-01 0.685E-01 0.447E-03   -.380E-02 0.801E-03 -.222E-03   -.389E-06 0.815E-06 -.253E-06
   0.406E-01 -.232E-01 0.333E-01   -.436E-01 0.252E-01 -.264E-01   0.360E-02 -.280E-02 -.451E-02   -.172E-06 0.205E-06 -.421E-06
   -.739E-02 -.145E-01 -.127E-01   0.757E-02 0.160E-01 0.124E-01   -.131E-03 -.120E-02 0.774E-04   0.178E-06 0.454E-07 0.804E-08
   0.510E-02 -.220E-01 -.923E-02   -.538E-02 0.200E-01 0.833E-02   -.312E-03 0.180E-02 0.166E-03   0.897E-07 0.790E-07 -.269E-06
   0.196E-01 -.635E-02 -.349E-01   -.237E-01 -.109E-03 0.240E-01   0.355E-02 0.646E-02 0.794E-02   -.361E-06 -.416E-06 0.449E-06
   0.188E+00 0.196E+00 -.271E-01   -.159E+00 -.167E+00 0.251E-01   -.488E-01 -.493E-01 0.343E-01   -.830E-06 -.116E-05 -.464E-06
   0.226E-01 0.518E-01 -.231E-03   -.213E-01 -.521E-01 0.447E-03   -.314E-02 -.155E-02 0.841E-03   -.207E-06 -.754E-06 0.178E-06
   0.905E-03 0.179E+00 -.188E+00   0.200E-02 -.153E+00 0.159E+00   -.351E-01 -.468E-01 0.488E-01   0.117E-06 -.414E-06 0.881E-06
   0.836E-02 0.473E-03 -.728E-02   -.850E-02 -.199E-04 0.784E-02   -.175E-03 -.394E-03 -.242E-03   -.139E-07 -.800E-07 0.405E-06
   -.107E-01 0.123E-01 -.191E-02   0.128E-01 -.115E-01 -.234E-03   -.166E-02 -.529E-03 0.185E-02   -.196E-06 -.260E-06 0.520E-06
   0.606E-01 -.326E-02 -.330E-01   -.606E-01 0.229E-02 0.317E-01   -.210E-02 -.248E-03 0.304E-02   -.854E-06 -.107E-06 0.365E-06
   0.200E-01 -.191E-01 -.402E-01   -.188E-01 0.193E-01 0.399E-01   -.708E-03 -.407E-03 0.701E-04   -.277E-06 0.238E-06 0.598E-06
   0.218E-01 -.253E-02 -.973E-03   -.221E-01 0.229E-02 0.447E-03   0.241E-03 -.258E-04 0.630E-03   -.253E-06 -.179E-06 0.163E-06
   0.168E-01 -.255E-01 -.844E-02   -.184E-01 0.269E-01 0.643E-02   0.136E-02 -.142E-02 0.141E-02   0.342E-07 -.322E-06 0.390E-06
   0.982E-02 0.735E-02 0.359E-02   -.101E-01 -.802E-02 -.433E-02   0.263E-03 0.457E-03 0.640E-03   -.118E-06 0.430E-07 0.134E-06
   0.328E-01 0.155E-01 0.168E-01   -.332E-01 -.148E-01 -.167E-01   0.511E-03 -.294E-03 0.147E-03   -.162E-06 -.183E-06 -.120E-06
   0.116E-01 -.254E-02 -.101E-02   -.117E-01 0.229E-02 0.481E-03   -.121E-03 -.223E-04 0.632E-03   -.291E-06 -.192E-06 0.243E-06
   0.969E-02 0.600E-06 0.134E-02   -.930E-02 -.759E-13 -.190E-02   -.319E-03 -.480E-06 0.441E-03   -.121E-06 0.158E-07 0.207E-06
   0.986E-02 -.689E-02 0.295E-02   -.102E-01 0.802E-02 -.154E-02   0.263E-03 -.918E-03 -.951E-03   -.175E-06 -.303E-06 0.371E-07
   0.258E-01 -.101E-01 0.691E-02   -.242E-01 0.121E-01 -.826E-02   -.118E-02 -.171E-02 0.112E-02   -.304E-06 -.212E-06 0.280E-06
   -.214E-02 0.749E-02 -.519E-02   0.251E-02 -.802E-02 0.538E-02   -.257E-03 0.309E-03 -.138E-03   -.167E-06 -.118E-06 0.379E-07
   0.312E-02 -.226E-02 -.249E-02   -.337E-02 0.295E-02 0.228E-02   0.235E-03 -.507E-03 0.238E-03   -.137E-06 -.107E-06 0.905E-07
   -.156E-02 0.529E-02 0.681E-02   0.184E-02 -.575E-02 -.755E-02   -.653E-03 0.363E-04 0.699E-03   -.396E-06 -.238E-06 0.217E-06
   0.952E-03 0.724E-02 0.516E-02   -.720E-03 -.669E-02 -.529E-02   -.268E-03 -.414E-03 0.112E-03   -.243E-07 0.141E-07 0.183E-06
   0.118E-02 -.761E-02 0.301E-02   -.453E-03 0.802E-02 -.227E-02   -.817E-03 -.256E-03 -.341E-03   -.379E-06 -.163E-06 0.208E-06
   0.605E-02 -.363E-02 0.656E-02   -.477E-02 0.451E-02 -.719E-02   -.102E-02 -.701E-03 0.533E-03   -.268E-06 -.108E-06 0.143E-07
   0.590E-03 -.449E-02 -.535E-02   -.757E-03 0.475E-02 0.551E-02   0.745E-04 -.274E-03 -.515E-04   -.209E-06 -.132E-06 0.182E-06
   0.252E-02 -.890E-02 -.153E-02   -.229E-02 0.896E-02 0.419E-03   -.263E-03 -.149E-03 0.797E-03   -.290E-06 -.768E-07 -.386E-08
   -.110E-01 0.600E-01 -.252E-01   0.956E-02 -.601E-01 0.237E-01   0.278E-03 -.194E-02 0.311E-02   0.811E-08 -.104E-05 0.276E-06
   -.212E-01 0.214E-01 -.344E-01   0.211E-01 -.204E-01 0.348E-01   -.896E-04 -.655E-03 -.515E-03   0.320E-06 -.429E-06 0.450E-06
   -.242E-01 -.557E-02 0.159E-01   0.361E-01 -.149E-03 -.945E-02   -.692E-02 0.667E-02 -.716E-02   -.203E-06 -.187E-06 0.199E-06
   -.171E-01 0.171E-01 0.340E-01   0.205E-01 -.140E-01 -.343E-01   -.282E-02 -.245E-02 0.396E-03   -.595E-06 -.484E-06 -.442E-07
   -.102E-01 -.458E-02 -.568E-02   0.956E-02 0.471E-02 0.551E-02   0.347E-03 -.126E-03 0.263E-03   -.356E-06 -.292E-07 0.279E-06
   -.121E-01 -.255E-01 0.473E-02   0.140E-01 0.245E-01 -.720E-02   -.160E-02 0.733E-03 0.197E-02   -.505E-06 0.902E-07 0.221E-06
   -.477E-03 0.205E-03 -.298E-01   -.183E-04 -.544E-05 0.301E-01   0.368E-03 -.188E-03 -.121E-03   0.412E-07 -.480E-07 0.502E-06
   -.417E-02 -.793E-02 -.129E-01   0.470E-02 0.806E-02 0.124E-01   -.353E-03 -.876E-04 0.451E-03   -.108E-06 0.198E-07 0.230E-06
   0.948E-02 0.735E-02 -.821E-02   -.101E-01 -.802E-02 0.407E-02   0.598E-03 0.521E-03 0.261E-02   0.263E-06 0.126E-06 -.390E-07
   0.108E-01 0.778E-02 -.620E-02   -.131E-01 -.929E-02 0.111E-01   0.255E-02 0.246E-02 -.270E-02   0.409E-06 0.262E-06 -.292E-06
   0.158E-01 0.149E-01 -.976E-03   -.155E-01 -.150E-01 0.447E-03   -.566E-03 0.516E-04 0.631E-03   0.314E-06 0.963E-07 0.229E-07
   0.106E-01 0.164E-01 -.465E-02   -.952E-02 -.158E-01 0.303E-02   -.115E-02 -.945E-03 0.107E-02   0.385E-06 -.798E-07 -.131E-06
   0.222E-01 0.739E-02 -.154E-01   -.229E-01 -.805E-02 0.156E-01   0.298E-03 0.454E-03 0.171E-03   -.648E-07 0.263E-07 -.516E-07
   0.158E-01 0.763E-02 -.820E-02   -.153E-01 -.791E-02 0.741E-02   -.477E-03 0.205E-03 0.685E-03   0.462E-07 -.281E-08 0.138E-06
   0.151E-01 0.323E-02 -.123E-01   -.155E-01 -.229E-02 0.132E-01   0.534E-04 -.670E-03 -.411E-03   0.244E-07 -.149E-06 -.589E-07
   0.248E-01 0.744E-02 -.181E-01   -.232E-01 -.573E-02 0.174E-01   -.179E-02 -.108E-02 0.773E-03   -.213E-06 0.409E-07 0.715E-07
   0.775E-02 0.124E-01 -.835E-03   -.780E-02 -.128E-01 0.447E-03   0.226E-03 0.193E-03 0.480E-03   -.155E-07 0.151E-06 -.655E-07
   0.106E-01 0.586E-02 -.292E-02   -.113E-01 -.512E-02 0.243E-02   0.606E-03 -.607E-03 0.438E-03   -.103E-06 0.178E-06 -.204E-07
   0.836E-02 0.152E-01 -.124E-01   -.850E-02 -.161E-01 0.124E-01   -.171E-03 0.528E-03 -.298E-03   -.180E-06 -.603E-08 -.321E-06
   0.120E-01 0.149E-01 -.244E-02   -.119E-01 -.146E-01 0.259E-02   -.147E-03 -.208E-03 -.956E-04   -.951E-07 -.343E-07 -.129E-06
   0.562E-02 0.267E-02 -.131E-01   -.522E-02 -.229E-02 0.136E-01   -.504E-03 -.123E-03 -.270E-03   -.220E-06 0.186E-06 0.114E-06
   0.135E-01 0.726E-02 -.120E-01   -.127E-01 -.670E-02 0.119E-01   -.651E-03 -.417E-03 0.150E-03   -.297E-06 0.173E-08 0.155E-06
   0.502E-02 0.564E-04 -.415E-02   -.551E-02 0.544E-05 0.477E-02   0.387E-03 -.375E-04 -.492E-03   -.838E-07 0.815E-07 -.109E-06
   0.104E-01 -.129E-02 -.916E-02   -.104E-01 0.106E-02 0.834E-02   -.151E-03 0.567E-04 0.591E-03   -.181E-06 -.157E-06 -.379E-07
   -.471E-03 0.125E-01 -.780E-02   -.183E-04 -.127E-01 0.751E-02   0.364E-03 -.160E-03 0.446E-03   0.496E-07 -.108E-06 -.215E-06
   0.228E-02 0.105E-01 -.535E-02   -.259E-02 -.100E-01 0.530E-02   0.259E-03 -.349E-03 0.126E-03   0.145E-09 0.459E-07 0.427E-07
   0.996E-03 0.464E-02 -.524E-02   0.394E-02 -.477E-02 0.554E-02   -.328E-02 0.125E-03 -.201E-03   0.161E-06 0.303E-07 0.108E-06
   0.676E-03 0.112E-01 -.461E-02   0.507E-03 -.101E-01 0.525E-02   -.947E-03 -.908E-03 -.430E-03   -.423E-07 -.220E-06 0.431E-07
   -.476E-03 -.194E-03 -.352E-02   -.183E-04 -.544E-05 0.368E-02   0.368E-03 0.187E-03 -.637E-04   -.306E-07 0.356E-07 -.335E-07
   0.718E-04 -.757E-03 -.590E-02   0.579E-03 0.647E-04 0.478E-02   -.550E-03 0.558E-03 0.857E-03   -.428E-07 0.481E-07 0.595E-07
   0.319E-02 0.462E-02 -.522E-02   -.369E-02 -.475E-02 0.551E-02   0.399E-03 0.125E-03 -.200E-03   0.179E-06 0.276E-07 0.182E-06
   0.288E-02 0.527E-06 -.512E-02   -.267E-02 -.273E-13 0.470E-02   -.136E-03 -.339E-06 0.298E-03   -.782E-07 -.946E-07 0.561E-07
   0.322E-02 0.104E-01 -.713E-02   -.277E-02 -.103E-01 0.852E-02   -.283E-03 0.181E-04 -.107E-02   0.934E-07 -.153E-07 -.128E-06
   0.553E-02 0.187E-01 -.127E-01   -.398E-02 -.169E-01 0.125E-01   -.920E-03 -.200E-02 0.450E-03   0.182E-06 -.228E-06 -.147E-06
   0.184E-03 0.695E-02 -.275E-02   -.475E-03 -.804E-02 0.231E-02   0.199E-03 0.874E-03 0.301E-03   0.110E-06 0.342E-07 -.218E-06
   -.116E-01 0.605E-02 -.191E-02   0.574E-02 -.871E-02 0.401E-02   0.387E-02 0.311E-02 -.273E-02   0.217E-06 0.256E-06 -.272E-06
   0.987E-02 0.451E-02 -.535E-02   -.103E-01 -.477E-02 0.551E-02   0.326E-03 0.273E-03 -.509E-04   0.470E-07 0.231E-06 0.190E-06
   0.951E-03 0.286E-02 -.444E-02   -.366E-03 -.304E-02 0.370E-02   -.404E-03 0.138E-03 0.636E-03   -.759E-08 0.165E-06 -.351E-07
   0.126E-01 0.749E-02 -.141E-01   -.136E-01 -.802E-02 0.149E-01   0.719E-03 0.369E-03 -.719E-03   -.262E-07 -.935E-07 -.136E-07
   0.800E-02 0.511E-02 -.136E-01   -.773E-02 -.506E-02 0.134E-01   -.188E-03 -.496E-04 0.113E-03   0.408E-07 0.272E-07 0.255E-06
   0.557E-02 0.127E-01 0.279E-01   -.338E-03 -.792E-02 -.384E-01   -.628E-02 -.598E-02 0.578E-02   0.226E-06 0.147E-06 -.130E-06
   0.141E-02 0.155E-02 0.845E-02   0.974E-03 0.162E-02 -.273E-02   -.261E-02 -.326E-02 -.407E-02   -.988E-07 -.189E-06 -.769E-08
   0.849E-01 0.607E-01 -.259E-01   -.839E-01 -.604E-01 0.235E-01   -.462E-02 -.133E-02 0.296E-02   -.103E-05 -.913E-06 0.141E-06
   0.303E-01 0.229E-01 0.183E-01   -.289E-01 -.235E-01 -.186E-01   -.130E-02 0.579E-04 0.571E-03   0.308E-08 0.116E-06 0.320E-06
   0.324E-01 -.659E-02 -.694E-01   -.316E-01 0.805E-02 0.706E-01   -.261E-02 -.352E-03 0.894E-03   -.389E-06 -.976E-07 0.708E-06
   0.568E-01 0.154E-01 -.299E-01   -.559E-01 -.159E-01 0.290E-01   -.103E-02 0.366E-03 0.753E-03   -.454E-06 -.328E-06 0.444E-07
   -.327E-02 -.104E-01 -.713E-02   0.184E-02 0.103E-01 0.851E-02   0.105E-02 -.160E-04 -.107E-02   0.157E-06 0.140E-06 0.946E-07
   0.124E-01 -.937E-02 -.218E-01   -.114E-01 0.769E-02 0.206E-01   -.728E-03 0.817E-03 0.115E-02   -.277E-07 -.995E-07 0.837E-07
   -.950E-02 0.598E-01 -.246E-01   0.956E-02 -.604E-01 0.235E-01   0.658E-03 -.149E-02 0.267E-02   -.264E-06 -.800E-06 -.691E-07
   0.435E-02 0.255E-01 0.130E-01   -.586E-02 -.245E-01 -.140E-01   0.133E-02 -.732E-03 0.759E-03   0.210E-06 -.953E-07 0.734E-07
   -.247E-01 0.561E-02 -.354E-01   0.361E-01 0.109E-03 0.301E-01   -.646E-02 -.666E-02 0.635E-02   0.619E-07 0.394E-07 0.140E-06
   0.859E-02 0.427E-01 -.430E-01   -.658E-02 -.410E-01 0.455E-01   -.141E-02 -.102E-02 -.221E-02   -.557E-06 -.498E-06 -.175E-06
   -.104E-01 -.511E-02 -.520E-02   0.956E-02 0.477E-02 0.550E-02   0.644E-03 0.337E-03 -.202E-03   -.222E-06 0.183E-06 0.191E-06
   -.856E-02 0.542E-03 -.341E-01   0.993E-02 -.247E-02 0.329E-01   -.114E-02 0.162E-02 0.822E-03   -.378E-06 0.231E-06 0.400E-06
   -.939E-03 -.248E-03 0.105E-01   -.183E-04 0.458E-04 -.956E-02   0.830E-03 0.189E-03 -.683E-03   0.136E-06 0.268E-06 -.445E-07
   -.627E-03 -.441E-02 -.378E-02   0.692E-03 0.408E-02 0.338E-02   0.979E-04 0.362E-03 0.267E-03   0.372E-07 0.190E-06 -.444E-07
   -.739E-02 0.238E-03 -.628E-02   0.757E-02 -.111E-04 0.786E-02   -.134E-03 -.168E-03 -.126E-02   0.327E-07 -.307E-07 -.196E-07
   -.590E-02 0.144E-01 -.828E-02   0.530E-02 -.129E-01 0.839E-02   0.283E-03 -.165E-02 0.100E-03   -.131E-06 -.237E-06 -.288E-06
   -.465E-02 -.336E-02 0.190E-02   0.429E-02 0.229E-02 -.250E-02   0.260E-03 0.817E-03 0.486E-03   0.139E-06 -.770E-07 0.206E-07
   -.161E-01 0.192E-02 -.104E-01   0.981E-02 0.603E-03 0.775E-02   0.425E-02 -.302E-02 0.309E-02   0.210E-06 -.224E-06 0.326E-06
   0.504E-02 -.343E-03 0.512E-02   -.553E-02 0.544E-05 -.475E-02   0.389E-03 0.337E-03 -.243E-03   0.972E-07 0.229E-06 0.869E-07
   -.130E-02 -.156E-02 -.426E-04   0.167E-02 0.105E-02 -.360E-03   -.243E-03 0.500E-03 0.274E-03   -.258E-07 0.590E-07 0.128E-06
   0.201E-02 0.249E-02 0.181E-03   -.325E-02 -.326E-02 0.447E-03   0.871E-03 0.560E-03 -.536E-03   -.330E-07 0.124E-07 -.204E-06
   0.359E-02 0.282E-02 0.132E-02   -.367E-02 -.301E-02 -.169E-02   0.200E-03 0.137E-03 0.241E-03   0.155E-06 0.246E-06 -.351E-07
   -.409E-02 -.323E-02 0.861E-05   0.435E-02 0.229E-02 0.481E-03   -.158E-03 0.668E-03 -.385E-03   0.246E-06 0.143E-08 0.809E-07
   -.128E-03 -.733E-06 -.714E-02   -.658E-03 0.195E-13 0.673E-02   0.650E-03 0.426E-06 -.229E-03   0.332E-07 -.132E-06 0.123E-06
   0.947E-02 0.692E-02 0.177E-01   -.101E-01 -.805E-02 -.176E-01   0.592E-03 0.982E-03 0.255E-04   0.263E-06 0.973E-07 0.919E-07
   -.470E-03 0.320E-02 0.381E-02   0.360E-03 -.301E-02 -.369E-02   0.383E-03 0.208E-03 0.112E-03   0.412E-07 -.669E-07 -.520E-07
   0.369E-01 -.323E-02 0.433E-04   -.383E-01 0.229E-02 0.447E-03   0.997E-03 0.670E-03 -.386E-03   -.302E-06 0.437E-07 0.103E-07
   0.165E-01 0.356E-02 0.419E-02   -.164E-01 -.403E-02 -.472E-02   0.219E-04 0.451E-03 0.354E-03   0.247E-07 0.132E-06 0.941E-07
   0.951E-02 -.738E-02 -.104E-01   -.101E-01 0.805E-02 0.117E-01   0.592E-03 -.519E-03 -.105E-02   0.144E-07 -.988E-07 -.255E-06
   0.161E-01 -.373E-03 -.749E-02   -.154E-01 0.102E-02 0.773E-02   -.242E-03 -.242E-03 -.475E-03   -.382E-07 -.856E-07 0.674E-08
 -----------------------------------------------------------------------------------------------
   0.500E-04 0.260E-04 0.509E-04   0.811E-13 -.560E-12 -.199E-13   -.491E-04 -.265E-04 -.512E-04   0.130E-07 0.288E-07 0.573E-08
 
 
 POSITION                                       TOTAL-FORCE (eV/Angst)
 -----------------------------------------------------------------------------------
      1.36715      1.36715      1.37715         0.004925      0.000969     -0.129333
      0.00000      0.00000      0.00000         0.017900      0.020428      0.033032
      1.35715      4.10144      4.10144         0.129330      0.002023      0.001593
      0.00000      2.73429      2.73429        -0.053374      0.000014      0.012327
      1.36715      6.83573      6.83573         0.004920     -0.000594     -0.000824
      0.00000      5.46858      5.46858        -0.032381      0.020717      0.020727
      1.36715      9.57002      9.57002         0.002630      0.002015      0.001572
      0.00000      8.20287      8.20287        -0.002529     -0.000278     -0.000267
      4.10144      1.36715      4.10144         0.000463      0.001054      0.000635
      2.73429      0.00000      2.73429         0.020769     -0.020858      0.033206
      4.10144      4.10144      6.83573        -0.001364      0.001160     -0.001973
      2.73429      2.73429      5.46858        -0.032900      0.019606     -0.020027
      4.10144      6.83573      9.57002         0.000168      0.000422     -0.000045
      2.73429      5.46858      8.20287         0.000091     -0.000423      0.000396
      4.10144      9.57002     12.30431        -0.001070      0.001114     -0.005192
      2.73429      8.20287     10.93716        -0.000264     -0.000499     -0.000091
      6.83573      1.36715      6.83573         0.000323      0.000150     -0.000007
      5.46858      0.00000      5.46858        -0.000007      0.000671      0.000684
      6.83573      4.10144      9.57002         0.000007      0.000270     -0.000267
      5.46858      2.73429      8.20287        -0.000286     -0.000633     -0.000142
      6.83573      6.83573     12.30431        -0.000046      0.000209     -0.001887
      5.46858      5.46858     10.93716        -0.000213     -0.000318      0.000002
      6.83573      9.57002     15.03860         0.000065      0.000642      0.000105
      5.46858      8.20287     13.67145        -0.000530      0.000395      0.002213
      9.57002      1.36715      9.57002         0.001915      0.001225      0.001364
      8.20287      0.00000      8.20287         0.000448     -0.000861      0.000594
      9.57002      4.10144     12.30431        -0.000622     -0.001930     -0.006957
      8.20287      2.73429     10.93716        -0.000550      0.000134     -0.000446
      9.57002      6.83573     15.03860        -0.001315      0.002243      0.001067
      8.20287      5.46858     13.67145         0.000551     -0.000815      0.002394
      9.57002      9.57002     17.77289         0.000046      0.000357     -0.000224
      8.20287      8.20287     16.40574        -0.000595     -0.000188     -0.000726
      4.10144      4.10144      1.36715        -0.000623     -0.000005     -0.002898
      2.73429      2.73429      0.00000        -0.019699     -0.019607      0.032219
      4.10144      6.83573      4.10144        -0.001843     -0.001869      0.001057
      2.73429      5.46858      2.73429        -0.032221     -0.020292      0.019694
      4.10144      9.57002      6.83573        -0.000313      0.000058      0.000318
      2.73429      8.20287      5.46858         0.000407      0.000260     -0.000288
      4.10144     12.30431      9.57002        -0.002121     -0.001221      0.001721
      2.73429     10.93716      8.20287         0.000422     -0.000184     -0.000236
      6.83573      4.10144      4.10144        -0.000017     -0.000271      0.000104
      5.46858      2.73429      2.73429        -0.000267     -0.000005     -0.000595
      6.83573      6.83573      6.83573        -0.000046     -0.000208     -0.000105
      5.46858      5.46858      5.46858         0.000096      0.000362      0.000244
      6.83573      9.57002      9.57002        -0.000254     -0.000273      0.000105
      5.46858      8.20287      8.20287         0.000080      0.000000     -0.000117
      6.83573     12.30431     12.30431        -0.000046      0.000209      0.000460
      5.46858     10.93716     10.93716         0.000439      0.000362     -0.000231
      9.57002      4.10144      6.83573         0.000114     -0.000221      0.000044
      8.20287      2.73429      5.46858        -0.000016      0.000180      0.000034
      9.57002      6.83573      9.57002        -0.000375     -0.000420     -0.000044
      8.20287      5.46858      8.20287        -0.000037      0.000139     -0.000018
      9.57002      9.57002     12.30431        -0.000092      0.000162      0.000396
      8.20287      8.20287     10.93716         0.000258      0.000177     -0.000097
      9.57002     12.30431     15.03860        -0.000092     -0.000011      0.000106
      8.20287     10.93716     13.67145        -0.000033     -0.000088     -0.000313
     12.30431      4.10144      9.57002        -0.001203     -0.002018      0.001572
     10.93716      2.73429      8.20287        -0.000188      0.000336     -0.000099
     12.30431      6.83573     12.30431         0.004914      0.000949     -0.000696
     10.93716      5.46858     10.93716         0.000595      0.000677      0.000094
     12.30431      9.57002     15.03860        -0.000264      0.000002      0.000094
     10.93716      8.20287     13.67145         0.000244     -0.000322     -0.000493
     12.30431     12.30431     17.77289        -0.000127      0.000012      0.000153
     10.93716     10.93716     16.40574         0.000177      0.000044     -0.000056
      6.83573      6.83573      1.36715        -0.000048     -0.000148     -0.001518
      5.46858      5.46858      0.00000         0.000267      0.000946      0.002233
      6.83573      9.57002      4.10144        -0.000292     -0.000102      0.000102
      5.46858      8.20287      2.73429        -0.000049     -0.000354     -0.000552
      6.83573     12.30431      6.83573        -0.000418     -0.000207      0.000350
      5.46858     10.93716      5.46858         0.000026     -0.000078     -0.000104
      6.83573     15.03860      9.57002        -0.000351      0.000271      0.000475
      5.46858     13.67145      8.20287        -0.000251      0.000632      0.000126
      9.57002      6.83573      4.10144         0.000176     -0.000151      0.000092
      8.20287      5.46858      2.73429        -0.000093      0.000136     -0.000056
      9.57002      9.57002      6.83573        -0.000312     -0.000358     -0.000223
      8.20287      8.20287      5.46858        -0.000074      0.000062      0.000058
      9.57002     12.30431      9.57002        -0.000105      0.000258      0.000244
      8.20287     10.93716      8.20287         0.000179      0.000140      0.000074
      9.57002     15.03860     12.30431        -0.000106      0.000024      0.000128
      8.20287     13.67145     10.93716        -0.000077     -0.000165     -0.000237
     12.30431      6.83573      6.83573        -0.000125     -0.000358      0.000154
     10.93716      5.46858      5.46858        -0.000052      0.000105      0.000080
     12.30431      9.57002      9.57002         0.001657     -0.000001      0.000094
     10.93716      8.20287      8.20287         0.000236      0.000237      0.000213
     12.30431     12.30431     12.30431        -0.000126     -0.000012      0.000101
     10.93716     10.93716     10.93716         0.000101     -0.000134     -0.000264
     12.30431     15.03860     15.03860        -0.000101     -0.000002      0.000094
     10.93716     13.67145     13.67145         0.000081      0.000000     -0.000130
     15.03860      6.83573      9.57002         0.000166      0.000062      0.000313
     13.67145      5.46858      8.20287         0.000629     -0.000204      0.000228
     15.03860      9.57002     12.30431        -0.000092     -0.000221     -0.000144
     13.67145      8.20287     10.93716        -0.002043      0.000452     -0.000629
     15.03860     12.30431     15.03860        -0.000096      0.000011      0.000106
     13.67145     10.93716     13.67145         0.000180     -0.000046     -0.000098
     15.03860     15.03860     17.77289        -0.000244     -0.000162      0.000049
     13.67145     13.67145     16.40574         0.000084      0.000002     -0.000088
      9.57002      9.57002      1.36715        -0.001050     -0.001155     -0.004641
      8.20287      8.20287      0.00000        -0.000221     -0.000086      0.001648
      9.57002     12.30431      4.10144        -0.003625     -0.001079      0.000625
      8.20287     10.93716      2.73429         0.000133     -0.000537      0.000224
      9.57002     15.03860      6.83573        -0.001735      0.001111      0.002080
      8.20287     13.67145      5.46858        -0.000120     -0.000132     -0.000133
      9.57002     17.77289      9.57002        -0.000374     -0.000063      0.000312
      8.20287     16.40574      8.20287         0.000177     -0.000862     -0.000054
     12.30431      9.57002      4.10144         0.000711     -0.002034      0.001586
     10.93716      8.20287      2.73429        -0.000182      0.000321     -0.000259
     12.30431     12.30431      6.83573         0.004914     -0.000947      0.001115
     10.93716     10.93716      5.46858         0.000593      0.000685      0.000260
     12.30431     15.03860      9.57002        -0.000240      0.000001      0.000095
     10.93716     13.67145      8.20287         0.000229     -0.000315     -0.000409
     12.30431     17.77289     12.30431        -0.000127     -0.000013      0.000264
     10.93716     16.40574     10.93716         0.000163      0.000030     -0.000134
     15.03860      9.57002      6.83573         0.000045      0.000060      0.000316
     13.67145      8.20287      5.46858        -0.000319     -0.000176      0.000202
     15.03860     12.30431      9.57002        -0.000103     -0.000258     -0.000114
     13.67145     10.93716      8.20287        -0.002014     -0.000495      0.000409
     15.03860     15.03860     12.30431        -0.000107      0.000000      0.000125
     13.67145     13.67145     10.93716         0.000132     -0.000017     -0.000128
     15.03860     17.77289     15.03860        -0.000366     -0.000207      0.000092
     13.67145     16.40574     13.67145         0.000114     -0.000046     -0.000132
     17.77289      9.57002      9.57002         0.000105     -0.000270      0.000104
     16.40574      8.20287      8.20287        -0.000136     -0.000000     -0.000638
     17.77289     12.30431     12.30431        -0.000046     -0.000149      0.000102
     16.40574     10.93716     10.93716         0.000274      0.000394      0.000231
     17.77289     15.03860     15.03860        -0.000375     -0.000271      0.000104
     16.40574     13.67145     13.67145         0.000043     -0.000014     -0.000178
     17.77289     17.77289     17.77289        -0.000045      0.000150      0.000253
     16.40574     16.40574     16.40574         0.000450      0.000407     -0.000229
 -----------------------------------------------------------------------------------
    total drift:                                0.000001     -0.000000     -0.000000


--------------------------------------------------------------------------------------------------------



  FREE ENERGIE OF THE ION-ELECTRON SYSTEM (eV)
  ---------------------------------------------------
  free  energy   TOTEN  =      -682.56820619 eV

  energy  without entropy=     -682.56820619  energy(sigma->0) =     -682.56820619
 


--------------------------------------------------------------------------------------------------------


    POTLOK:  cpu time    0.5017: real time    0.5031


--------------------------------------------------------------------------------------------------------


     LOOP+:  cpu time  122.1304: real time  122.4804
    4ORBIT:  cpu time    0.0000: real time    0.0000

 total amount of memory used by VASP MPI-rank0   118934. kBytes
=======================================================================

   base      :      30000. kBytes
   nonl-proj :       7011. kBytes
   fftplans  :      53058. kBytes
   grid      :      20148. kBytes
   one-center:         21. kBytes
   wavefun   :       8696. kBytes
 
  
  
 General timing and accounting informations for this job:
 ========================================================
  
                  Total CPU time used (sec):      130.025
                            User time (sec):      128.005
                          System time (sec):        2.020
                         Elapsed time (sec):      130.648
  
                   Maximum memory used (kb):      233600.
                   Average memory used (kb):           0.
  
                          Minor page faults:       216655
                          Major page faults:            0
                 Voluntary context switches:          452
