C 
 1.0000000000000000
    17.2643840809999993    0.0000000000000000    0.0000000000000000
    -8.6321920404999979   14.9513951948376622    0.0000000000000000
     0.0000000000000000    0.0000000000000000   40.0000000000000000
 C  
  98
Direct
  0.0000000000000000  0.0000000000000000  0.0000000000000000
  0.1428571426833747  0.0000000000000000  0.0000000000000000
  0.2857142859459766  0.0000000000000000  0.0000000000000000
  0.4285714286293513  0.0000000000000000  0.0000000000000000
  0.5714285713127261  0.0000000000000000  0.0000000000000000
  0.7142857139961009  0.0000000000000000  0.0000000000000000
  0.8571428572587027  0.0000000000000000  0.0000000000000000
  0.0000000001115465  0.1428571429064678  0.0000000000000000
  0.1428571427949213  0.1428571429064678  0.0000000000000000
  0.2857142854782960  0.1428571429064678  0.0000000000000000
  0.4285714287408978  0.1428571429064678  0.0000000000000000
  0.5714285714242726  0.1428571429064678  0.0000000000000000
  0.7142857141076473  0.1428571429064678  0.0000000000000000
  0.8571428573702492  0.1428571429064678  0.0000000000000000
  0.0000000002230931  0.2857142858129356  0.0000000000000000
  0.1428571429064678  0.2857142858129356  0.0000000000000000
  0.2857142855898425  0.2857142858129356  0.0000000000000000
  0.4285714288524444  0.2857142858129356  0.0000000000000000
  0.5714285715358192  0.2857142858129356  0.0000000000000000
  0.7142857142191938  0.2857142858129356  0.0000000000000000
  0.8571428569025686  0.2857142858129356  0.0000000000000000
  0.0000000003346396  0.4285714287194035  0.0000000000000000
  0.1428571430180143  0.4285714287194035  0.0000000000000000
  0.2857142857013890  0.4285714287194035  0.0000000000000000
  0.4285714283847638  0.4285714287194035  0.0000000000000000
  0.5714285716473656  0.4285714287194035  0.0000000000000000
  0.7142857143307403  0.4285714287194035  0.0000000000000000
  0.8571428570141151  0.4285714287194035  0.0000000000000000
 -0.0000000001330411  0.5714285716258712  0.0000000000000000
  0.1428571431295609  0.5714285716258712  0.0000000000000000
  0.2857142858129356  0.5714285716258712  0.0000000000000000
  0.4285714284963102  0.5714285716258712  0.0000000000000000
  0.5714285717589122  0.5714285716258712  0.0000000000000000
  0.7142857144422869  0.5714285716258712  0.0000000000000000
  0.8571428571256616  0.5714285716258712  0.0000000000000000
 -0.0000000000214945  0.7142857145323390  0.0000000000000000
  0.1428571432411074  0.7142857145323390  0.0000000000000000
  0.2857142859244821  0.7142857145323390  0.0000000000000000
  0.4285714286078569  0.7142857145323390  0.0000000000000000
  0.5714285712912316  0.7142857145323390  0.0000000000000000
  0.7142857145538334  0.7142857145323390  0.0000000000000000
  0.8571428572372082  0.7142857145323390  0.0000000000000000
  0.0000000000900521  0.8571428574388069  0.0000000000000000
  0.1428571427734268  0.8571428574388069  0.0000000000000000
  0.2857142860360287  0.8571428574388069  0.0000000000000000
  0.4285714287194034  0.8571428574388069  0.0000000000000000
  0.5714285714027780  0.8571428574388069  0.0000000000000000
  0.7142857146653800  0.8571428574388069  0.0000000000000000
  0.8571428573487547  0.8571428574388069  0.0000000000000000
  0.0476190476354893  0.0952380952709786  0.0000000000000000
  0.1904761903188640  0.0952380952709786  0.0000000000000000
  0.3333333335814659  0.0952380952709786  0.0000000000000000
  0.4761904762648406  0.0952380952709786  0.0000000000000000
  0.6190476189482154  0.0952380952709786  0.0000000000000000
  0.7619047616315902  0.0952380952709786  0.0000000000000000
  0.9047619048941919  0.0952380952709786  0.0000000000000000
  0.0476190477470358  0.2380952381774463  0.0000000000000000
  0.1904761904304105  0.2380952381774463  0.0000000000000000
  0.3333333331137853  0.2380952381774463  0.0000000000000000
  0.4761904763763871  0.2380952381774463  0.0000000000000000
  0.6190476190597618  0.2380952381774463  0.0000000000000000
  0.7619047617431366  0.2380952381774463  0.0000000000000000
  0.9047619050057384  0.2380952381774463  0.0000000000000000
  0.0476190478585824  0.3809523810839142  0.0000000000000000
  0.1904761905419571  0.3809523810839142  0.0000000000000000
  0.3333333332253318  0.3809523810839142  0.0000000000000000
  0.4761904764879338  0.3809523810839142  0.0000000000000000
  0.6190476191713085  0.3809523810839142  0.0000000000000000
  0.7619047618546831  0.3809523810839142  0.0000000000000000
  0.9047619045380578  0.3809523810839142  0.0000000000000000
  0.0476190479701289  0.5238095239903819  0.0000000000000000
  0.1904761906535036  0.5238095239903819  0.0000000000000000
  0.3333333333368783  0.5238095239903819  0.0000000000000000
  0.4761904760202530  0.5238095239903819  0.0000000000000000
  0.6190476192828550  0.5238095239903819  0.0000000000000000
  0.7619047619662296  0.5238095239903819  0.0000000000000000
  0.9047619046496044  0.5238095239903819  0.0000000000000000
  0.0476190475024482  0.6666666668968498  0.0000000000000000
  0.1904761907650502  0.6666666668968498  0.0000000000000000
  0.3333333334484249  0.6666666668968498  0.0000000000000000
  0.4761904761317997  0.6666666668968498  0.0000000000000000
  0.6190476193944014  0.6666666668968498  0.0000000000000000
  0.7619047620777761  0.6666666668968498  0.0000000000000000
  0.9047619047611509  0.6666666668968498  0.0000000000000000
  0.0476190476139948  0.8095238098033176  0.0000000000000000
  0.1904761908765966  0.8095238098033176  0.0000000000000000
  0.3333333335599714  0.8095238098033176  0.0000000000000000
  0.4761904762433461  0.8095238098033176  0.0000000000000000
  0.6190476189267208  0.8095238098033176  0.0000000000000000
  0.7619047621893227  0.8095238098033176  0.0000000000000000
  0.9047619048726974  0.8095238098033176  0.0000000000000000
  0.0476190477255413  0.9523809527097854  0.0000000000000000
  0.1904761904089160  0.9523809527097854  0.0000000000000000
  0.3333333336715179  0.9523809527097854  0.0000000000000000
  0.4761904763548926  0.9523809527097854  0.0000000000000000
  0.6190476190382672  0.9523809527097854  0.0000000000000000
  0.7619047623008692  0.9523809527097854  0.0000000000000000
  0.9047619049842440  0.9523809527097854  0.0000000000000000
