 vasp.5.4.4.18Apr17-6-g9f103f2a35 (build Aug 16 2020 16:33:06) complex          
  
 executed on             LinuxIFC date 2026.08.15  14:43:14
 running on   40 total cores
 distrk:  each k-point on   40 cores,    1 groups
 distr:  one band on NCORES_PER_BAND=  20 cores,    2 groups


--------------------------------------------------------------------------------------------------------


 INCAR:
 POTCAR:   PAW_PBE Si 05Jan2001                   

 ----------------------------------------------------------------------------- 
|                                                                             |
|           W    W    AA    RRRRR   N    N  II  N    N   GGGG   !!!           |
|           W    W   A  A   R    R  NN   N  II  NN   N  G    G  !!!           |
|           W    W  A    A  R    R  N N  N  II  N N  N  G       !!!           |
|           W WW W  AAAAAA  RRRRR   N  N N  II  N  N N  G  GGG   !            |
|           WW  WW  A    A  R   R   N   NN  II  N   NN  G    G                |
|           W    W  A    A  R    R  N    N  II  N    N   GGGG   !!!           |
|                                                                             |
|      For optimal performance we recommend to set                            |
|        NCORE= 4 - approx SQRT( number of cores)                             |
|      NCORE specifies how many cores store one orbital (NPAR=cpu/NCORE).     |
|      This setting can  greatly improve the performance of VASP for DFT.     |
|      The default,   NCORE=1            might be grossly inefficient         |
|      on modern multi-core architectures or massively parallel machines.     |
|      Do your own testing !!!!                                               |
|      Unfortunately you need to use the default for GW and RPA calculations. |
|      (for HF NCORE is supported but not extensively tested yet)             |
|                                                                             |
 ----------------------------------------------------------------------------- 

 POTCAR:   PAW_PBE Si 05Jan2001                   
   VRHFIN =Si: s2p2                                                             
   LEXCH  = PE                                                                  
   EATOM  =   103.0669 eV,    7.5752 Ry                                         
                                                                                
   TITEL  = PAW_PBE Si 05Jan2001                                                
   LULTRA =        F    use ultrasoft PP ?                                      
   IUNSCR =        1    unscreen: 0-lin 1-nonlin 2-no                           
   RPACOR =    1.500    partial core radius                                     
   POMASS =   28.085; ZVAL   =    4.000    mass and valenz                      
   RCORE  =    1.900    outmost cutoff radius                                   
   RWIGS  =    2.480; RWIGS  =    1.312    wigner-seitz radius (au A)           
   ENMAX  =  245.345; ENMIN  =  184.009 eV                                      
   ICORE  =        2    local potential                                         
   LCOR   =        T    correct aug charges                                     
   LPAW   =        T    paw PP                                                  
   EAUG   =  322.069                                                            
   DEXC   =    -.007                                                            
   RMAX   =    2.944    core radius for proj-oper                               
   RAUG   =    1.300    factor for augmentation sphere                          
   RDEP   =    1.993    radius for radial grids                                 
   QCUT   =   -4.246; QGAM   =    8.493    optimization parameters              
                                                                                
   Description                                                                  
     l     E      TYP  RCUT    TYP  RCUT                                        
     0   .000     23  1.900                                                     
     0   .000     23  1.900                                                     
     1   .000     23  1.900                                                     
     1   .000     23  1.900                                                     
     2   .000      7  1.900                                                     
  local pseudopotential read in
  partial core-charges read in
  atomic valenz-charges read in
  non local Contribution for L=           0  read in
    real space projection operators read in
  non local Contribution for L=           0  read in
    real space projection operators read in
  non local Contribution for L=           1  read in
    real space projection operators read in
  non local Contribution for L=           1  read in
    real space projection operators read in
    PAW grid and wavefunctions read in
 
   number of l-projection  operators is LMAX  =           4
   number of lm-projection operators is LMMAX =           8
 

 ----------------------------------------------------------------------------- 
|                                                                             |
|  ADVICE TO THIS USER RUNNING 'VASP/VAMP'   (HEAR YOUR MASTER'S VOICE ...):  |
|                                                                             |
|      You have a (more or less) 'large supercell' and for larger cells       |
|      it might be more efficient to use real space projection operators      |
|      So try LREAL= Auto  in the INCAR   file.                               |
|      Mind: If you want to do a very accurate calculations keep the          |
|      reciprocal projection scheme          (i.e. LREAL=.FALSE.)             |
|                                                                             |
 ----------------------------------------------------------------------------- 

 PAW_PBE Si 05Jan2001                   :
 energy of atom  1       EATOM= -103.0669
 kinetic energy error for atom=    0.0006 (will be added to EATOM!!)
 
 
 POSCAR: Si                                      
  positions in direct lattice
  No initial velocities read in
 exchange correlation table for  LEXCH =        8
   RHO(1)=    0.500       N(1)  =     2000
   RHO(2)=  100.500       N(2)  =     4000
 


--------------------------------------------------------------------------------------------------------


 ion  position               nearest neighbor table
   1  0.062  0.063  0.062-   2 2.36  10 2.36   4 2.37  34 2.37
   2  0.000  1.000  0.000-   1 2.36  25 2.36   7 2.37  97 2.37
   3  0.312  0.062  0.062-   4 2.37   6 2.37  12 2.37  36 2.37
   4  0.250  0.000  0.000-   3 2.37  27 2.37  99 2.37   1 2.37
   5  0.562  0.062  0.062-   6 2.37   8 2.37  14 2.37  38 2.37
   6  0.500  0.000  0.000-   3 2.37   5 2.37  29 2.37 101 2.37
   7  0.812  0.062  0.062-   8 2.37  16 2.37  40 2.37   2 2.37
   8  0.750  0.000  0.000-   5 2.37   7 2.37  31 2.37 103 2.37
   9  0.062  0.312  0.062-  10 2.37  12 2.37  18 2.37  42 2.37
  10  0.000  0.250  0.000-   1 2.36   9 2.37  15 2.37 105 2.37
  11  0.312  0.312  0.062-  12 2.37  14 2.37  20 2.37  44 2.37
  12  0.250  0.250  0.000-   3 2.37   9 2.37  11 2.37 107 2.37
  13  0.562  0.312  0.062-  14 2.37  16 2.37  22 2.37  46 2.37
  14  0.500  0.250  0.000-   5 2.37  11 2.37  13 2.37 109 2.37
  15  0.812  0.312  0.062-  10 2.37  16 2.37  24 2.37  48 2.37
  16  0.750  0.250  0.000-   7 2.37  13 2.37  15 2.37 111 2.37
  17  0.062  0.562  0.062-  18 2.37  20 2.37  26 2.37  50 2.37
  18  0.000  0.500  0.000-   9 2.37  17 2.37  23 2.37 113 2.37
  19  0.312  0.562  0.062-  20 2.37  22 2.37  28 2.37  52 2.37
  20  0.250  0.500  0.000-  11 2.37  17 2.37  19 2.37 115 2.37
  21  0.562  0.562  0.062-  22 2.37  24 2.37  30 2.37  54 2.37
  22  0.500  0.500  0.000-  13 2.37  19 2.37  21 2.37 117 2.37
  23  0.812  0.562  0.062-  18 2.37  24 2.37  32 2.37  56 2.37
  24  0.750  0.500  0.000-  15 2.37  21 2.37  23 2.37 119 2.37
  25  0.062  0.812  0.062-   2 2.36  26 2.37  28 2.37  58 2.37
  26  0.000  0.750  0.000-  17 2.37  25 2.37  31 2.37 121 2.37
  27  0.312  0.812  0.062-   4 2.37  28 2.37  30 2.37  60 2.37
  28  0.250  0.750  0.000-  19 2.37  25 2.37  27 2.37 123 2.37
  29  0.562  0.812  0.062-   6 2.37  30 2.37  32 2.37  62 2.37
  30  0.500  0.750  0.000-  21 2.37  27 2.37  29 2.37 125 2.37
  31  0.812  0.812  0.062-   8 2.37  26 2.37  32 2.37  64 2.37
  32  0.750  0.750  0.000-  23 2.37  29 2.37  31 2.37 127 2.37
  33  0.062  0.062  0.312-  34 2.37  36 2.37  42 2.37  66 2.37
  34  0.000  0.000  0.250-  33 2.37  39 2.37  57 2.37   1 2.37
  35  0.312  0.062  0.312-  36 2.37  38 2.37  44 2.37  68 2.37
  36  0.250  0.000  0.250-   3 2.37  33 2.37  35 2.37  59 2.37
  37  0.562  0.062  0.312-  38 2.37  40 2.37  46 2.37  70 2.37
  38  0.500  0.000  0.250-   5 2.37  35 2.37  37 2.37  61 2.37
  39  0.812  0.062  0.312-  34 2.37  40 2.37  48 2.37  72 2.37
  40  0.750  0.000  0.250-   7 2.37  37 2.37  39 2.37  63 2.37
  41  0.062  0.312  0.312-  42 2.37  44 2.37  50 2.37  74 2.37
  42  0.000  0.250  0.250-   9 2.37  33 2.37  41 2.37  47 2.37
  43  0.312  0.312  0.312-  44 2.37  46 2.37  52 2.37  76 2.37
  44  0.250  0.250  0.250-  11 2.37  35 2.37  41 2.37  43 2.37
  45  0.562  0.312  0.312-  46 2.37  48 2.37  54 2.37  78 2.37
  46  0.500  0.250  0.250-  13 2.37  37 2.37  43 2.37  45 2.37
  47  0.812  0.312  0.312-  42 2.37  48 2.37  56 2.37  80 2.37
  48  0.750  0.250  0.250-  15 2.37  39 2.37  45 2.37  47 2.37
  49  0.062  0.562  0.312-  50 2.37  52 2.37  58 2.37  82 2.37
  50  0.000  0.500  0.250-  17 2.37  41 2.37  49 2.37  55 2.37
  51  0.312  0.562  0.312-  52 2.37  54 2.37  60 2.37  84 2.37
  52  0.250  0.500  0.250-  19 2.37  43 2.37  49 2.37  51 2.37
  53  0.562  0.562  0.312-  54 2.37  56 2.37  62 2.37  86 2.37
  54  0.500  0.500  0.250-  21 2.37  45 2.37  51 2.37  53 2.37
  55  0.812  0.562  0.312-  50 2.37  56 2.37  64 2.37  88 2.37
  56  0.750  0.500  0.250-  23 2.37  47 2.37  53 2.37  55 2.37
  57  0.062  0.812  0.312-  34 2.37  58 2.37  60 2.37  90 2.37
  58  0.000  0.750  0.250-  25 2.37  49 2.37  57 2.37  63 2.37
  59  0.312  0.812  0.312-  36 2.37  60 2.37  62 2.37  92 2.37
  60  0.250  0.750  0.250-  27 2.37  51 2.37  57 2.37  59 2.37
  61  0.562  0.812  0.312-  38 2.37  62 2.37  64 2.37  94 2.37
  62  0.500  0.750  0.250-  29 2.37  53 2.37  59 2.37  61 2.37
  63  0.812  0.812  0.312-  40 2.37  58 2.37  64 2.37  96 2.37
  64  0.750  0.750  0.250-  31 2.37  55 2.37  61 2.37  63 2.37
  65  0.062  0.062  0.562-  66 2.37  68 2.37  74 2.37  98 2.37
  66  0.000  0.000  0.500-  33 2.37  65 2.37  71 2.37  89 2.37
  67  0.312  0.062  0.562-  68 2.37  70 2.37  76 2.37 100 2.37
  68  0.250  0.000  0.500-  35 2.37  65 2.37  67 2.37  91 2.37
  69  0.562  0.062  0.562-  70 2.37  72 2.37  78 2.37 102 2.37
  70  0.500  0.000  0.500-  37 2.37  67 2.37  69 2.37  93 2.37
  71  0.812  0.062  0.562-  66 2.37  72 2.37  80 2.37 104 2.37
  72  0.750  0.000  0.500-  39 2.37  69 2.37  71 2.37  95 2.37
  73  0.062  0.312  0.562-  74 2.37  76 2.37  82 2.37 106 2.37
  74  0.000  0.250  0.500-  41 2.37  65 2.37  73 2.37  79 2.37
  75  0.312  0.312  0.562-  76 2.37  78 2.37  84 2.37 108 2.37
  76  0.250  0.250  0.500-  43 2.37  67 2.37  73 2.37  75 2.37
  77  0.562  0.312  0.562-  78 2.37  80 2.37  86 2.37 110 2.37
  78  0.500  0.250  0.500-  45 2.37  69 2.37  75 2.37  77 2.37
  79  0.812  0.312  0.562-  74 2.37  80 2.37  88 2.37 112 2.37
  80  0.750  0.250  0.500-  47 2.37  71 2.37  77 2.37  79 2.37
  81  0.062  0.562  0.562-  82 2.37  84 2.37  90 2.37 114 2.37
  82  0.000  0.500  0.500-  49 2.37  73 2.37  81 2.37  87 2.37
  83  0.312  0.562  0.562-  84 2.37  86 2.37  92 2.37 116 2.37
  84  0.250  0.500  0.500-  51 2.37  75 2.37  81 2.37  83 2.37
  85  0.562  0.562  0.562-  86 2.37  88 2.37  94 2.37 118 2.37
  86  0.500  0.500  0.500-  53 2.37  77 2.37  83 2.37  85 2.37
  87  0.812  0.562  0.562-  82 2.37  88 2.37  96 2.37 120 2.37
  88  0.750  0.500  0.500-  55 2.37  79 2.37  85 2.37  87 2.37
  89  0.062  0.812  0.562-  66 2.37  90 2.37  92 2.37 122 2.37
  90  0.000  0.750  0.500-  57 2.37  81 2.37  89 2.37  95 2.37
  91  0.312  0.812  0.562-  68 2.37  92 2.37  94 2.37 124 2.37
  92  0.250  0.750  0.500-  59 2.37  83 2.37  89 2.37  91 2.37
  93  0.562  0.812  0.562-  70 2.37  94 2.37  96 2.37 126 2.37
  94  0.500  0.750  0.500-  61 2.37  85 2.37  91 2.37  93 2.37
  95  0.812  0.812  0.562-  72 2.37  90 2.37  96 2.37 128 2.37
  96  0.750  0.750  0.500-  63 2.37  87 2.37  93 2.37  95 2.37
  97  0.062  0.062  0.812-  98 2.37 100 2.37 106 2.37   2 2.37
  98  0.000  0.000  0.750-  65 2.37  97 2.37 103 2.37 121 2.37
  99  0.312  0.062  0.812-   4 2.37 100 2.37 102 2.37 108 2.37
 100  0.250  0.000  0.750-  67 2.37  97 2.37  99 2.37 123 2.37
 101  0.562  0.062  0.812-   6 2.37 102 2.37 104 2.37 110 2.37
 102  0.500  0.000  0.750-  69 2.37  99 2.37 101 2.37 125 2.37
 103  0.812  0.062  0.812-   8 2.37  98 2.37 104 2.37 112 2.37
 104  0.750  0.000  0.750-  71 2.37 101 2.37 103 2.37 127 2.37
 105  0.062  0.312  0.812-  10 2.37 106 2.37 108 2.37 114 2.37
 106  0.000  0.250  0.750-  73 2.37  97 2.37 105 2.37 111 2.37
 107  0.312  0.312  0.812-  12 2.37 108 2.37 110 2.37 116 2.37
 108  0.250  0.250  0.750-  75 2.37  99 2.37 105 2.37 107 2.37
 109  0.562  0.312  0.812-  14 2.37 110 2.37 112 2.37 118 2.37
 110  0.500  0.250  0.750-  77 2.37 101 2.37 107 2.37 109 2.37
 111  0.812  0.312  0.812-  16 2.37 106 2.37 112 2.37 120 2.37
 112  0.750  0.250  0.750-  79 2.37 103 2.37 109 2.37 111 2.37
 113  0.062  0.562  0.812-  18 2.37 114 2.37 116 2.37 122 2.37
 114  0.000  0.500  0.750-  81 2.37 105 2.37 113 2.37 119 2.37
 115  0.312  0.562  0.812-  20 2.37 116 2.37 118 2.37 124 2.37
 116  0.250  0.500  0.750-  83 2.37 107 2.37 113 2.37 115 2.37
 117  0.562  0.562  0.812-  22 2.37 118 2.37 120 2.37 126 2.37
 118  0.500  0.500  0.750-  85 2.37 109 2.37 115 2.37 117 2.37
 119  0.812  0.562  0.812-  24 2.37 114 2.37 120 2.37 128 2.37
 120  0.750  0.500  0.750-  87 2.37 111 2.37 117 2.37 119 2.37
 121  0.062  0.812  0.812-  26 2.37  98 2.37 122 2.37 124 2.37
 122  0.000  0.750  0.750-  89 2.37 113 2.37 121 2.37 127 2.37
 123  0.312  0.812  0.812-  28 2.37 100 2.37 124 2.37 126 2.37
 124  0.250  0.750  0.750-  91 2.37 115 2.37 121 2.37 123 2.37
 125  0.562  0.812  0.812-  30 2.37 102 2.37 126 2.37 128 2.37
 126  0.500  0.750  0.750-  93 2.37 117 2.37 123 2.37 125 2.37
 127  0.812  0.812  0.812-  32 2.37 104 2.37 122 2.37 128 2.37
 128  0.750  0.750  0.750-  95 2.37 119 2.37 125 2.37 127 2.37
 

IMPORTANT INFORMATION: All symmetrisations will be switched off!
NOSYMM: (Re-)initialisation of all symmetry stuff for point group C_1.

 
 
 KPOINTS: K-Spacing Value to Generate K-Mesh: 0.03

Automatic generation of k-mesh.
Space group operators:
 irot       det(A)        alpha          n_x          n_y          n_z        tau_x        tau_y        tau_z
    1     1.000000     0.000000     1.000000     0.000000     0.000000     0.000000     0.000000     0.000000
 
 Subroutine IBZKPT returns following result:
 ===========================================
 
 Found      1 irreducible k-points:
 
 Following reciprocal coordinates:
            Coordinates               Weight
  0.000000  0.000000  0.000000      1.000000
 
 Following cartesian coordinates:
            Coordinates               Weight
  0.000000  0.000000  0.000000      1.000000
 


--------------------------------------------------------------------------------------------------------




 Dimension of arrays:
   k-points           NKPTS =      1   k-points in BZ     NKDIM =      1   number of bands    NBANDS=    322
   number of dos      NEDOS =    301   number of ions     NIONS =    128
   non local maximal  LDIM  =      4   non local SUM 2l+1 LMDIM =      8
   total plane-waves  NPLWV = ******
   max r-space proj   IRMAX =      1   max aug-charges    IRDMAX= 176819
   dimension x,y,z NGX =   120 NGY =  120 NGZ =  120
   dimension x,y,z NGXF=   240 NGYF=  240 NGZF=  240
   support grid    NGXF=   480 NGYF=  480 NGZF=  480
   ions per type =             128
   NGX,Y,Z   is equivalent  to a cutoff of  12.90, 12.90, 12.90 a.u.
   NGXF,Y,Z  is equivalent  to a cutoff of  25.80, 25.80, 25.80 a.u.

 SYSTEM =  unknown system                          
 POSCAR =  Si                                      

 Startparameter for this run:
   NWRITE =      2    write-flag & timer
   PREC   = accura    normal or accurate (medium, high low for compatibility)
   ISTART =      0    job   : 0-new  1-cont  2-samecut
   ICHARG =      2    charge: 1-file 2-atom 10-const
   ISPIN  =      1    spin polarized calculation?
   LNONCOLLINEAR =      F non collinear calculations
   LSORBIT =      F    spin-orbit coupling
   INIWAV =      1    electr: 0-lowe 1-rand  2-diag
   LASPH  =      F    aspherical Exc in radial PAW
   METAGGA=      F    non-selfconsistent MetaGGA calc.

 Electronic Relaxation 1
   ENCUT  =  500.0 eV  36.75 Ry    6.06 a.u.  28.20 28.20 28.20*2*pi/ulx,y,z
   ENINI  =  500.0     initial cutoff
   ENAUG  =  322.1 eV  augmentation charge cutoff
   NELM   =     60;   NELMIN=  2; NELMDL= -5     # of ELM steps 
   EDIFF  = 0.1E-07   stopping-criterion for ELM
   LREAL  =      F    real-space projection
   NLSPLINE    = F    spline interpolate recip. space projectors
   LCOMPAT=      F    compatible to vasp.4.4
   GGA_COMPAT  = T    GGA compatible to vasp.4.4-vasp.4.6
   LMAXPAW     = -100 max onsite density
   LMAXMIX     =    2 max onsite mixed and CHGCAR
   VOSKOWN=      0    Vosko Wilk Nusair interpolation
   ROPT   =    0.00000
 Ionic relaxation
   EDIFFG = 0.1E-06   stopping-criterion for IOM
   NSW    =      0    number of steps for IOM
   NBLOCK =      1;   KBLOCK =      1    inner block; outer block 
   IBRION =     -1    ionic relax: 0-MD 1-quasi-New 2-CG
   NFREE  =      0    steps in history (QN), initial steepest desc. (CG)
   ISIF   =      2    stress and relaxation
   IWAVPR =     10    prediction:  0-non 1-charg 2-wave 3-comb
   ISYM   =      0    0-nonsym 1-usesym 2-fastsym
   LCORR  =      T    Harris-Foulkes like correction to forces

   POTIM  = 0.5000    time-step for ionic-motion
   TEIN   =    0.0    initial temperature
   TEBEG  =    0.0;   TEEND  =   0.0 temperature during run
   SMASS  =  -3.00    Nose mass-parameter (am)
   estimated Nose-frequenzy (Omega)   =  0.10E-29 period in steps =****** mass=  -0.547E-26a.u.
   SCALEE = 1.0000    scale energy and forces
   NPACO  =    256;   APACO  = 16.0  distance and # of slots for P.C.
   PSTRESS=    0.0 pullay stress

  Mass of Ions in am
   POMASS =  28.09
  Ionic Valenz
   ZVAL   =   4.00
  Atomic Wigner-Seitz radii
   RWIGS  =  -1.00
  virtual crystal weights 
   VCA    =   1.00
   NELECT =     512.0000    total number of electrons
   NUPDOWN=      -1.0000    fix difference up-down

 DOS related values:
   EMIN   =  10.00;   EMAX   =-10.00  energy-range for DOS
   EFERMI =   0.00
   ISMEAR =     0;   SIGMA  =   0.05  broadening in eV -4-tet -1-fermi 0-gaus

 Electronic relaxation 2 (details)
   IALGO  =     38    algorithm
   LDIAG  =      T    sub-space diagonalisation (order eigenvalues)
   LSUBROT=      F    optimize rotation matrix (better conditioning)
   TURBO    =      0    0=normal 1=particle mesh
   IRESTART =      0    0=no restart 2=restart with 2 vectors
   NREBOOT  =      0    no. of reboots
   NMIN     =      0    reboot dimension
   EREF     =   0.00    reference energy to select bands
   IMIX   =      4    mixing-type and parameters
     AMIX     =   0.40;   BMIX     =  1.00
     AMIX_MAG =   1.60;   BMIX_MAG =  1.00
     AMIN     =   0.10
     WC   =   100.;   INIMIX=   1;  MIXPRE=   1;  MAXMIX= -45

 Intra band minimization:
   WEIMIN = 0.0000     energy-eigenvalue tresh-hold
   EBREAK =  0.78E-11  absolut break condition
   DEPER  =   0.30     relativ break condition  

   TIME   =   0.40     timestep for ELM

  volume/ion in A,a.u.               =      20.44       137.95
  Fermi-wavevector in a.u.,A,eV,Ry     =   0.950423  1.796039 12.290193  0.903304
  Thomas-Fermi vector in A             =   2.078798
 
 Write flags
   LWAVE        =      F    write WAVECAR
   LDOWNSAMPLE  =      F    k-point downsampling of WAVECAR
   LCHARG       =      F    write CHGCAR
   LVTOT        =      F    write LOCPOT, total local potential
   LVHAR        =      F    write LOCPOT, Hartree potential only
   LELF         =      F    write electronic localiz. function (ELF)
   LORBIT       =      0    0 simple, 1 ext, 2 COOP (PROOUT), +10 PAW based schemes


 Dipole corrections
   LMONO  =      F    monopole corrections only (constant potential shift)
   LDIPOL =      F    correct potential (dipole corrections)
   IDIPOL =      0    1-x, 2-y, 3-z, 4-all directions 
   EPSILON=  1.0000000 bulk dielectric constant

 Exchange correlation treatment:
   GGA     =    --    GGA type
   LEXCH   =     8    internal setting for exchange type
   VOSKOWN=      0    Vosko Wilk Nusair interpolation
   LHFCALC =     F    Hartree Fock is set to
   LHFONE  =     F    Hartree Fock one center treatment
   AEXX    =    0.0000 exact exchange contribution

 Linear response parameters
   LEPSILON=     F    determine dielectric tensor
   LRPA    =     F    only Hartree local field effects (RPA)
   LNABLA  =     F    use nabla operator in PAW spheres
   LVEL    =     F    velocity operator in full k-point grid
   LINTERFAST=   F  fast interpolation
   KINTER  =     0    interpolate to denser k-point grid
   CSHIFT  =0.1000    complex shift for real part using Kramers Kronig
   OMEGAMAX=  -1.0    maximum frequency
   DEG_THRESHOLD= 0.2000000E-02 threshold for treating states as degnerate
   RTIME   =   -0.100 relaxation time in fs
  (WPLASMAI=    0.000 imaginary part of plasma frequency in eV, 0.658/RTIME)
   DFIELD  = 0.0000000 0.0000000 0.0000000 field for delta impulse in time
 
 Orbital magnetization related:
   ORBITALMAG=     F  switch on orbital magnetization
   LCHIMAG   =     F  perturbation theory with respect to B field
   DQ        =  0.001000  dq finite difference perturbation B field
   LLRAUG    =     F  two centre corrections for induced B field



--------------------------------------------------------------------------------------------------------


 Static calculation
 charge density and potential will be updated during run
 non-spin polarized calculation
 Variant of blocked Davidson
 Davidson routine will perform the subspace rotation
 perform sub-space diagonalisation
    after iterative eigenvector-optimisation
 modified Broyden-mixing scheme, WC =      100.0
 initial mixing is a Kerker type mixing with AMIX =  0.4000 and BMIX =      1.0000
 Hartree-type preconditioning will be used
 using additional bands           66
 reciprocal scheme for non local part
 use partial core corrections
 calculate Harris-corrections to forces 
   (improved forces if not selfconsistent)
 use gradient corrections 
 use of overlap-Matrix (Vanderbilt PP)
 Gauss-broadening in eV      SIGMA  =   0.05


--------------------------------------------------------------------------------------------------------


  energy-cutoff  :      500.00
  volume of cell :     2616.64
      direct lattice vectors                 reciprocal lattice vectors
     0.000000000 10.937160696 10.937160696    -0.045715704  0.045715704  0.045715704
    10.937160696  0.000000000 10.937160696     0.045715704 -0.045715704  0.045715704
    10.937160696 10.937160696  0.000000000     0.045715704  0.045715704 -0.045715704

  length of vectors
    15.467480990 15.467480990 15.467480990     0.079181922  0.079181922  0.079181922


 
 k-points in units of 2pi/SCALE and weight: K-Spacing Value to Generate K-Mesh: 0.03
   0.00000000  0.00000000  0.00000000       1.000
 
 k-points in reciprocal lattice and weights: K-Spacing Value to Generate K-Mesh: 0.03
   0.00000000  0.00000000  0.00000000       1.000
 
 position of ions in fractional coordinates (direct lattice) 
   0.06204284  0.06295716  0.06204284
   0.00045716  0.99954284  0.00045716
   0.31250000  0.06250000  0.06250000
   0.25000000  0.00000000  0.00000000
   0.56250000  0.06250000  0.06250000
   0.50000000  0.00000000  0.00000000
   0.81250000  0.06250000  0.06250000
   0.75000000  0.00000000  0.00000000
   0.06250000  0.31250000  0.06250000
   0.00000000  0.25000000  0.00000000
   0.31250000  0.31250000  0.06250000
   0.25000000  0.25000000  0.00000000
   0.56250000  0.31250000  0.06250000
   0.50000000  0.25000000  0.00000000
   0.81250000  0.31250000  0.06250000
   0.75000000  0.25000000  0.00000000
   0.06250000  0.56250000  0.06250000
   0.00000000  0.50000000  0.00000000
   0.31250000  0.56250000  0.06250000
   0.25000000  0.50000000  0.00000000
   0.56250000  0.56250000  0.06250000
   0.50000000  0.50000000  0.00000000
   0.81250000  0.56250000  0.06250000
   0.75000000  0.50000000  0.00000000
   0.06250000  0.81250000  0.06250000
   0.00000000  0.75000000  0.00000000
   0.31250000  0.81250000  0.06250000
   0.25000000  0.75000000  0.00000000
   0.56250000  0.81250000  0.06250000
   0.50000000  0.75000000  0.00000000
   0.81250000  0.81250000  0.06250000
   0.75000000  0.75000000  0.00000000
   0.06250000  0.06250000  0.31250000
   0.00000000  0.00000000  0.25000000
   0.31250000  0.06250000  0.31250000
   0.25000000  0.00000000  0.25000000
   0.56250000  0.06250000  0.31250000
   0.50000000  0.00000000  0.25000000
   0.81250000  0.06250000  0.31250000
   0.75000000  0.00000000  0.25000000
   0.06250000  0.31250000  0.31250000
   0.00000000  0.25000000  0.25000000
   0.31250000  0.31250000  0.31250000
   0.25000000  0.25000000  0.25000000
   0.56250000  0.31250000  0.31250000
   0.50000000  0.25000000  0.25000000
   0.81250000  0.31250000  0.31250000
   0.75000000  0.25000000  0.25000000
   0.06250000  0.56250000  0.31250000
   0.00000000  0.50000000  0.25000000
   0.31250000  0.56250000  0.31250000
   0.25000000  0.50000000  0.25000000
   0.56250000  0.56250000  0.31250000
   0.50000000  0.50000000  0.25000000
   0.81250000  0.56250000  0.31250000
   0.75000000  0.50000000  0.25000000
   0.06250000  0.81250000  0.31250000
   0.00000000  0.75000000  0.25000000
   0.31250000  0.81250000  0.31250000
   0.25000000  0.75000000  0.25000000
   0.56250000  0.81250000  0.31250000
   0.50000000  0.75000000  0.25000000
   0.81250000  0.81250000  0.31250000
   0.75000000  0.75000000  0.25000000
   0.06250000  0.06250000  0.56250000
   0.00000000  0.00000000  0.50000000
   0.31250000  0.06250000  0.56250000
   0.25000000  0.00000000  0.50000000
   0.56250000  0.06250000  0.56250000
   0.50000000  0.00000000  0.50000000
   0.81250000  0.06250000  0.56250000
   0.75000000  0.00000000  0.50000000
   0.06250000  0.31250000  0.56250000
   0.00000000  0.25000000  0.50000000
   0.31250000  0.31250000  0.56250000
   0.25000000  0.25000000  0.50000000
   0.56250000  0.31250000  0.56250000
   0.50000000  0.25000000  0.50000000
   0.81250000  0.31250000  0.56250000
   0.75000000  0.25000000  0.50000000
   0.06250000  0.56250000  0.56250000
   0.00000000  0.50000000  0.50000000
   0.31250000  0.56250000  0.56250000
   0.25000000  0.50000000  0.50000000
   0.56250000  0.56250000  0.56250000
   0.50000000  0.50000000  0.50000000
   0.81250000  0.56250000  0.56250000
   0.75000000  0.50000000  0.50000000
   0.06250000  0.81250000  0.56250000
   0.00000000  0.75000000  0.50000000
   0.31250000  0.81250000  0.56250000
   0.25000000  0.75000000  0.50000000
   0.56250000  0.81250000  0.56250000
   0.50000000  0.75000000  0.50000000
   0.81250000  0.81250000  0.56250000
   0.75000000  0.75000000  0.50000000
   0.06250000  0.06250000  0.81250000
   0.00000000  0.00000000  0.75000000
   0.31250000  0.06250000  0.81250000
   0.25000000  0.00000000  0.75000000
   0.56250000  0.06250000  0.81250000
   0.50000000  0.00000000  0.75000000
   0.81250000  0.06250000  0.81250000
   0.75000000  0.00000000  0.75000000
   0.06250000  0.31250000  0.81250000
   0.00000000  0.25000000  0.75000000
   0.31250000  0.31250000  0.81250000
   0.25000000  0.25000000  0.75000000
   0.56250000  0.31250000  0.81250000
   0.50000000  0.25000000  0.75000000
   0.81250000  0.31250000  0.81250000
   0.75000000  0.25000000  0.75000000
   0.06250000  0.56250000  0.81250000
   0.00000000  0.50000000  0.75000000
   0.31250000  0.56250000  0.81250000
   0.25000000  0.50000000  0.75000000
   0.56250000  0.56250000  0.81250000
   0.50000000  0.50000000  0.75000000
   0.81250000  0.56250000  0.81250000
   0.75000000  0.50000000  0.75000000
   0.06250000  0.81250000  0.81250000
   0.00000000  0.75000000  0.75000000
   0.31250000  0.81250000  0.81250000
   0.25000000  0.75000000  0.75000000
   0.56250000  0.81250000  0.81250000
   0.50000000  0.75000000  0.75000000
   0.81250000  0.81250000  0.81250000
   0.75000000  0.75000000  0.75000000
 
 position of ions in cartesian coordinates  (Angst):
   1.36714509  1.35714509  1.36714509
  10.93716070  0.01000000 10.93716070
   1.36714509  4.10143526  4.10143526
   0.00000000  2.73429017  2.73429017
   1.36714509  6.83572544  6.83572544
   0.00000000  5.46858035  5.46858035
   1.36714509  9.57001561  9.57001561
   0.00000000  8.20287052  8.20287052
   4.10143526  1.36714509  4.10143526
   2.73429017  0.00000000  2.73429017
   4.10143526  4.10143526  6.83572544
   2.73429017  2.73429017  5.46858035
   4.10143526  6.83572544  9.57001561
   2.73429017  5.46858035  8.20287052
   4.10143526  9.57001561 12.30430578
   2.73429017  8.20287052 10.93716070
   6.83572544  1.36714509  6.83572544
   5.46858035  0.00000000  5.46858035
   6.83572544  4.10143526  9.57001561
   5.46858035  2.73429017  8.20287052
   6.83572544  6.83572544 12.30430578
   5.46858035  5.46858035 10.93716070
   6.83572544  9.57001561 15.03859596
   5.46858035  8.20287052 13.67145087
   9.57001561  1.36714509  9.57001561
   8.20287052  0.00000000  8.20287052
   9.57001561  4.10143526 12.30430578
   8.20287052  2.73429017 10.93716070
   9.57001561  6.83572544 15.03859596
   8.20287052  5.46858035 13.67145087
   9.57001561  9.57001561 17.77288613
   8.20287052  8.20287052 16.40574104
   4.10143526  4.10143526  1.36714509
   2.73429017  2.73429017  0.00000000
   4.10143526  6.83572544  4.10143526
   2.73429017  5.46858035  2.73429017
   4.10143526  9.57001561  6.83572544
   2.73429017  8.20287052  5.46858035
   4.10143526 12.30430578  9.57001561
   2.73429017 10.93716070  8.20287052
   6.83572544  4.10143526  4.10143526
   5.46858035  2.73429017  2.73429017
   6.83572544  6.83572544  6.83572544
   5.46858035  5.46858035  5.46858035
   6.83572544  9.57001561  9.57001561
   5.46858035  8.20287052  8.20287052
   6.83572544 12.30430578 12.30430578
   5.46858035 10.93716070 10.93716070
   9.57001561  4.10143526  6.83572544
   8.20287052  2.73429017  5.46858035
   9.57001561  6.83572544  9.57001561
   8.20287052  5.46858035  8.20287052
   9.57001561  9.57001561 12.30430578
   8.20287052  8.20287052 10.93716070
   9.57001561 12.30430578 15.03859596
   8.20287052 10.93716070 13.67145087
  12.30430578  4.10143526  9.57001561
  10.93716070  2.73429017  8.20287052
  12.30430578  6.83572544 12.30430578
  10.93716070  5.46858035 10.93716070
  12.30430578  9.57001561 15.03859596
  10.93716070  8.20287052 13.67145087
  12.30430578 12.30430578 17.77288613
  10.93716070 10.93716070 16.40574104
   6.83572544  6.83572544  1.36714509
   5.46858035  5.46858035  0.00000000
   6.83572544  9.57001561  4.10143526
   5.46858035  8.20287052  2.73429017
   6.83572544 12.30430578  6.83572544
   5.46858035 10.93716070  5.46858035
   6.83572544 15.03859596  9.57001561
   5.46858035 13.67145087  8.20287052
   9.57001561  6.83572544  4.10143526
   8.20287052  5.46858035  2.73429017
   9.57001561  9.57001561  6.83572544
   8.20287052  8.20287052  5.46858035
   9.57001561 12.30430578  9.57001561
   8.20287052 10.93716070  8.20287052
   9.57001561 15.03859596 12.30430578
   8.20287052 13.67145087 10.93716070
  12.30430578  6.83572544  6.83572544
  10.93716070  5.46858035  5.46858035
  12.30430578  9.57001561  9.57001561
  10.93716070  8.20287052  8.20287052
  12.30430578 12.30430578 12.30430578
  10.93716070 10.93716070 10.93716070
  12.30430578 15.03859596 15.03859596
  10.93716070 13.67145087 13.67145087
  15.03859596  6.83572544  9.57001561
  13.67145087  5.46858035  8.20287052
  15.03859596  9.57001561 12.30430578
  13.67145087  8.20287052 10.93716070
  15.03859596 12.30430578 15.03859596
  13.67145087 10.93716070 13.67145087
  15.03859596 15.03859596 17.77288613
  13.67145087 13.67145087 16.40574104
   9.57001561  9.57001561  1.36714509
   8.20287052  8.20287052  0.00000000
   9.57001561 12.30430578  4.10143526
   8.20287052 10.93716070  2.73429017
   9.57001561 15.03859596  6.83572544
   8.20287052 13.67145087  5.46858035
   9.57001561 17.77288613  9.57001561
   8.20287052 16.40574104  8.20287052
  12.30430578  9.57001561  4.10143526
  10.93716070  8.20287052  2.73429017
  12.30430578 12.30430578  6.83572544
  10.93716070 10.93716070  5.46858035
  12.30430578 15.03859596  9.57001561
  10.93716070 13.67145087  8.20287052
  12.30430578 17.77288613 12.30430578
  10.93716070 16.40574104 10.93716070
  15.03859596  9.57001561  6.83572544
  13.67145087  8.20287052  5.46858035
  15.03859596 12.30430578  9.57001561
  13.67145087 10.93716070  8.20287052
  15.03859596 15.03859596 12.30430578
  13.67145087 13.67145087 10.93716070
  15.03859596 17.77288613 15.03859596
  13.67145087 16.40574104 13.67145087
  17.77288613  9.57001561  9.57001561
  16.40574104  8.20287052  8.20287052
  17.77288613 12.30430578 12.30430578
  16.40574104 10.93716070 10.93716070
  17.77288613 15.03859596 15.03859596
  16.40574104 13.67145087 13.67145087
  17.77288613 17.77288613 17.77288613
  16.40574104 16.40574104 16.40574104
 


--------------------------------------------------------------------------------------------------------


 k-point  1 :   0.0000 0.0000 0.0000  plane waves:   66299

 maximum and minimum number of plane-waves per node :      3320     3310

 maximum number of plane-waves:     66299
 maximum index in each direction: 
   IXMAX=   28   IYMAX=   28   IZMAX=   28
   IXMIN=  -28   IYMIN=  -28   IZMIN=  -28


 parallel 3D FFT for wavefunctions:
    minimum data exchange during FFTs selected (reduces bandwidth)
 parallel 3D FFT for charge:
    minimum data exchange during FFTs selected (reduces bandwidth)


 total amount of memory used by VASP MPI-rank0   118934. kBytes
=======================================================================

   base      :      30000. kBytes
   nonl-proj :       7011. kBytes
   fftplans  :      53058. kBytes
   grid      :      20148. kBytes
   one-center:         21. kBytes
   wavefun   :       8696. kBytes
 
     INWAV:  cpu time    0.0000: real time    0.0000
 Broyden mixing: mesh for mixing (old mesh)
   NGX = 57   NGY = 57   NGZ = 57
  (NGX  =240   NGY  =240   NGZ  =240)
  gives a total of 185193 points

 initial charge density was supplied:
 charge density of overlapping atoms calculated
 number of electron     512.0000000 magnetization 
 keeping initial charge density in first step


--------------------------------------------------------------------------------------------------------


 Maximum index for augmentation-charges         4439 (set IRDMAX)


--------------------------------------------------------------------------------------------------------


 First call to EWALD:  gamma=   0.129
 Maximum number of real-space cells 3x 3x 3
 Maximum number of reciprocal cells 3x 3x 3

    FEWALD:  cpu time    0.0061: real time    0.0061


--------------------------------------- Iteration      1(   1)  ---------------------------------------


    POTLOK:  cpu time    0.2289: real time    0.2341
    SETDIJ:  cpu time    0.2899: real time    0.2906
     EDDAV:  cpu time    4.8107: real time    4.8227
       DOS:  cpu time    0.0005: real time    0.0005
    --------------------------------------------
      LOOP:  cpu time    5.3300: real time    5.3479

 eigenvalue-minimisations  :   644
 total energy-change (2. order) : 0.1374876E+04  (-0.1908719E+05)
 number of electron     512.0000000 magnetization 
 augmentation part      512.0000000 magnetization 

 Free energy of the ion-electron system (eV)
  ---------------------------------------------------
  alpha Z        PSCENC =       210.78028765
  Ewald energy   TEWEN  =    -14524.86520010
  -Hartree energ DENC   =      -724.62009581
  -exchange      EXHF   =         0.00000000
  -V(xc)+E(xc)   XCENC  =     -1195.83147695
  PAW double counting   =      4221.13331941    -1969.18571412
  entropy T*S    EENTRO =        -0.01584064
  eigenvalues    EBANDS =      2165.00003211
  atomic energy  EATOM  =     13192.48085998
  Solvation  Ediel_sol  =         0.00000000
  ---------------------------------------------------
  free energy    TOTEN  =      1374.87617153 eV

  energy without entropy =     1374.89201217  energy(sigma->0) =     1374.88409185


--------------------------------------------------------------------------------------------------------




--------------------------------------- Iteration      1(   2)  ---------------------------------------


     EDDAV:  cpu time    5.4478: real time    5.4610
       DOS:  cpu time    0.0005: real time    0.0005
    --------------------------------------------
      LOOP:  cpu time    5.4482: real time    5.4614

 eigenvalue-minimisations  :   758
 total energy-change (2. order) :-0.1911892E+04  (-0.1811805E+04)
 number of electron     512.0000000 magnetization 
 augmentation part      512.0000000 magnetization 

 Free energy of the ion-electron system (eV)
  ---------------------------------------------------
  alpha Z        PSCENC =       210.78028765
  Ewald energy   TEWEN  =    -14524.86520010
  -Hartree energ DENC   =      -724.62009581
  -exchange      EXHF   =         0.00000000
  -V(xc)+E(xc)   XCENC  =     -1195.83147695
  PAW double counting   =      4221.13331941    -1969.18571412
  entropy T*S    EENTRO =        -0.00000189
  eigenvalues    EBANDS =       253.09221546
  atomic energy  EATOM  =     13192.48085998
  Solvation  Ediel_sol  =         0.00000000
  ---------------------------------------------------
  free energy    TOTEN  =      -537.01580636 eV

  energy without entropy =     -537.01580448  energy(sigma->0) =     -537.01580542


--------------------------------------------------------------------------------------------------------




--------------------------------------- Iteration      1(   3)  ---------------------------------------


     EDDAV:  cpu time    5.5035: real time    5.5175
       DOS:  cpu time    0.0004: real time    0.0004
    --------------------------------------------
      LOOP:  cpu time    5.5038: real time    5.5179

 eigenvalue-minimisations  :   768
 total energy-change (2. order) :-0.1530074E+03  (-0.1483244E+03)
 number of electron     512.0000000 magnetization 
 augmentation part      512.0000000 magnetization 

 Free energy of the ion-electron system (eV)
  ---------------------------------------------------
  alpha Z        PSCENC =       210.78028765
  Ewald energy   TEWEN  =    -14524.86520010
  -Hartree energ DENC   =      -724.62009581
  -exchange      EXHF   =         0.00000000
  -V(xc)+E(xc)   XCENC  =     -1195.83147695
  PAW double counting   =      4221.13331941    -1969.18571412
  entropy T*S    EENTRO =        -0.00000000
  eigenvalues    EBANDS =       100.08482921
  atomic energy  EATOM  =     13192.48085998
  Solvation  Ediel_sol  =         0.00000000
  ---------------------------------------------------
  free energy    TOTEN  =      -690.02319072 eV

  energy without entropy =     -690.02319072  energy(sigma->0) =     -690.02319072


--------------------------------------------------------------------------------------------------------




--------------------------------------- Iteration      1(   4)  ---------------------------------------


     EDDAV:  cpu time    5.4016: real time    5.4144
       DOS:  cpu time    0.0004: real time    0.0004
    --------------------------------------------
      LOOP:  cpu time    5.4020: real time    5.4148

 eigenvalue-minimisations  :   752
 total energy-change (2. order) :-0.4509801E+01  (-0.4454129E+01)
 number of electron     512.0000000 magnetization 
 augmentation part      512.0000000 magnetization 

 Free energy of the ion-electron system (eV)
  ---------------------------------------------------
  alpha Z        PSCENC =       210.78028765
  Ewald energy   TEWEN  =    -14524.86520010
  -Hartree energ DENC   =      -724.62009581
  -exchange      EXHF   =         0.00000000
  -V(xc)+E(xc)   XCENC  =     -1195.83147695
  PAW double counting   =      4221.13331941    -1969.18571412
  entropy T*S    EENTRO =        -0.00000000
  eigenvalues    EBANDS =        95.57502824
  atomic energy  EATOM  =     13192.48085998
  Solvation  Ediel_sol  =         0.00000000
  ---------------------------------------------------
  free energy    TOTEN  =      -694.53299170 eV

  energy without entropy =     -694.53299170  energy(sigma->0) =     -694.53299170


--------------------------------------------------------------------------------------------------------




--------------------------------------- Iteration      1(   5)  ---------------------------------------


     EDDAV:  cpu time    5.4271: real time    5.4400
       DOS:  cpu time    0.0004: real time    0.0004
    CHARGE:  cpu time    0.5111: real time    0.5124
    MIXING:  cpu time    0.0089: real time    0.0091
    --------------------------------------------
      LOOP:  cpu time    5.9475: real time    5.9619

 eigenvalue-minimisations  :   752
 total energy-change (2. order) :-0.1666450E+00  (-0.1659687E+00)
 number of electron     511.9999999 magnetization 
 augmentation part      -29.7895690 magnetization 

 Broyden mixing:
  rms(total) = 0.24757E+01    rms(broyden)= 0.24757E+01
  rms(prec ) = 0.29957E+01
  weight for this iteration     100.00

 Free energy of the ion-electron system (eV)
  ---------------------------------------------------
  alpha Z        PSCENC =       210.78028765
  Ewald energy   TEWEN  =    -14524.86520010
  -Hartree energ DENC   =      -724.62009581
  -exchange      EXHF   =         0.00000000
  -V(xc)+E(xc)   XCENC  =     -1195.83147695
  PAW double counting   =      4221.13331941    -1969.18571412
  entropy T*S    EENTRO =        -0.00000000
  eigenvalues    EBANDS =        95.40838322
  atomic energy  EATOM  =     13192.48085998
  Solvation  Ediel_sol  =         0.00000000
  ---------------------------------------------------
  free energy    TOTEN  =      -694.69963672 eV

  energy without entropy =     -694.69963672  energy(sigma->0) =     -694.69963672


--------------------------------------------------------------------------------------------------------




--------------------------------------- Iteration      1(   6)  ---------------------------------------


    POTLOK:  cpu time    0.2245: real time    0.2257
    SETDIJ:  cpu time    0.2797: real time    0.2804
     EDDAV:  cpu time    5.0513: real time    5.0633
       DOS:  cpu time    0.0004: real time    0.0004
    CHARGE:  cpu time    0.5024: real time    0.5036
    MIXING:  cpu time    0.0091: real time    0.0091
    --------------------------------------------
      LOOP:  cpu time    6.0674: real time    6.0824

 eigenvalue-minimisations  :   688
 total energy-change (2. order) : 0.8400068E+01  (-0.4774874E+00)
 number of electron     511.9999999 magnetization 
 augmentation part      -29.4084419 magnetization 

 Broyden mixing:
  rms(total) = 0.14789E+01    rms(broyden)= 0.14789E+01
  rms(prec ) = 0.17864E+01
  weight for this iteration     100.00

 eigenvalues of (default mixing * dielectric matrix)
  average eigenvalue GAMMA=   2.4618
  2.4618

 Free energy of the ion-electron system (eV)
  ---------------------------------------------------
  alpha Z        PSCENC =       210.78028765
  Ewald energy   TEWEN  =    -14524.86520010
  -Hartree energ DENC   =      -824.85009317
  -exchange      EXHF   =         0.00000000
  -V(xc)+E(xc)   XCENC  =     -1180.31894450
  PAW double counting   =      4464.76644617    -2219.65339259
  entropy T*S    EENTRO =        -0.00000000
  eigenvalues    EBANDS =       195.36046763
  atomic energy  EATOM  =     13192.48085998
  Solvation  Ediel_sol  =         0.00000000
  ---------------------------------------------------
  free energy    TOTEN  =      -686.29956893 eV

  energy without entropy =     -686.29956893  energy(sigma->0) =     -686.29956893


--------------------------------------------------------------------------------------------------------




--------------------------------------- Iteration      1(   7)  ---------------------------------------


    POTLOK:  cpu time    0.2234: real time    0.2240
    SETDIJ:  cpu time    0.2796: real time    0.2802
     EDDAV:  cpu time    4.9844: real time    4.9961
       DOS:  cpu time    0.0004: real time    0.0004
    CHARGE:  cpu time    0.5029: real time    0.5041
    MIXING:  cpu time    0.0088: real time    0.0088
    --------------------------------------------
      LOOP:  cpu time    5.9994: real time    6.0136

 eigenvalue-minimisations  :   664
 total energy-change (2. order) : 0.3872885E+01  (-0.9702658E+00)
 number of electron     511.9999999 magnetization 
 augmentation part      -28.9140743 magnetization 

 Broyden mixing:
  rms(total) = 0.13042E+00    rms(broyden)= 0.13042E+00
  rms(prec ) = 0.15186E+00
  weight for this iteration     100.00

 eigenvalues of (default mixing * dielectric matrix)
  average eigenvalue GAMMA=   2.4941
  2.4941  2.4941

 Free energy of the ion-electron system (eV)
  ---------------------------------------------------
  alpha Z        PSCENC =       210.78028765
  Ewald energy   TEWEN  =    -14524.86520010
  -Hartree energ DENC   =      -991.89022911
  -exchange      EXHF   =         0.00000000
  -V(xc)+E(xc)   XCENC  =     -1153.93825126
  PAW double counting   =      4789.68093246    -2553.38002050
  entropy T*S    EENTRO =        -0.00000000
  eigenvalues    EBANDS =       348.70493720
  atomic energy  EATOM  =     13192.48085998
  Solvation  Ediel_sol  =         0.00000000
  ---------------------------------------------------
  free energy    TOTEN  =      -682.42668367 eV

  energy without entropy =     -682.42668367  energy(sigma->0) =     -682.42668367


--------------------------------------------------------------------------------------------------------




--------------------------------------- Iteration      1(   8)  ---------------------------------------


    POTLOK:  cpu time    0.2240: real time    0.2246
    SETDIJ:  cpu time    0.2800: real time    0.2806
     EDDAV:  cpu time    5.0546: real time    5.0665
       DOS:  cpu time    0.0004: real time    0.0004
    CHARGE:  cpu time    0.5119: real time    0.5132
    MIXING:  cpu time    0.0093: real time    0.0093
    --------------------------------------------
      LOOP:  cpu time    6.0801: real time    6.0945

 eigenvalue-minimisations  :   688
 total energy-change (2. order) :-0.1321148E+00  (-0.4951652E-01)
 number of electron     511.9999999 magnetization 
 augmentation part      -28.9853932 magnetization 

 Broyden mixing:
  rms(total) = 0.28144E-01    rms(broyden)= 0.28144E-01
  rms(prec ) = 0.38031E-01
  weight for this iteration     100.00

 eigenvalues of (default mixing * dielectric matrix)
  average eigenvalue GAMMA=   2.1011
  1.4552  2.7606  2.0876

 Free energy of the ion-electron system (eV)
  ---------------------------------------------------
  alpha Z        PSCENC =       210.78028765
  Ewald energy   TEWEN  =    -14524.86520010
  -Hartree energ DENC   =      -986.32026489
  -exchange      EXHF   =         0.00000000
  -V(xc)+E(xc)   XCENC  =     -1153.99650817
  PAW double counting   =      4718.67174537    -2480.15073092
  entropy T*S    EENTRO =        -0.00000000
  eigenvalues    EBANDS =       340.84101260
  atomic energy  EATOM  =     13192.48085998
  Solvation  Ediel_sol  =         0.00000000
  ---------------------------------------------------
  free energy    TOTEN  =      -682.55879848 eV

  energy without entropy =     -682.55879848  energy(sigma->0) =     -682.55879848


--------------------------------------------------------------------------------------------------------




--------------------------------------- Iteration      1(   9)  ---------------------------------------


    POTLOK:  cpu time    0.2252: real time    0.2312
    SETDIJ:  cpu time    0.2801: real time    0.2808
     EDDAV:  cpu time    5.4975: real time    5.5105
       DOS:  cpu time    0.0004: real time    0.0004
    CHARGE:  cpu time    0.5045: real time    0.5057
    MIXING:  cpu time    0.0092: real time    0.0092
    --------------------------------------------
      LOOP:  cpu time    6.5170: real time    6.5378

 eigenvalue-minimisations  :   768
 total energy-change (2. order) :-0.6366923E-02  (-0.2456997E-02)
 number of electron     511.9999999 magnetization 
 augmentation part      -28.9800597 magnetization 

 Broyden mixing:
  rms(total) = 0.15948E-01    rms(broyden)= 0.15948E-01
  rms(prec ) = 0.18174E-01
  weight for this iteration     100.00

 eigenvalues of (default mixing * dielectric matrix)
  average eigenvalue GAMMA=   2.2887
  1.0209  3.3922  2.7018  2.0401

 Free energy of the ion-electron system (eV)
  ---------------------------------------------------
  alpha Z        PSCENC =       210.78028765
  Ewald energy   TEWEN  =    -14524.86520010
  -Hartree energ DENC   =      -991.21687628
  -exchange      EXHF   =         0.00000000
  -V(xc)+E(xc)   XCENC  =     -1153.27657617
  PAW double counting   =      4725.25557205    -2486.97489603
  entropy T*S    EENTRO =        -0.00000000
  eigenvalues    EBANDS =       345.25166350
  atomic energy  EATOM  =     13192.48085998
  Solvation  Ediel_sol  =         0.00000000
  ---------------------------------------------------
  free energy    TOTEN  =      -682.56516540 eV

  energy without entropy =     -682.56516540  energy(sigma->0) =     -682.56516540


--------------------------------------------------------------------------------------------------------




--------------------------------------- Iteration      1(  10)  ---------------------------------------


    POTLOK:  cpu time    0.2250: real time    0.2257
    SETDIJ:  cpu time    0.2793: real time    0.2800
     EDDAV:  cpu time    5.0133: real time    5.0251
       DOS:  cpu time    0.0004: real time    0.0004
    CHARGE:  cpu time    0.5038: real time    0.5050
    MIXING:  cpu time    0.0092: real time    0.0092
    --------------------------------------------
      LOOP:  cpu time    6.0309: real time    6.0453

 eigenvalue-minimisations  :   680
 total energy-change (2. order) :-0.2687340E-02  (-0.5923306E-03)
 number of electron     511.9999999 magnetization 
 augmentation part      -28.9811119 magnetization 

 Broyden mixing:
  rms(total) = 0.48071E-02    rms(broyden)= 0.48071E-02
  rms(prec ) = 0.57553E-02
  weight for this iteration     100.00

 eigenvalues of (default mixing * dielectric matrix)
  average eigenvalue GAMMA=   1.9830
  3.2382  2.6114  2.1595  1.0582  0.8480

 Free energy of the ion-electron system (eV)
  ---------------------------------------------------
  alpha Z        PSCENC =       210.78028765
  Ewald energy   TEWEN  =    -14524.86520010
  -Hartree energ DENC   =      -991.21998559
  -exchange      EXHF   =         0.00000000
  -V(xc)+E(xc)   XCENC  =     -1153.35182578
  PAW double counting   =      4721.46813379    -2483.16897008
  entropy T*S    EENTRO =        -0.00000000
  eigenvalues    EBANDS =       345.30884740
  atomic energy  EATOM  =     13192.48085998
  Solvation  Ediel_sol  =         0.00000000
  ---------------------------------------------------
  free energy    TOTEN  =      -682.56785274 eV

  energy without entropy =     -682.56785274  energy(sigma->0) =     -682.56785274


--------------------------------------------------------------------------------------------------------




--------------------------------------- Iteration      1(  11)  ---------------------------------------


    POTLOK:  cpu time    0.2235: real time    0.2255
    SETDIJ:  cpu time    0.2809: real time    0.2816
     EDDAV:  cpu time    5.4313: real time    5.4443
       DOS:  cpu time    0.0004: real time    0.0004
    CHARGE:  cpu time    0.5085: real time    0.5098
    MIXING:  cpu time    0.0092: real time    0.0092
    --------------------------------------------
      LOOP:  cpu time    6.4538: real time    6.4707

 eigenvalue-minimisations  :   752
 total energy-change (2. order) :-0.1322941E-04  (-0.2005690E-04)
 number of electron     511.9999999 magnetization 
 augmentation part      -28.9796236 magnetization 

 Broyden mixing:
  rms(total) = 0.49767E-03    rms(broyden)= 0.49757E-03
  rms(prec ) = 0.57110E-03
  weight for this iteration     100.00

 eigenvalues of (default mixing * dielectric matrix)
  average eigenvalue GAMMA=   2.0375
  3.3671  2.6910  2.2126  1.9924  0.9809  0.9809

 Free energy of the ion-electron system (eV)
  ---------------------------------------------------
  alpha Z        PSCENC =       210.78028765
  Ewald energy   TEWEN  =    -14524.86520010
  -Hartree energ DENC   =      -991.69297925
  -exchange      EXHF   =         0.00000000
  -V(xc)+E(xc)   XCENC  =     -1153.28802113
  PAW double counting   =      4723.31605759    -2485.06161214
  entropy T*S    EENTRO =        -0.00000000
  eigenvalues    EBANDS =       345.76274142
  atomic energy  EATOM  =     13192.48085998
  Solvation  Ediel_sol  =         0.00000000
  ---------------------------------------------------
  free energy    TOTEN  =      -682.56786597 eV

  energy without entropy =     -682.56786597  energy(sigma->0) =     -682.56786597


--------------------------------------------------------------------------------------------------------




--------------------------------------- Iteration      1(  12)  ---------------------------------------


    POTLOK:  cpu time    0.2250: real time    0.2257
    SETDIJ:  cpu time    0.2792: real time    0.2798
     EDDAV:  cpu time    5.3690: real time    5.3819
       DOS:  cpu time    0.0004: real time    0.0004
    CHARGE:  cpu time    0.5188: real time    0.5200
    MIXING:  cpu time    0.0093: real time    0.0093
    --------------------------------------------
      LOOP:  cpu time    6.4017: real time    6.4171

 eigenvalue-minimisations  :   744
 total energy-change (2. order) :-0.5007041E-05  (-0.1290664E-05)
 number of electron     511.9999999 magnetization 
 augmentation part      -28.9793364 magnetization 

 Broyden mixing:
  rms(total) = 0.21219E-03    rms(broyden)= 0.21198E-03
  rms(prec ) = 0.24307E-03
  weight for this iteration     100.00

 eigenvalues of (default mixing * dielectric matrix)
  average eigenvalue GAMMA=   1.9234
  3.3099  2.6934  2.2589  2.2589  1.0246  1.0246  0.8935

 Free energy of the ion-electron system (eV)
  ---------------------------------------------------
  alpha Z        PSCENC =       210.78028765
  Ewald energy   TEWEN  =    -14524.86520010
  -Hartree energ DENC   =      -991.74139095
  -exchange      EXHF   =         0.00000000
  -V(xc)+E(xc)   XCENC  =     -1153.28621401
  PAW double counting   =      4723.44654108    -2485.18870150
  entropy T*S    EENTRO =        -0.00000000
  eigenvalues    EBANDS =       345.80594687
  atomic energy  EATOM  =     13192.48085998
  Solvation  Ediel_sol  =         0.00000000
  ---------------------------------------------------
  free energy    TOTEN  =      -682.56787098 eV

  energy without entropy =     -682.56787098  energy(sigma->0) =     -682.56787098


--------------------------------------------------------------------------------------------------------




--------------------------------------- Iteration      1(  13)  ---------------------------------------


    POTLOK:  cpu time    0.2250: real time    0.2256
    SETDIJ:  cpu time    0.2818: real time    0.2825
     EDDAV:  cpu time    5.4564: real time    5.4695
       DOS:  cpu time    0.0004: real time    0.0004
    CHARGE:  cpu time    0.5080: real time    0.5092
    MIXING:  cpu time    0.0098: real time    0.0098
    --------------------------------------------
      LOOP:  cpu time    6.4814: real time    6.4970

 eigenvalue-minimisations  :   760
 total energy-change (2. order) : 0.4185129E-05  (-0.5612285E-07)
 number of electron     511.9999999 magnetization 
 augmentation part      -28.9794687 magnetization 

 Broyden mixing:
  rms(total) = 0.66036E-04    rms(broyden)= 0.65338E-04
  rms(prec ) = 0.77221E-04
  weight for this iteration     100.00

 eigenvalues of (default mixing * dielectric matrix)
  average eigenvalue GAMMA=   1.8729
  3.3080  2.6985  2.4805  2.1390  0.9618  0.9618  1.2170  1.2170

 Free energy of the ion-electron system (eV)
  ---------------------------------------------------
  alpha Z        PSCENC =       210.78028765
  Ewald energy   TEWEN  =    -14524.86520010
  -Hartree energ DENC   =      -991.72978950
  -exchange      EXHF   =         0.00000000
  -V(xc)+E(xc)   XCENC  =     -1153.28653513
  PAW double counting   =      4723.40004418    -2485.13852533
  entropy T*S    EENTRO =        -0.00000000
  eigenvalues    EBANDS =       345.79099145
  atomic energy  EATOM  =     13192.48085998
  Solvation  Ediel_sol  =         0.00000000
  ---------------------------------------------------
  free energy    TOTEN  =      -682.56786679 eV

  energy without entropy =     -682.56786679  energy(sigma->0) =     -682.56786679


--------------------------------------------------------------------------------------------------------




--------------------------------------- Iteration      1(  14)  ---------------------------------------


    POTLOK:  cpu time    0.2250: real time    0.2257
    SETDIJ:  cpu time    0.2803: real time    0.2810
     EDDAV:  cpu time    5.2945: real time    5.3071
       DOS:  cpu time    0.0004: real time    0.0004
    CHARGE:  cpu time    0.5089: real time    0.5102
    MIXING:  cpu time    0.0103: real time    0.0104
    --------------------------------------------
      LOOP:  cpu time    6.3195: real time    6.3347

 eigenvalue-minimisations  :   728
 total energy-change (2. order) :-0.5872425E-06  (-0.9977866E-08)
 number of electron     511.9999999 magnetization 
 augmentation part      -28.9794418 magnetization 

 Broyden mixing:
  rms(total) = 0.36801E-04    rms(broyden)= 0.35533E-04
  rms(prec ) = 0.46143E-04
  weight for this iteration     100.00

 eigenvalues of (default mixing * dielectric matrix)
  average eigenvalue GAMMA=   1.8151
  3.2926  2.7274  2.4302  2.2616  1.3303  1.3303  1.0153  1.0153  0.9332

 Free energy of the ion-electron system (eV)
  ---------------------------------------------------
  alpha Z        PSCENC =       210.78028765
  Ewald energy   TEWEN  =    -14524.86520010
  -Hartree energ DENC   =      -991.73806655
  -exchange      EXHF   =         0.00000000
  -V(xc)+E(xc)   XCENC  =     -1153.28548860
  PAW double counting   =      4723.42872942    -2485.16742709
  entropy T*S    EENTRO =        -0.00000000
  eigenvalues    EBANDS =       345.79843791
  atomic energy  EATOM  =     13192.48085998
  Solvation  Ediel_sol  =         0.00000000
  ---------------------------------------------------
  free energy    TOTEN  =      -682.56786738 eV

  energy without entropy =     -682.56786738  energy(sigma->0) =     -682.56786738


--------------------------------------------------------------------------------------------------------




--------------------------------------- Iteration      1(  15)  ---------------------------------------


    POTLOK:  cpu time    0.2242: real time    0.2257
    SETDIJ:  cpu time    0.2817: real time    0.2824
     EDDAV:  cpu time    3.7653: real time    3.7743
       DOS:  cpu time    0.0004: real time    0.0004
    CHARGE:  cpu time    0.5072: real time    0.5084
    MIXING:  cpu time    0.0108: real time    0.0108
    --------------------------------------------
      LOOP:  cpu time    4.7895: real time    4.8020

 eigenvalue-minimisations  :   448
 total energy-change (2. order) : 0.9783489E-06  (-0.2540067E-08)
 number of electron     511.9999999 magnetization 
 augmentation part      -28.9794685 magnetization 

 Broyden mixing:
  rms(total) = 0.11618E-04    rms(broyden)= 0.65816E-05
  rms(prec ) = 0.72391E-05
  weight for this iteration     100.00
  WARNING: grid for Broyden might be to small

 eigenvalues of (default mixing * dielectric matrix)
  average eigenvalue GAMMA=   1.8243
  3.2965  2.6655  2.5867  2.0946  2.0946  0.9413  0.9874  1.0318  1.2726  1.2726

 Free energy of the ion-electron system (eV)
  ---------------------------------------------------
  alpha Z        PSCENC =       210.78028765
  Ewald energy   TEWEN  =    -14524.86520010
  -Hartree energ DENC   =      -991.73266433
  -exchange      EXHF   =         0.00000000
  -V(xc)+E(xc)   XCENC  =     -1153.28602076
  PAW double counting   =      4723.40820460    -2485.14620184
  entropy T*S    EENTRO =        -0.00000000
  eigenvalues    EBANDS =       345.79286839
  atomic energy  EATOM  =     13192.48085998
  Solvation  Ediel_sol  =         0.00000000
  ---------------------------------------------------
  free energy    TOTEN  =      -682.56786640 eV

  energy without entropy =     -682.56786640  energy(sigma->0) =     -682.56786640


--------------------------------------------------------------------------------------------------------




--------------------------------------- Iteration      1(  16)  ---------------------------------------


    POTLOK:  cpu time    0.2250: real time    0.2258
    SETDIJ:  cpu time    0.2805: real time    0.2811
     EDDAV:  cpu time    3.3706: real time    3.3787
       DOS:  cpu time    0.0004: real time    0.0004
    CHARGE:  cpu time    0.5060: real time    0.5072
    MIXING:  cpu time    0.0104: real time    0.0105
    --------------------------------------------
      LOOP:  cpu time    4.3928: real time    4.4036

 eigenvalue-minimisations  :   376
 total energy-change (2. order) :-0.6971277E-07  (-0.1862631E-09)
 number of electron     511.9999999 magnetization 
 augmentation part      -28.9794708 magnetization 

 Broyden mixing:
  rms(total) = 0.99773E-05    rms(broyden)= 0.28065E-05
  rms(prec ) = 0.34201E-05
  weight for this iteration     100.00
  WARNING: grid for Broyden might be to small

 eigenvalues of (default mixing * dielectric matrix)
  average eigenvalue GAMMA=   1.7925
  3.2798  2.7674  2.5526  2.2543  2.2543  1.3196  1.3196  1.1355  0.9849  0.9250
  0.9250

 Free energy of the ion-electron system (eV)
  ---------------------------------------------------
  alpha Z        PSCENC =       210.78028765
  Ewald energy   TEWEN  =    -14524.86520010
  -Hartree energ DENC   =      -991.73297873
  -exchange      EXHF   =         0.00000000
  -V(xc)+E(xc)   XCENC  =     -1153.28595016
  PAW double counting   =      4723.40869675    -2485.14680857
  entropy T*S    EENTRO =        -0.00000000
  eigenvalues    EBANDS =       345.79322671
  atomic energy  EATOM  =     13192.48085998
  Solvation  Ediel_sol  =         0.00000000
  ---------------------------------------------------
  free energy    TOTEN  =      -682.56786647 eV

  energy without entropy =     -682.56786647  energy(sigma->0) =     -682.56786647


--------------------------------------------------------------------------------------------------------




--------------------------------------- Iteration      1(  17)  ---------------------------------------


    POTLOK:  cpu time    0.2245: real time    0.2251
    SETDIJ:  cpu time    0.2798: real time    0.2805
     EDDAV:  cpu time    3.4334: real time    3.4417
       DOS:  cpu time    0.0004: real time    0.0004
    CHARGE:  cpu time    0.5066: real time    0.5078
    MIXING:  cpu time    0.0112: real time    0.0112
    --------------------------------------------
      LOOP:  cpu time    4.4560: real time    4.4667

 eigenvalue-minimisations  :   376
 total energy-change (2. order) :-0.3122113E-07  (-0.2322187E-10)
 number of electron     511.9999999 magnetization 
 augmentation part      -28.9794719 magnetization 

 Broyden mixing:
  rms(total) = 0.96453E-05    rms(broyden)= 0.11675E-05
  rms(prec ) = 0.14114E-05
  weight for this iteration     100.00
  WARNING: grid for Broyden might be to small

 eigenvalues of (default mixing * dielectric matrix)
  average eigenvalue GAMMA=   1.7822
  3.2922  2.7030  2.6057  2.0812  2.0759  2.0759  1.2617  1.2617  0.9331  0.9751
  1.0606  1.0606

 Free energy of the ion-electron system (eV)
  ---------------------------------------------------
  alpha Z        PSCENC =       210.78028765
  Ewald energy   TEWEN  =    -14524.86520010
  -Hartree energ DENC   =      -991.73279608
  -exchange      EXHF   =         0.00000000
  -V(xc)+E(xc)   XCENC  =     -1153.28597859
  PAW double counting   =      4723.40888756    -2485.14703348
  entropy T*S    EENTRO =        -0.00000000
  eigenvalues    EBANDS =       345.79310655
  atomic energy  EATOM  =     13192.48085998
  Solvation  Ediel_sol  =         0.00000000
  ---------------------------------------------------
  free energy    TOTEN  =      -682.56786650 eV

  energy without entropy =     -682.56786650  energy(sigma->0) =     -682.56786650


--------------------------------------------------------------------------------------------------------




--------------------------------------- Iteration      1(  18)  ---------------------------------------


    POTLOK:  cpu time    0.2245: real time    0.2252
    SETDIJ:  cpu time    0.2790: real time    0.2797
     EDDAV:  cpu time    3.2375: real time    3.2452
       DOS:  cpu time    0.0004: real time    0.0004
    CHARGE:  cpu time    0.5060: real time    0.5073
    MIXING:  cpu time    0.0108: real time    0.0108
    --------------------------------------------
      LOOP:  cpu time    4.2582: real time    4.2686

 eigenvalue-minimisations  :   352
 total energy-change (2. order) : 0.1540684E-07  (-0.4456546E-11)
 number of electron     511.9999999 magnetization 
 augmentation part      -28.9794723 magnetization 

 Broyden mixing:
  rms(total) = 0.95910E-05    rms(broyden)= 0.56437E-06
  rms(prec ) = 0.68889E-06
  weight for this iteration     100.00
  WARNING: grid for Broyden might be to small

 eigenvalues of (default mixing * dielectric matrix)
  average eigenvalue GAMMA=   1.7930
  3.2956  2.6954  2.6954  2.4065  2.4065  2.1707  1.3188  1.3188  1.0905  1.0905
  1.0076  0.9318  0.8805

 Free energy of the ion-electron system (eV)
  ---------------------------------------------------
  alpha Z        PSCENC =       210.78028765
  Ewald energy   TEWEN  =    -14524.86520010
  -Hartree energ DENC   =      -991.73278481
  -exchange      EXHF   =         0.00000000
  -V(xc)+E(xc)   XCENC  =     -1153.28598132
  PAW double counting   =      4723.40840142    -2485.14654096
  entropy T*S    EENTRO =        -0.00000000
  eigenvalues    EBANDS =       345.79309165
  atomic energy  EATOM  =     13192.48085998
  Solvation  Ediel_sol  =         0.00000000
  ---------------------------------------------------
  free energy    TOTEN  =      -682.56786649 eV

  energy without entropy =     -682.56786649  energy(sigma->0) =     -682.56786649


--------------------------------------------------------------------------------------------------------




--------------------------------------- Iteration      1(  19)  ---------------------------------------


    POTLOK:  cpu time    0.2237: real time    0.2244
    SETDIJ:  cpu time    0.2788: real time    0.2795
     EDDAV:  cpu time    3.2435: real time    3.2513
       DOS:  cpu time    0.0003: real time    0.0003
    --------------------------------------------
      LOOP:  cpu time    3.7464: real time    3.7555

 eigenvalue-minimisations  :   352
 total energy-change (2. order) : 0.2663000E-08  ( 0.1218636E-11)
 number of electron     511.9999999 magnetization 
 augmentation part      -28.9794723 magnetization 

 Free energy of the ion-electron system (eV)
  ---------------------------------------------------
  alpha Z        PSCENC =       210.78028765
  Ewald energy   TEWEN  =    -14524.86520010
  -Hartree energ DENC   =      -991.73274887
  -exchange      EXHF   =         0.00000000
  -V(xc)+E(xc)   XCENC  =     -1153.28598785
  PAW double counting   =      4723.40820204    -2485.14634252
  entropy T*S    EENTRO =        -0.00000000
  eigenvalues    EBANDS =       345.79306319
  atomic energy  EATOM  =     13192.48085998
  Solvation  Ediel_sol  =         0.00000000
  ---------------------------------------------------
  free energy    TOTEN  =      -682.56786648 eV

  energy without entropy =     -682.56786648  energy(sigma->0) =     -682.56786648


--------------------------------------------------------------------------------------------------------




 average (electrostatic) potential at core
  the test charge radii are     0.9892
  (the norm of the test charge is              1.0000)
       1 -83.4136       2 -83.4136       3 -83.4137       4 -83.4138       5 -83.4138
       6 -83.4138       7 -83.4138       8 -83.4137       9 -83.4175      10 -83.4158
      11 -83.4141      12 -83.4143      13 -83.4140      14 -83.4140      15 -83.4139
      16 -83.4141      17 -83.4164      18 -83.4164      19 -83.4138      20 -83.4143
      21 -83.4139      22 -83.4139      23 -83.4143      24 -83.4138      25 -83.4158
      26 -83.4175      27 -83.4141      28 -83.4139      29 -83.4140      30 -83.4140
      31 -83.4143      32 -83.4141      33 -83.4137      34 -83.4138      35 -83.4133
      36 -83.4133      37 -83.4120      38 -83.4132      39 -83.4112      40 -83.4112
      41 -83.4141      42 -83.4143      43 -83.4135      44 -83.4138      45 -83.4134
      46 -83.4134      47 -83.4138      48 -83.4134      49 -83.4138      50 -83.4143
      51 -83.4136      52 -83.4137      53 -83.4137      54 -83.4136      55 -83.4139
      56 -83.4139      57 -83.4141      58 -83.4139      59 -83.4136      60 -83.4135
      61 -83.4136      62 -83.4137      63 -83.4134      64 -83.4138      65 -83.4138
      66 -83.4138      67 -83.4120      68 -83.4132      69 -83.4123      70 -83.4123
      71 -83.4132      72 -83.4120      73 -83.4140      74 -83.4140      75 -83.4134
      76 -83.4134      77 -83.4136      78 -83.4134      79 -83.4137      80 -83.4136
      81 -83.4139      82 -83.4139      83 -83.4137      84 -83.4136      85 -83.4137
      86 -83.4137      87 -83.4136      88 -83.4137      89 -83.4140      90 -83.4140
      91 -83.4136      92 -83.4137      93 -83.4134      94 -83.4136      95 -83.4134
      96 -83.4134      97 -83.4138      98 -83.4137      99 -83.4112     100 -83.4112
     101 -83.4132     102 -83.4120     103 -83.4133     104 -83.4133     105 -83.4139
     106 -83.4141     107 -83.4138     108 -83.4134     109 -83.4137     110 -83.4136
     111 -83.4135     112 -83.4136     113 -83.4143     114 -83.4138     115 -83.4139
     116 -83.4139     117 -83.4136     118 -83.4137     119 -83.4137     120 -83.4136
     121 -83.4143     122 -83.4141     123 -83.4134     124 -83.4138     125 -83.4134
     126 -83.4134     127 -83.4138     128 -83.4135
 
 
 
 E-fermi :   5.9197     XC(G=0):  -9.3007     alpha+bet :-11.7327


 k-point     1 :       0.0000    0.0000    0.0000
  band No.  band energies     occupation 
      1      -6.1630      2.00000
      2      -5.3789      2.00000
      3      -5.3781      2.00000
      4      -5.3775      2.00000
      5      -5.3774      2.00000
      6      -5.3774      2.00000
      7      -5.3770      2.00000
      8      -5.3769      2.00000
      9      -5.3765      2.00000
     10      -5.1007      2.00000
     11      -5.1003      2.00000
     12      -5.0996      2.00000
     13      -5.0994      2.00000
     14      -5.0992      2.00000
     15      -5.0987      2.00000
     16      -4.1600      2.00000
     17      -4.1585      2.00000
     18      -4.1571      2.00000
     19      -4.1570      2.00000
     20      -4.1570      2.00000
     21      -4.1569      2.00000
     22      -4.1569      2.00000
     23      -4.1567      2.00000
     24      -4.1563      2.00000
     25      -4.1563      2.00000
     26      -4.1563      2.00000
     27      -4.1546      2.00000
     28      -3.8824      2.00000
     29      -3.8808      2.00000
     30      -3.8808      2.00000
     31      -3.8807      2.00000
     32      -3.5027      2.00000
     33      -3.4993      2.00000
     34      -3.4968      2.00000
     35      -3.4966      2.00000
     36      -3.4964      2.00000
     37      -3.4964      2.00000
     38      -3.4963      2.00000
     39      -3.4963      2.00000
     40      -3.4963      2.00000
     41      -3.4963      2.00000
     42      -3.4963      2.00000
     43      -3.4962      2.00000
     44      -3.4961      2.00000
     45      -3.4961      2.00000
     46      -3.4961      2.00000
     47      -3.4960      2.00000
     48      -3.4960      2.00000
     49      -3.4959      2.00000
     50      -3.4959      2.00000
     51      -3.4958      2.00000
     52      -3.4952      2.00000
     53      -3.4949      2.00000
     54      -3.4945      2.00000
     55      -3.4912      2.00000
     56      -2.0926      2.00000
     57      -2.0918      2.00000
     58      -2.0908      2.00000
     59      -2.0904      2.00000
     60      -2.0904      2.00000
     61      -2.0896      2.00000
     62      -1.9387      2.00000
     63      -1.9372      2.00000
     64      -1.9356      2.00000
     65      -1.9355      2.00000
     66      -1.9354      2.00000
     67      -1.9353      2.00000
     68      -1.9353      2.00000
     69      -1.9353      2.00000
     70      -1.9352      2.00000
     71      -1.9343      2.00000
     72      -1.9343      2.00000
     73      -1.9326      2.00000
     74      -1.2192      2.00000
     75      -1.2192      2.00000
     76      -1.2182      2.00000
     77      -1.2171      2.00000
     78      -0.6745      2.00000
     79      -0.6732      2.00000
     80      -0.6696      2.00000
     81      -0.6691      2.00000
     82      -0.6690      2.00000
     83      -0.6689      2.00000
     84      -0.6689      2.00000
     85      -0.6688      2.00000
     86      -0.6687      2.00000
     87      -0.6686      2.00000
     88      -0.6686      2.00000
     89      -0.6686      2.00000
     90      -0.6685      2.00000
     91      -0.6685      2.00000
     92      -0.6684      2.00000
     93      -0.6684      2.00000
     94      -0.6684      2.00000
     95      -0.6684      2.00000
     96      -0.6683      2.00000
     97      -0.6682      2.00000
     98      -0.6680      2.00000
     99      -0.6666      2.00000
    100      -0.6663      2.00000
    101      -0.6626      2.00000
    102       0.2139      2.00000
    103       0.2148      2.00000
    104       0.2161      2.00000
    105       0.2166      2.00000
    106       0.2166      2.00000
    107       0.2168      2.00000
    108       0.2168      2.00000
    109       0.2168      2.00000
    110       0.2170      2.00000
    111       0.2179      2.00000
    112       0.2182      2.00000
    113       0.2193      2.00000
    114       1.7660      2.00000
    115       1.7668      2.00000
    116       1.7675      2.00000
    117       1.7676      2.00000
    118       1.7681      2.00000
    119       1.7683      2.00000
    120       1.7690      2.00000
    121       1.7694      2.00000
    122       1.8842      2.00000
    123       1.8853      2.00000
    124       1.8857      2.00000
    125       1.8859      2.00000
    126       1.8859      2.00000
    127       1.8860      2.00000
    128       1.8861      2.00000
    129       1.8862      2.00000
    130       1.8862      2.00000
    131       1.8864      2.00000
    132       1.8865      2.00000
    133       1.8877      2.00000
    134       1.9774      2.00000
    135       1.9775      2.00000
    136       1.9779      2.00000
    137       1.9786      2.00000
    138       1.9787      2.00000
    139       1.9789      2.00000
    140       1.9790      2.00000
    141       1.9790      2.00000
    142       1.9793      2.00000
    143       1.9797      2.00000
    144       1.9800      2.00000
    145       1.9804      2.00000
    146       2.1393      2.00000
    147       2.1406      2.00000
    148       2.1409      2.00000
    149       2.1414      2.00000
    150       2.1415      2.00000
    151       2.1427      2.00000
    152       2.1831      2.00000
    153       2.1839      2.00000
    154       2.1856      2.00000
    155       2.1864      2.00000
    156       2.1865      2.00000
    157       2.1866      2.00000
    158       2.1867      2.00000
    159       2.1868      2.00000
    160       2.1868      2.00000
    161       2.1868      2.00000
    162       2.1869      2.00000
    163       2.1870      2.00000
    164       2.1870      2.00000
    165       2.1871      2.00000
    166       2.1872      2.00000
    167       2.1872      2.00000
    168       2.1872      2.00000
    169       2.1872      2.00000
    170       2.1874      2.00000
    171       2.1874      2.00000
    172       2.1883      2.00000
    173       2.1884      2.00000
    174       2.1887      2.00000
    175       2.1903      2.00000
    176       2.8559      2.00000
    177       2.8564      2.00000
    178       2.8565      2.00000
    179       2.8567      2.00000
    180       2.8568      2.00000
    181       2.8573      2.00000
    182       3.4877      2.00000
    183       3.4903      2.00000
    184       3.4914      2.00000
    185       3.4920      2.00000
    186       3.4921      2.00000
    187       3.4923      2.00000
    188       3.4924      2.00000
    189       3.4924      2.00000
    190       3.4924      2.00000
    191       3.4925      2.00000
    192       3.4925      2.00000
    193       3.4925      2.00000
    194       3.4926      2.00000
    195       3.4927      2.00000
    196       3.4927      2.00000
    197       3.4928      2.00000
    198       3.4929      2.00000
    199       3.4929      2.00000
    200       3.4930      2.00000
    201       3.4930      2.00000
    202       3.4931      2.00000
    203       3.4943      2.00000
    204       3.4947      2.00000
    205       3.4952      2.00000
    206       3.8009      2.00000
    207       3.8034      2.00000
    208       3.8036      2.00000
    209       3.8037      2.00000
    210       3.8038      2.00000
    211       3.8038      2.00000
    212       3.8039      2.00000
    213       3.8040      2.00000
    214       3.8040      2.00000
    215       3.8044      2.00000
    216       3.8045      2.00000
    217       3.8062      2.00000
    218       4.3495      2.00000
    219       4.3514      2.00000
    220       4.3525      2.00000
    221       4.3528      2.00000
    222       4.3528      2.00000
    223       4.3529      2.00000
    224       4.3530      2.00000
    225       4.3530      2.00000
    226       4.3531      2.00000
    227       4.3538      2.00000
    228       4.3541      2.00000
    229       4.3547      2.00000
    230       4.4753      2.00000
    231       4.4771      2.00000
    232       4.4773      2.00000
    233       4.4778      2.00000
    234       4.4780      2.00000
    235       4.4784      2.00000
    236       4.4787      2.00000
    237       4.4791      2.00000
    238       4.9058      2.00000
    239       4.9110      2.00000
    240       4.9113      2.00000
    241       4.9115      2.00000
    242       4.9115      2.00000
    243       4.9116      2.00000
    244       4.9117      2.00000
    245       4.9118      2.00000
    246       4.9119      2.00000
    247       4.9119      2.00000
    248       4.9121      2.00000
    249       4.9122      2.00000
    250       4.9123      2.00000
    251       4.9123      2.00000
    252       4.9127      2.00000
    253       4.9169      2.00000
    254       5.6590      2.00000
    255       5.6604      2.00000
    256       5.6619      2.00000
    257       6.3943      0.00000
    258       6.3944      0.00000
    259       6.3944      0.00000
    260       6.3956      0.00000
    261       6.3959      0.00000
    262       6.3961      0.00000
    263       6.7950      0.00000
    264       6.7958      0.00000
    265       6.7961      0.00000
    266       6.7962      0.00000
    267       6.7969      0.00000
    268       6.7975      0.00000
    269       7.1205      0.00000
    270       7.1207      0.00000
    271       7.1211      0.00000
    272       7.1211      0.00000
    273       7.1820      0.00000
    274       7.1831      0.00000
    275       7.1833      0.00000
    276       7.1856      0.00000
    277       7.1857      0.00000
    278       7.1857      0.00000
    279       7.1859      0.00000
    280       7.1859      0.00000
    281       7.1859      0.00000
    282       7.1859      0.00000
    283       7.1860      0.00000
    284       7.1860      0.00000
    285       7.1860      0.00000
    286       7.1861      0.00000
    287       7.1861      0.00000
    288       7.1862      0.00000
    289       7.1862      0.00000
    290       7.1863      0.00000
    291       7.1863      0.00000
    292       7.1863      0.00000
    293       7.1870      0.00000
    294       7.1872      0.00000
    295       7.1893      0.00000
    296       7.1897      0.00000
    297       7.6110      0.00000
    298       7.6116      0.00000
    299       7.6119      0.00000
    300       7.6122      0.00000
    301       7.6126      0.00000
    302       7.6126      0.00000
    303       7.6127      0.00000
    304       7.6132      0.00000
    305       8.0809      0.00000
    306       8.0814      0.00000
    307       8.0820      0.00000
    308       8.0828      0.00000
    309       8.0829      0.00000
    310       8.0829      0.00000
    311       8.0830      0.00000
    312       8.0831      0.00000
    313       8.0831      0.00000
    314       8.0840      0.00000
    315       8.0841      0.00000
    316       8.0850      0.00000
    317       8.1985      0.00000
    318       8.1993      0.00000
    319       8.2002      0.00000
    320       8.7790      0.00000
    321       8.7795      0.00000
    322       8.7866      0.00000


--------------------------------------------------------------------------------------------------------


 soft charge-density along one line, spin component           1
         0         1         2         3         4         5         6         7         8         9
 total charge-density along one line
 
 pseudopotential strength for first ion, spin component:           1
 18.431  -0.001  -0.000   0.000   0.000   0.000   0.000   0.000
 -0.001   0.006   0.000   0.000   0.000  -0.000  -0.000  -0.000
 -0.000   0.000   4.180   0.000   0.000  -0.005  -0.000  -0.000
  0.000   0.000   0.000   4.180   0.000  -0.000  -0.005  -0.000
  0.000   0.000   0.000   0.000   4.180  -0.000  -0.000  -0.005
  0.000  -0.000  -0.005  -0.000  -0.000   0.005   0.000   0.000
  0.000  -0.000  -0.000  -0.005  -0.000   0.000   0.005   0.000
  0.000  -0.000  -0.000  -0.000  -0.005   0.000   0.000   0.005
 total augmentation occupancy for first ion, spin component:           1
  1.463  -0.795  -0.004  -0.000  -0.000   0.005   0.001   0.001
 -0.795   0.736   0.004   0.002   0.002  -0.005  -0.002  -0.002
 -0.004   0.004   1.038   0.001   0.001  -0.552  -0.001  -0.001
 -0.000   0.002   0.001   1.038   0.005  -0.001  -0.553  -0.006
 -0.000   0.002   0.001   0.005   1.038  -0.001  -0.006  -0.553
  0.005  -0.005  -0.552  -0.001  -0.001   0.352   0.001   0.001
  0.001  -0.002  -0.001  -0.553  -0.006   0.001   0.353   0.005
  0.001  -0.002  -0.001  -0.006  -0.553   0.001   0.005   0.353


------------------------ aborting loop because EDIFF is reached ----------------------------------------


    CHARGE:  cpu time    0.5047: real time    0.5058
    FORLOC:  cpu time    0.2002: real time    0.2006
    FORNL :  cpu time    5.5240: real time    5.5371
    STRESS:  cpu time    8.8639: real time    8.8848
    FORCOR:  cpu time    0.4112: real time    0.4122
    FORHAR:  cpu time    0.2470: real time    0.2477
    MIXING:  cpu time    0.0101: real time    0.0101
    OFIELD:  cpu time    0.0001: real time    0.0001

  FORCE on cell =-STRESS in cart. coord.  units (eV):
  Direction    XX          YY          ZZ          XY          YZ          ZX
  --------------------------------------------------------------------------------------
  Alpha Z   210.78029   210.78029   210.78029
  Ewald   -4841.66328 -4841.68542 -4841.66328    -0.00235    -0.00235     1.55084
  Hartree   330.57870   330.57533   330.57870    -0.00086    -0.00086     0.17672
  E(xc)   -1619.14461 -1619.14438 -1619.14461     0.00000     0.00000    -0.01328
  Local   -1899.81460 -1899.79026 -1899.81460     0.00362     0.00362    -1.63732
  n-local  4936.76930  4936.76452  4936.76930    -0.00004    -0.00004     0.31886
  augment  -736.53109  -736.53085  -736.53109    -0.00027    -0.00027    -0.01431
  Kinetic  3628.38863  3628.38992  3628.38863     0.00034     0.00034    -0.20635
  Fock        0.00000     0.00000     0.00000     0.00000     0.00000     0.00000
  -------------------------------------------------------------------------------------
  Total       9.36334     9.35914     9.36334     0.00045     0.00045     0.17515
  in kB       5.73321     5.73064     5.73321     0.00027     0.00027     0.10724
  external pressure =        5.73 kB  Pullay stress =        0.00 kB


 VOLUME and BASIS-vectors are now :
 -----------------------------------------------------------------------------
  energy-cutoff  :      500.00
  volume of cell :     2616.64
      direct lattice vectors                 reciprocal lattice vectors
     0.000000000 10.937160696 10.937160696    -0.045715704  0.045715704  0.045715704
    10.937160696  0.000000000 10.937160696     0.045715704 -0.045715704  0.045715704
    10.937160696 10.937160696  0.000000000     0.045715704  0.045715704 -0.045715704

  length of vectors
    15.467480990 15.467480990 15.467480990     0.079181922  0.079181922  0.079181922


 FORCES acting on ions
    electron-ion (+dipol)            ewald-force                    non-local-force                 convergence-correction
 -----------------------------------------------------------------------------------------------
   -.203E+00 -.526E+00 -.203E+00   0.175E+00 0.470E+00 0.175E+00   0.491E-01 0.220E+00 0.491E-01   0.641E-06 0.147E-05 0.289E-06
   0.203E+00 0.526E+00 0.203E+00   -.175E+00 -.470E+00 -.175E+00   -.491E-01 -.220E+00 -.491E-01   -.454E-06 -.138E-05 -.605E-06
   -.501E-02 0.164E-01 0.412E-01   0.465E-02 -.152E-01 -.432E-01   0.829E-03 -.259E-02 0.120E-03   -.120E-06 -.329E-06 -.780E-06
   -.200E+00 -.196E-01 0.141E+00   0.173E+00 0.190E-01 -.113E+00   0.478E-01 -.303E-01 -.462E-01   0.617E-06 0.381E-06 -.140E-06
   0.570E-02 -.730E-03 -.594E-02   -.463E-02 0.927E-03 0.417E-02   -.600E-03 -.132E-03 0.160E-02   0.105E-06 -.201E-07 0.145E-06
   -.570E-02 0.730E-03 0.594E-02   0.463E-02 -.927E-03 -.417E-02   0.600E-03 0.132E-03 -.160E-02   -.906E-07 0.175E-07 0.366E-07
   0.200E+00 0.196E-01 -.141E+00   -.173E+00 -.190E-01 0.113E+00   -.478E-01 0.303E-01 0.462E-01   -.612E-06 -.452E-06 0.167E-06
   0.501E-02 -.164E-01 -.412E-01   -.465E-02 0.152E-01 0.432E-01   -.829E-03 0.259E-02 -.120E-03   0.248E-06 0.388E-06 0.798E-06
   0.382E-02 -.126E-01 0.382E-02   0.452E-02 0.303E-01 0.452E-02   -.978E-02 -.107E-01 -.978E-02   -.351E-07 -.262E-06 -.346E-06
   -.196E+00 0.280E-01 -.196E+00   0.174E+00 -.389E-01 0.174E+00   0.414E-01 -.269E-01 0.414E-01   0.743E-06 0.414E-06 0.396E-06
   0.616E-02 -.248E-02 0.420E-02   -.532E-02 0.320E-02 -.501E-02   -.187E-03 -.108E-02 0.269E-03   0.227E-06 0.559E-07 0.159E-06
   0.132E-02 -.124E-01 0.145E-01   -.426E-02 0.143E-01 -.125E-01   0.232E-02 -.157E-02 -.148E-02   0.182E-06 -.888E-07 -.130E-06
   0.109E-01 0.110E-02 0.168E-02   -.885E-02 -.171E-02 -.342E-02   -.203E-02 0.773E-03 0.106E-02   -.640E-07 -.180E-06 -.698E-07
   0.561E-02 -.299E-02 0.200E-02   -.692E-02 0.379E-02 -.982E-03   0.999E-03 -.805E-03 -.789E-03   0.198E-06 -.643E-07 -.216E-07
   -.382E-01 0.375E-01 0.534E-02   0.399E-01 -.374E-01 -.655E-02   0.682E-03 -.194E-02 0.182E-02   0.571E-06 0.210E-06 0.756E-07
   0.384E-01 0.133E-01 0.219E-01   -.395E-01 -.154E-01 -.206E-01   -.123E-02 0.367E-02 -.182E-04   -.693E-06 0.168E-07 -.152E-06
   0.208E-02 0.130E-01 0.208E-02   -.463E-02 -.185E-02 -.463E-02   0.303E-02 -.740E-02 0.303E-02   0.229E-06 0.341E-06 0.386E-06
   -.208E-02 -.130E-01 -.208E-02   0.463E-02 0.185E-02 0.463E-02   -.303E-02 0.740E-02 -.303E-02   -.150E-06 -.123E-06 -.299E-06
   0.105E-01 -.771E-02 0.319E-02   -.891E-02 0.793E-02 -.236E-02   -.165E-02 -.120E-03 -.624E-03   -.232E-07 -.368E-06 0.303E-07
   0.524E-02 -.993E-03 0.513E-02   -.693E-02 0.203E-02 -.339E-02   0.133E-02 -.859E-03 -.131E-02   0.209E-06 0.138E-07 0.654E-07
   -.298E-02 0.150E-02 -.173E-02   0.373E-02 -.116E-02 0.110E-02   -.302E-03 -.419E-03 0.475E-03   0.895E-07 0.271E-06 -.509E-07
   0.298E-02 -.150E-02 0.173E-02   -.373E-02 0.116E-02 -.110E-02   0.302E-03 0.419E-03 -.475E-03   -.419E-07 -.226E-06 0.103E-07
   -.524E-02 0.993E-03 -.513E-02   0.693E-02 -.203E-02 0.339E-02   -.133E-02 0.859E-03 0.131E-02   -.106E-07 -.117E-06 -.120E-06
   -.105E-01 0.771E-02 -.319E-02   0.891E-02 -.793E-02 0.236E-02   0.165E-02 0.119E-03 0.625E-03   0.957E-07 0.300E-06 -.411E-07
   0.196E+00 -.280E-01 0.196E+00   -.174E+00 0.389E-01 -.174E+00   -.414E-01 0.269E-01 -.414E-01   -.695E-06 -.452E-06 -.438E-06
   -.382E-02 0.126E-01 -.382E-02   -.452E-02 -.303E-01 -.452E-02   0.978E-02 0.107E-01 0.978E-02   0.683E-07 0.351E-06 0.340E-06
   -.384E-01 -.133E-01 -.219E-01   0.395E-01 0.154E-01 0.206E-01   0.123E-02 -.367E-02 0.183E-04   0.614E-06 -.423E-07 -.111E-06
   0.382E-01 -.375E-01 -.534E-02   -.399E-01 0.374E-01 0.655E-02   -.682E-03 0.194E-02 -.182E-02   -.533E-06 -.640E-07 -.240E-06
   -.561E-02 0.299E-02 -.200E-02   0.692E-02 -.379E-02 0.982E-03   -.999E-03 0.805E-03 0.789E-03   -.281E-06 0.186E-06 0.506E-07
   -.109E-01 -.110E-02 -.168E-02   0.885E-02 0.171E-02 0.342E-02   0.203E-02 -.773E-03 -.106E-02   -.568E-07 0.324E-06 0.186E-07
   -.132E-02 0.124E-01 -.145E-01   0.426E-02 -.143E-01 0.125E-01   -.232E-02 0.157E-02 0.148E-02   -.907E-07 0.124E-06 0.152E-06
   -.616E-02 0.248E-02 -.420E-02   0.532E-02 -.320E-02 0.501E-02   0.187E-03 0.108E-02 -.269E-03   -.281E-06 -.691E-07 -.123E-06
   0.412E-01 0.164E-01 -.501E-02   -.432E-01 -.152E-01 0.465E-02   0.120E-03 -.259E-02 0.829E-03   -.501E-06 -.395E-06 -.461E-06
   0.141E+00 -.196E-01 -.200E+00   -.113E+00 0.190E-01 0.173E+00   -.462E-01 -.303E-01 0.478E-01   0.821E-07 0.285E-06 0.439E-06
   0.372E-02 0.631E-02 0.372E-02   -.498E-02 -.643E-02 -.498E-02   0.668E-03 -.177E-03 0.668E-03   0.153E-06 -.846E-07 -.640E-07
   0.136E-01 0.288E-01 0.136E-01   -.124E-01 -.287E-01 -.124E-01   -.753E-03 -.166E-04 -.753E-03   -.131E-06 -.293E-06 -.184E-06
   -.459E-03 0.131E-01 0.573E-02   -.237E-02 -.621E-02 -.337E-02   0.303E-02 -.492E-02 -.298E-02   0.972E-07 -.202E-06 -.879E-07
   0.495E-02 0.648E-02 0.219E-02   -.338E-02 -.584E-02 -.946E-03   -.114E-02 -.591E-03 -.957E-03   0.123E-06 -.231E-06 0.543E-07
   -.272E-01 -.121E-01 0.101E-01   0.203E-01 0.221E-01 -.642E-02   0.745E-02 -.529E-02 -.501E-02   0.126E-07 0.272E-06 0.554E-06
   -.101E-01 0.121E-01 0.272E-01   0.642E-02 -.221E-01 -.203E-01   0.501E-02 0.529E-02 -.745E-02   -.338E-06 0.410E-07 0.384E-06
   0.420E-02 -.248E-02 0.616E-02   -.501E-02 0.320E-02 -.532E-02   0.269E-03 -.108E-02 -.186E-03   0.121E-06 0.563E-07 0.196E-07
   0.145E-01 -.124E-01 0.132E-02   -.125E-01 0.143E-01 -.426E-02   -.148E-02 -.157E-02 0.232E-02   -.550E-08 -.225E-06 -.500E-07
   0.364E-02 0.262E-03 0.364E-02   -.304E-02 0.762E-05 -.304E-02   -.211E-03 -.624E-03 -.211E-03   -.163E-06 -.133E-06 -.573E-07
   0.552E-02 0.112E-02 0.552E-02   -.560E-02 -.947E-05 -.560E-02   0.624E-04 -.909E-03 0.624E-04   -.987E-08 -.294E-06 -.833E-07
   -.383E-02 0.114E-02 0.210E-02   0.397E-02 -.110E-02 -.227E-02   -.126E-04 -.307E-03 0.445E-03   0.232E-07 0.927E-07 0.458E-06
   0.161E-02 0.417E-02 0.230E-02   -.243E-02 -.320E-02 -.332E-02   0.627E-03 -.766E-03 0.729E-03   -.150E-07 -.883E-07 0.125E-06
   -.391E-02 -.101E-01 -.896E-03   0.399E-02 0.889E-02 0.241E-04   -.571E-04 0.816E-03 0.880E-03   -.215E-06 -.202E-06 -.163E-06
   -.215E-01 -.225E-02 0.407E-02   0.204E-01 0.443E-02 -.653E-02   0.788E-03 -.168E-02 0.212E-02   0.126E-06 0.105E-06 0.276E-06
   0.319E-02 -.771E-02 0.105E-01   -.236E-02 0.793E-02 -.891E-02   -.624E-03 -.120E-03 -.165E-02   -.205E-06 -.241E-06 -.720E-07
   0.513E-02 -.993E-03 0.524E-02   -.339E-02 0.203E-02 -.693E-02   -.131E-02 -.859E-03 0.133E-02   -.840E-07 0.879E-07 0.784E-07
   -.336E-02 -.269E-02 -.336E-02   0.397E-02 0.228E-02 0.397E-02   -.424E-03 0.297E-03 -.424E-03   0.116E-06 0.413E-07 0.327E-06
   0.186E-02 -.533E-02 0.186E-02   -.245E-02 0.645E-02 -.245E-02   0.458E-03 -.973E-03 0.458E-03   0.162E-06 -.135E-06 0.355E-06
   -.350E-02 0.119E-02 -.126E-02   0.373E-02 -.181E-02 0.102E-02   -.207E-03 0.419E-03 0.229E-03   -.260E-06 -.242E-06 -.149E-06
   -.469E-02 0.123E-02 -.186E-02   0.421E-02 -.780E-03 0.109E-02   0.394E-03 -.409E-03 0.626E-03   0.191E-06 -.663E-07 -.245E-07
   0.641E-03 -.286E-03 0.375E-02   -.295E-04 -.687E-03 -.402E-02   -.607E-03 0.690E-03 0.245E-03   -.873E-07 0.135E-06 0.688E-07
   -.375E-02 0.286E-03 -.641E-03   0.402E-02 0.687E-03 0.295E-04   -.244E-03 -.691E-03 0.607E-03   -.278E-06 -.906E-07 -.803E-07
   -.219E-01 -.133E-01 -.384E-01   0.206E-01 0.154E-01 0.395E-01   0.182E-04 -.367E-02 0.123E-02   0.279E-06 -.168E-07 0.747E-06
   -.534E-02 -.375E-01 0.382E-01   0.655E-02 0.374E-01 -.399E-01   -.182E-02 0.194E-02 -.682E-03   -.808E-07 -.775E-07 -.273E-06
   -.399E-02 0.171E-01 -.399E-02   0.405E-02 -.177E-01 0.405E-02   -.350E-04 0.343E-03 -.349E-04   -.987E-07 -.234E-06 -.343E-06
   -.210E-01 0.855E-02 -.210E-01   0.204E-01 -.857E-02 0.204E-01   0.234E-03 0.260E-03 0.234E-03   0.205E-07 0.131E-06 -.353E-07
   0.573E-03 0.538E-02 0.647E-03   -.233E-04 -.616E-02 -.696E-03   -.568E-03 0.524E-03 0.694E-04   -.130E-06 -.294E-07 0.235E-07
   -.384E-02 0.721E-02 -.663E-03   0.403E-02 -.682E-02 0.736E-03   -.180E-03 -.234E-03 -.937E-04   -.253E-06 -.729E-07 -.269E-06
   -.407E-02 0.225E-02 0.215E-01   0.653E-02 -.443E-02 -.204E-01   -.212E-02 0.168E-02 -.788E-03   -.194E-06 0.850E-07 0.348E-07
   0.896E-03 0.101E-01 0.391E-02   -.241E-04 -.889E-02 -.399E-02   -.880E-03 -.816E-03 0.571E-04   -.205E-06 0.216E-06 0.127E-06
   -.594E-02 -.730E-03 0.570E-02   0.417E-02 0.927E-03 -.463E-02   0.160E-02 -.132E-03 -.600E-03   0.987E-08 -.129E-06 0.121E-07
   0.594E-02 0.730E-03 -.570E-02   -.417E-02 -.927E-03 0.463E-02   -.160E-02 0.132E-03 0.600E-03   0.156E-06 0.588E-07 -.204E-06
   0.573E-02 0.131E-01 -.459E-03   -.337E-02 -.621E-02 -.237E-02   -.298E-02 -.492E-02 0.303E-02   -.155E-06 -.204E-06 -.180E-06
   0.219E-02 0.648E-02 0.495E-02   -.946E-03 -.584E-02 -.338E-02   -.957E-03 -.591E-03 -.114E-02   0.228E-06 -.256E-06 -.150E-06
   -.188E-02 0.192E-02 -.188E-02   0.109E-02 0.234E-02 0.109E-02   0.638E-03 -.267E-02 0.638E-03   0.964E-07 0.197E-06 0.246E-06
   0.188E-02 -.192E-02 0.188E-02   -.109E-02 -.234E-02 -.109E-02   -.638E-03 0.267E-02 -.638E-03   0.552E-07 -.130E-06 -.641E-07
   -.219E-02 -.648E-02 -.495E-02   0.946E-03 0.584E-02 0.338E-02   0.957E-03 0.591E-03 0.114E-02   -.114E-06 0.845E-07 0.114E-06
   -.573E-02 -.131E-01 0.458E-03   0.337E-02 0.621E-02 0.237E-02   0.298E-02 0.491E-02 -.303E-02   0.184E-06 0.184E-06 0.366E-06
   0.168E-02 0.110E-02 0.109E-01   -.342E-02 -.171E-02 -.885E-02   0.106E-02 0.773E-03 -.203E-02   -.273E-06 -.253E-06 -.169E-06
   0.200E-02 -.299E-02 0.561E-02   -.982E-03 0.379E-02 -.692E-02   -.789E-03 -.805E-03 0.999E-03   -.274E-06 -.703E-07 -.162E-06
   0.210E-02 0.114E-02 -.383E-02   -.227E-02 -.110E-02 0.397E-02   0.445E-03 -.307E-03 -.127E-04   0.214E-06 0.531E-07 0.913E-07
   0.230E-02 0.417E-02 0.161E-02   -.332E-02 -.320E-02 -.243E-02   0.729E-03 -.766E-03 0.627E-03   -.113E-06 -.823E-07 -.144E-06
   -.131E-02 -.448E-02 -.132E-02   0.101E-02 0.366E-02 0.101E-02   0.269E-03 0.584E-03 0.269E-03   -.172E-06 0.576E-07 0.697E-07
   -.208E-02 -.580E-03 -.208E-02   0.108E-02 0.162E-02 0.108E-02   0.825E-03 -.837E-03 0.825E-03   -.665E-07 0.143E-06 0.252E-06
   0.663E-03 -.721E-02 0.384E-02   -.736E-03 0.682E-02 -.403E-02   0.939E-04 0.234E-03 0.181E-03   -.859E-08 0.823E-07 0.243E-07
   -.647E-03 -.538E-02 -.573E-03   0.696E-03 0.616E-02 0.233E-04   -.693E-04 -.524E-03 0.568E-03   -.241E-06 0.682E-07 -.394E-07
   -.173E-02 0.150E-02 -.298E-02   0.110E-02 -.116E-02 0.373E-02   0.475E-03 -.419E-03 -.302E-03   0.403E-07 0.180E-06 0.182E-06
   0.173E-02 -.150E-02 0.298E-02   -.110E-02 0.116E-02 -.373E-02   -.475E-03 0.419E-03 0.302E-03   -.344E-07 -.169E-06 -.568E-08
   -.126E-02 0.119E-02 -.350E-02   0.102E-02 -.181E-02 0.373E-02   0.229E-03 0.419E-03 -.207E-03   0.236E-07 -.138E-06 0.872E-08
   -.186E-02 0.123E-02 -.469E-02   0.109E-02 -.780E-03 0.421E-02   0.626E-03 -.409E-03 0.393E-03   0.376E-07 -.143E-06 0.403E-06
   0.112E-02 -.680E-03 0.112E-02   -.102E-02 -.769E-05 -.102E-02   -.821E-04 0.468E-03 -.821E-04   0.465E-07 0.274E-06 -.744E-07
   -.112E-02 0.680E-03 -.112E-02   0.102E-02 0.769E-05 0.102E-02   0.821E-04 -.469E-03 0.821E-04   -.227E-07 -.182E-06 -.153E-06
   0.186E-02 -.123E-02 0.469E-02   -.109E-02 0.780E-03 -.421E-02   -.625E-03 0.409E-03 -.393E-03   -.531E-07 -.254E-07 -.209E-06
   0.126E-02 -.119E-02 0.350E-02   -.102E-02 0.181E-02 -.373E-02   -.229E-03 -.419E-03 0.207E-03   -.823E-07 0.158E-06 -.960E-07
   -.200E-02 0.299E-02 -.561E-02   0.982E-03 -.379E-02 0.692E-02   0.789E-03 0.805E-03 -.999E-03   0.241E-06 0.398E-07 0.501E-07
   -.168E-02 -.110E-02 -.109E-01   0.342E-02 0.171E-02 0.885E-02   -.106E-02 -.773E-03 0.203E-02   0.217E-06 0.168E-06 0.272E-06
   0.647E-03 0.538E-02 0.573E-03   -.696E-03 -.616E-02 -.233E-04   0.693E-04 0.524E-03 -.568E-03   0.112E-06 -.856E-07 -.300E-06
   -.663E-03 0.721E-02 -.384E-02   0.736E-03 -.682E-02 0.403E-02   -.939E-04 -.234E-03 -.180E-03   0.398E-07 -.694E-07 -.195E-06
   0.208E-02 0.580E-03 0.208E-02   -.108E-02 -.162E-02 -.108E-02   -.825E-03 0.837E-03 -.825E-03   -.592E-09 -.120E-07 -.150E-06
   0.131E-02 0.448E-02 0.132E-02   -.101E-02 -.366E-02 -.101E-02   -.269E-03 -.585E-03 -.268E-03   0.910E-07 0.110E-06 -.267E-06
   -.230E-02 -.417E-02 -.161E-02   0.332E-02 0.320E-02 0.243E-02   -.729E-03 0.766E-03 -.627E-03   0.124E-06 0.745E-07 0.298E-06
   -.210E-02 -.114E-02 0.383E-02   0.227E-02 0.110E-02 -.397E-02   -.445E-03 0.307E-03 0.128E-04   -.284E-06 0.489E-07 0.603E-07
   -.141E+00 0.196E-01 0.200E+00   0.113E+00 -.190E-01 -.173E+00   0.462E-01 0.303E-01 -.478E-01   -.121E-06 -.437E-06 -.741E-06
   -.412E-01 -.164E-01 0.501E-02   0.432E-01 0.152E-01 -.465E-02   -.120E-03 0.259E-02 -.829E-03   0.521E-06 0.226E-06 0.301E-06
   0.101E-01 -.121E-01 -.272E-01   -.642E-02 0.221E-01 0.203E-01   -.502E-02 -.529E-02 0.745E-02   0.241E-06 0.779E-07 -.163E-06
   0.272E-01 0.121E-01 -.101E-01   -.203E-01 -.221E-01 0.642E-02   -.745E-02 0.529E-02 0.501E-02   0.562E-07 -.979E-07 -.426E-06
   -.495E-02 -.648E-02 -.219E-02   0.338E-02 0.584E-02 0.946E-03   0.114E-02 0.591E-03 0.957E-03   -.178E-06 0.128E-06 0.205E-06
   0.459E-03 -.131E-01 -.573E-02   0.237E-02 0.621E-02 0.337E-02   -.303E-02 0.492E-02 0.298E-02   -.536E-07 0.995E-07 0.190E-06
   -.136E-01 -.288E-01 -.136E-01   0.124E-01 0.287E-01 0.124E-01   0.753E-03 0.165E-04 0.753E-03   0.759E-07 0.215E-06 0.316E-06
   -.372E-02 -.631E-02 -.372E-02   0.498E-02 0.643E-02 0.498E-02   -.668E-03 0.177E-03 -.668E-03   -.169E-06 -.691E-07 0.131E-06
   0.534E-02 0.375E-01 -.382E-01   -.655E-02 -.374E-01 0.399E-01   0.182E-02 -.194E-02 0.682E-03   0.198E-06 0.836E-07 0.408E-06
   0.219E-01 0.133E-01 0.384E-01   -.206E-01 -.154E-01 -.395E-01   -.183E-04 0.367E-02 -.123E-02   -.134E-06 -.770E-08 -.772E-06
   -.896E-03 -.101E-01 -.391E-02   0.241E-04 0.889E-02 0.399E-02   0.880E-03 0.816E-03 -.570E-04   0.110E-06 -.218E-06 0.546E-07
   0.407E-02 -.225E-02 -.215E-01   -.653E-02 0.443E-02 0.204E-01   0.212E-02 -.168E-02 0.788E-03   0.182E-06 -.426E-07 0.137E-08
   0.384E-02 -.721E-02 0.663E-03   -.403E-02 0.682E-02 -.736E-03   0.180E-03 0.234E-03 0.938E-04   0.545E-07 0.383E-07 0.218E-06
   -.573E-03 -.538E-02 -.647E-03   0.233E-04 0.616E-02 0.696E-03   0.568E-03 -.524E-03 -.693E-04   -.798E-07 0.619E-07 0.128E-06
   0.210E-01 -.855E-02 0.210E-01   -.204E-01 0.857E-02 -.204E-01   -.234E-03 -.260E-03 -.234E-03   -.714E-07 -.403E-07 -.315E-06
   0.399E-02 -.171E-01 0.399E-02   -.405E-02 0.177E-01 -.405E-02   0.351E-04 -.343E-03 0.349E-04   0.338E-07 0.212E-06 0.174E-06
   -.513E-02 0.993E-03 -.524E-02   0.339E-02 -.203E-02 0.693E-02   0.131E-02 0.859E-03 -.133E-02   0.164E-07 -.127E-06 0.117E-06
   -.319E-02 0.771E-02 -.105E-01   0.236E-02 -.793E-02 0.891E-02   0.624E-03 0.119E-03 0.165E-02   0.115E-06 0.193E-06 0.445E-07
   0.375E-02 -.286E-03 0.641E-03   -.402E-02 -.687E-03 -.295E-04   0.245E-03 0.690E-03 -.607E-03   0.189E-06 0.409E-07 -.152E-07
   -.641E-03 0.286E-03 -.375E-02   0.295E-04 0.687E-03 0.402E-02   0.607E-03 -.690E-03 -.244E-03   0.601E-07 -.960E-07 0.519E-07
   0.469E-02 -.123E-02 0.186E-02   -.421E-02 0.780E-03 -.109E-02   -.393E-03 0.409E-03 -.625E-03   -.118E-06 0.117E-06 -.141E-06
   0.350E-02 -.119E-02 0.126E-02   -.373E-02 0.181E-02 -.102E-02   0.207E-03 -.419E-03 -.229E-03   0.515E-07 0.110E-06 0.323E-07
   -.186E-02 0.533E-02 -.186E-02   0.245E-02 -.645E-02 0.245E-02   -.458E-03 0.973E-03 -.458E-03   -.845E-07 0.240E-06 -.199E-06
   0.336E-02 0.269E-02 0.336E-02   -.397E-02 -.228E-02 -.397E-02   0.424E-03 -.297E-03 0.424E-03   -.718E-07 0.162E-07 -.331E-06
   -.145E-01 0.124E-01 -.132E-02   0.125E-01 -.143E-01 0.426E-02   0.148E-02 0.157E-02 -.232E-02   0.387E-07 0.156E-06 0.539E-07
   -.420E-02 0.248E-02 -.616E-02   0.501E-02 -.320E-02 0.532E-02   -.269E-03 0.108E-02 0.187E-03   -.103E-06 -.137E-06 0.706E-07
   0.215E-01 0.225E-02 -.407E-02   -.204E-01 -.443E-02 0.653E-02   -.788E-03 0.168E-02 -.212E-02   0.509E-07 0.143E-07 -.407E-06
   0.391E-02 0.101E-01 0.896E-03   -.399E-02 -.889E-02 -.241E-04   0.571E-04 -.816E-03 -.880E-03   0.117E-06 0.598E-07 -.158E-06
   -.161E-02 -.417E-02 -.230E-02   0.243E-02 0.320E-02 0.332E-02   -.627E-03 0.766E-03 -.729E-03   0.663E-07 0.112E-06 0.104E-06
   0.383E-02 -.114E-02 -.210E-02   -.397E-02 0.110E-02 0.227E-02   0.127E-04 0.307E-03 -.445E-03   -.419E-07 0.176E-07 -.380E-06
   -.552E-02 -.112E-02 -.552E-02   0.560E-02 0.947E-05 0.560E-02   -.624E-04 0.909E-03 -.624E-04   0.231E-07 0.178E-06 0.936E-07
   -.364E-02 -.262E-03 -.364E-02   0.304E-02 -.762E-05 0.304E-02   0.211E-03 0.624E-03 0.211E-03   0.222E-06 0.166E-06 0.236E-06
 -----------------------------------------------------------------------------------------------
   -.212E-05 0.486E-05 -.439E-05   0.179E-12 -.392E-12 -.521E-14   0.221E-05 -.610E-05 0.533E-05   0.766E-07 0.148E-06 -.106E-06
 
 
 POSITION                                       TOTAL-FORCE (eV/Angst)
 -----------------------------------------------------------------------------------
      1.36715      1.35715      1.36715         0.021094      0.163454      0.021094
     10.93716      0.01000     10.93716        -0.021094     -0.163454     -0.021094
      1.36715      4.10144      4.10144         0.000473     -0.001357     -0.001823
      0.00000      2.73429      2.73429         0.020921     -0.030975     -0.017915
      1.36715      6.83573      6.83573         0.000471      0.000065     -0.000174
      0.00000      5.46858      5.46858        -0.000471     -0.000065      0.000174
      1.36715      9.57002      9.57002        -0.020921      0.030975      0.017915
      0.00000      8.20287      8.20287        -0.000473      0.001357      0.001823
      4.10144      1.36715      4.10144        -0.001442      0.006975     -0.001442
      2.73429      0.00000      2.73429         0.019551     -0.037785      0.019551
      4.10144      4.10144      6.83573         0.000658     -0.000355     -0.000535
      2.73429      2.73429      5.46858        -0.000618      0.000353      0.000547
      4.10144      6.83573      9.57002         0.000013      0.000158     -0.000682
      2.73429      5.46858      8.20287        -0.000310     -0.000007      0.000229
      4.10144      9.57002     12.30431         0.002375     -0.001835      0.000614
      2.73429      8.20287     10.93716        -0.002358      0.001647      0.001290
      6.83573      1.36715      6.83573         0.000474      0.003739      0.000474
      5.46858      0.00000      5.46858        -0.000474     -0.003739     -0.000474
      6.83573      4.10144      9.57002        -0.000045      0.000104      0.000200
      5.46858      2.73429      8.20287        -0.000367      0.000182      0.000430
      6.83573      6.83573     12.30431         0.000450     -0.000086     -0.000158
      5.46858      5.46858     10.93716        -0.000450      0.000086      0.000158
      6.83573      9.57002     15.03860         0.000367     -0.000182     -0.000430
      5.46858      8.20287     13.67145         0.000045     -0.000104     -0.000200
      9.57002      1.36715      9.57002        -0.019551      0.037785     -0.019551
      8.20287      0.00000      8.20287         0.001442     -0.006975      0.001442
      9.57002      4.10144     12.30431         0.002358     -0.001647     -0.001290
      8.20287      2.73429     10.93716        -0.002375      0.001835     -0.000614
      9.57002      6.83573     15.03860         0.000310      0.000007     -0.000229
      8.20287      5.46858     13.67145        -0.000013     -0.000158      0.000682
      9.57002      9.57002     17.77289         0.000617     -0.000353     -0.000547
      8.20287      8.20287     16.40574        -0.000658      0.000355      0.000535
      4.10144      4.10144      1.36715        -0.001823     -0.001357      0.000473
      2.73429      2.73429      0.00000        -0.017915     -0.030975      0.020921
      4.10144      6.83573      4.10144        -0.000595     -0.000296     -0.000595
      2.73429      5.46858      2.73429         0.000494      0.000121      0.000494
      4.10144      9.57002      6.83573         0.000202      0.001932     -0.000622
      2.73429      8.20287      5.46858         0.000428      0.000049      0.000290
      4.10144     12.30431      9.57002         0.000602      0.004664     -0.001283
      2.73429     10.93716      8.20287         0.001283     -0.004664     -0.000602
      6.83573      4.10144      4.10144        -0.000535     -0.000355      0.000658
      5.46858      2.73429      2.73429         0.000547      0.000353     -0.000618
      6.83573      6.83573      6.83573         0.000387     -0.000354      0.000387
      5.46858      5.46858      5.46858        -0.000019      0.000203     -0.000019
      6.83573      9.57002      9.57002         0.000128     -0.000260      0.000277
      5.46858      8.20287      8.20287        -0.000190      0.000203     -0.000289
      6.83573     12.30431     12.30431         0.000023     -0.000408      0.000008
      5.46858     10.93716     10.93716        -0.000344      0.000504     -0.000338
      9.57002      4.10144      6.83573         0.000200      0.000104     -0.000045
      8.20287      2.73429      5.46858         0.000430      0.000182     -0.000367
      9.57002      6.83573      9.57002         0.000187     -0.000111      0.000187
      8.20287      5.46858      8.20287        -0.000131      0.000145     -0.000131
      9.57002      9.57002     12.30431         0.000025     -0.000200     -0.000011
      8.20287      8.20287     10.93716        -0.000082      0.000039     -0.000146
      9.57002     12.30431     15.03860         0.000005     -0.000282     -0.000034
      8.20287     10.93716     13.67145         0.000034      0.000282     -0.000005
     12.30431      4.10144      9.57002        -0.001290     -0.001647      0.002358
     10.93716      2.73429      8.20287        -0.000614      0.001835     -0.002375
     12.30431      6.83573     12.30431         0.000022     -0.000230      0.000022
     10.93716      5.46858     10.93716        -0.000344      0.000244     -0.000344
     12.30431      9.57002     15.03860        -0.000019     -0.000250      0.000020
     10.93716      8.20287     13.67145         0.000009      0.000159     -0.000021
     12.30431     12.30431     17.77289         0.000338     -0.000504      0.000344
     10.93716     10.93716     16.40574        -0.000008      0.000408     -0.000023
      6.83573      6.83573      1.36715        -0.000174      0.000065      0.000471
      5.46858      5.46858      0.00000         0.000174     -0.000065     -0.000471
      6.83573      9.57002      4.10144        -0.000623      0.001932      0.000202
      5.46858      8.20287      2.73429         0.000290      0.000049      0.000428
      6.83573     12.30431      6.83573        -0.000157      0.001594     -0.000157
      5.46858     10.93716      5.46858         0.000157     -0.001594      0.000157
      6.83573     15.03860      9.57002        -0.000290     -0.000049     -0.000428
      5.46858     13.67145      8.20287         0.000623     -0.001932     -0.000202
      9.57002      6.83573      4.10144        -0.000682      0.000158      0.000013
      8.20287      5.46858      2.73429         0.000229     -0.000007     -0.000310
      9.57002      9.57002      6.83573         0.000277     -0.000260      0.000128
      8.20287      8.20287      5.46858        -0.000289      0.000203     -0.000190
      9.57002     12.30431      9.57002        -0.000036     -0.000232     -0.000036
      8.20287     10.93716      8.20287        -0.000170      0.000204     -0.000170
      9.57002     15.03860     12.30431         0.000021     -0.000159     -0.000009
      8.20287     13.67145     10.93716        -0.000020      0.000250      0.000019
     12.30431      6.83573      6.83573        -0.000158     -0.000086      0.000450
     10.93716      5.46858      5.46858         0.000158      0.000086     -0.000450
     12.30431      9.57002      9.57002        -0.000011     -0.000200      0.000025
     10.93716      8.20287      8.20287        -0.000145      0.000039     -0.000082
     12.30431     12.30431     12.30431         0.000024     -0.000219      0.000024
     10.93716     10.93716     10.93716        -0.000024      0.000219     -0.000024
     12.30431     15.03860     15.03860         0.000145     -0.000039      0.000082
     10.93716     13.67145     13.67145         0.000011      0.000200     -0.000025
     15.03860      6.83573      9.57002        -0.000229      0.000007      0.000310
     13.67145      5.46858      8.20287         0.000682     -0.000158     -0.000013
     15.03860      9.57002     12.30431         0.000020     -0.000250     -0.000019
     13.67145      8.20287     10.93716        -0.000021      0.000159      0.000009
     15.03860     12.30431     15.03860         0.000170     -0.000204      0.000170
     13.67145     10.93716     13.67145         0.000036      0.000232      0.000036
     15.03860     15.03860     17.77289         0.000289     -0.000203      0.000190
     13.67145     13.67145     16.40574        -0.000277      0.000260     -0.000128
      9.57002      9.57002      1.36715         0.017915      0.030975     -0.020921
      8.20287      8.20287      0.00000         0.001823      0.001357     -0.000473
      9.57002     12.30431      4.10144        -0.001283      0.004664      0.000602
      8.20287     10.93716      2.73429        -0.000602     -0.004664      0.001283
      9.57002     15.03860      6.83573        -0.000428     -0.000049     -0.000290
      8.20287     13.67145      5.46858        -0.000202     -0.001932      0.000623
      9.57002     17.77289      9.57002        -0.000494     -0.000121     -0.000494
      8.20287     16.40574      8.20287         0.000595      0.000296      0.000595
     12.30431      9.57002      4.10144         0.000614     -0.001835      0.002375
     10.93716      8.20287      2.73429         0.001290      0.001647     -0.002358
     12.30431     12.30431      6.83573         0.000008     -0.000408      0.000023
     10.93716     10.93716      5.46858        -0.000338      0.000504     -0.000344
     12.30431     15.03860      9.57002        -0.000009     -0.000159      0.000021
     10.93716     13.67145      8.20287         0.000019      0.000250     -0.000020
     12.30431     17.77289     12.30431         0.000344     -0.000244      0.000344
     10.93716     16.40574     10.93716        -0.000022      0.000230     -0.000022
     15.03860      9.57002      6.83573        -0.000430     -0.000182      0.000367
     13.67145      8.20287      5.46858        -0.000200     -0.000104      0.000045
     15.03860     12.30431      9.57002        -0.000034     -0.000282      0.000005
     13.67145     10.93716      8.20287        -0.000005      0.000282      0.000034
     15.03860     15.03860     12.30431         0.000082     -0.000039      0.000145
     13.67145     13.67145     10.93716        -0.000025      0.000200      0.000011
     15.03860     17.77289     15.03860         0.000131     -0.000145      0.000131
     13.67145     16.40574     13.67145        -0.000187      0.000111     -0.000187
     17.77289      9.57002      9.57002        -0.000547     -0.000353      0.000617
     16.40574      8.20287      8.20287         0.000535      0.000355     -0.000658
     17.77289     12.30431     12.30431         0.000344     -0.000504      0.000338
     16.40574     10.93716     10.93716        -0.000023      0.000408     -0.000008
     17.77289     15.03860     15.03860         0.000190     -0.000203      0.000289
     16.40574     13.67145     13.67145        -0.000128      0.000260     -0.000277
     17.77289     17.77289     17.77289         0.000019     -0.000203      0.000019
     16.40574     16.40574     16.40574        -0.000387      0.000354     -0.000387
 -----------------------------------------------------------------------------------
    total drift:                                0.000000     -0.000001      0.000001


--------------------------------------------------------------------------------------------------------



  FREE ENERGIE OF THE ION-ELECTRON SYSTEM (eV)
  ---------------------------------------------------
  free  energy   TOTEN  =      -682.56786648 eV

  energy  without entropy=     -682.56786648  energy(sigma->0) =     -682.56786648
 


--------------------------------------------------------------------------------------------------------


    POTLOK:  cpu time    0.5052: real time    0.5064


--------------------------------------------------------------------------------------------------------


     LOOP+:  cpu time  122.3270: real time  122.6500
    4ORBIT:  cpu time    0.0000: real time    0.0000

 total amount of memory used by VASP MPI-rank0   118934. kBytes
=======================================================================

   base      :      30000. kBytes
   nonl-proj :       7011. kBytes
   fftplans  :      53058. kBytes
   grid      :      20148. kBytes
   one-center:         21. kBytes
   wavefun   :       8696. kBytes
 
  
  
 General timing and accounting informations for this job:
 ========================================================
  
                  Total CPU time used (sec):      130.116
                            User time (sec):      128.224
                          System time (sec):        1.892
                         Elapsed time (sec):      130.511
  
                   Maximum memory used (kb):      241816.
                   Average memory used (kb):           0.
  
                          Minor page faults:        78787
                          Major page faults:            0
                 Voluntary context switches:          418
