Se Sn Se Sn Se Sn Se Sn Se Sn Se Sn Se Sn Se Sn Se Sn Se Sn Se Sn Se Sn Se Sn Se Sn Se Sn Se Sn Se Sn Se Sn Se Sn Se Sn Se Sn Se Sn Se Sn Se Sn Se Sn Se Sn Se Sn Se Sn Se Sn Se Sn Se Sn Se Sn
 1.0000000000000000
    23.0322828400000006    0.0000000000000000    0.0000000000000000
     0.0000000000000000   16.6963565600000052    0.0000000000000000
     0.0000000000000000    0.0000000000000000   17.4444155199999997
 Se  Sn  Se  Sn  Se  Sn  Se  Sn  Se  Sn  Se  Sn  Se  Sn  Se  Sn  Se  Sn  Se  Sn  Se  Sn  Se  Sn  Se  Sn  Se  Sn  Se  Sn  Se  Sn  Se  Sn  Se  Sn  Se  Sn  Se  Sn  Se  Sn  Se  Sn  Se  Sn  Se  Sn  Se  Sn  Se  Sn  Se  Sn  Se  Sn  Se  Sn  Se  Sn  Se  Sn  Se  Sn 
   4   4   4   4   4   4   4   4   4   4   4   4   4   4   4   4   4   4   4   4   4   4   4   4   4   4   4   4   4   4   4   4   4   4   4   4   4   4   4   4   4   4   4   4   4   4   4   4   4   4   4   4   4   4   4   4   4   4   4   4   4   4   4   4
Direct
  0.1787329400000000  0.0625000000000000  0.0060683300000000
  0.3212670600000000  0.1875000000000000  0.2439316700000000
  0.0712670600000000  0.1875000000000000  0.1310683300000000
  0.4287329400000000  0.0625000000000000  0.1189316700000000
  0.3093355250000000  0.0625000000000000  0.1021563400000000
  0.1906644750000000  0.1875000000000000  0.1478436600000000
  0.4406644750000001  0.1875000000000000  0.2271563400000000
  0.0593355250000000  0.0625000000000000  0.0228436600000000
  0.1787329400000000  0.0625000000000000  0.2560683300000000
  0.3212670600000000  0.1875000000000000  0.4939316700000000
  0.0712670600000000  0.1875000000000000  0.3810683300000000
  0.4287329400000000  0.0625000000000000  0.3689316700000000
  0.3093355250000000  0.0625000000000000  0.3521563400000000
  0.1906644750000000  0.1875000000000000  0.3978436600000000
  0.4406644750000001  0.1875000000000000  0.4771563400000000
  0.0593355250000000  0.0625000000000000  0.2728436600000000
  0.1787329400000000  0.0625000000000000  0.5060683300000000
  0.3212670600000000  0.1875000000000000  0.7439316699999999
  0.0712670600000000  0.1875000000000000  0.6310683300000000
  0.4287329400000000  0.0625000000000000  0.6189316700000000
  0.3093355250000000  0.0625000000000000  0.6021563400000000
  0.1906644750000000  0.1875000000000000  0.6478436599999999
  0.4406644750000001  0.1875000000000000  0.7271563400000000
  0.0593355250000000  0.0625000000000000  0.5228436599999999
  0.1787329400000000  0.0625000000000000  0.7560683300000000
  0.3212670600000000  0.1875000000000000  0.9939316700000000
  0.0712670600000000  0.1875000000000000  0.8810683300000001
  0.4287329400000000  0.0625000000000000  0.8689316700000000
  0.3093355250000000  0.0625000000000000  0.8521563400000000
  0.1906644750000000  0.1875000000000000  0.8978436599999999
  0.4406644750000001  0.1875000000000000  0.9771563400000001
  0.0593355250000000  0.0625000000000000  0.7728436599999999
  0.1787329400000000  0.3125000000000000  0.0060683300000000
  0.3212670600000000  0.4375000000000001  0.2439316700000000
  0.0712670600000000  0.4375000000000001  0.1310683300000000
  0.4287329400000000  0.3125000000000000  0.1189316700000000
  0.3093355250000000  0.3125000000000000  0.1021563400000000
  0.1906644750000000  0.4375000000000001  0.1478436600000000
  0.4406644750000001  0.4375000000000001  0.2271563400000000
  0.0593355250000000  0.3125000000000000  0.0228436600000000
  0.1787329400000000  0.3125000000000000  0.2560683300000000
  0.3212670600000000  0.4375000000000001  0.4939316700000000
  0.0712670600000000  0.4375000000000001  0.3810683300000000
  0.4287329400000000  0.3125000000000000  0.3689316700000000
  0.3093355250000000  0.3125000000000000  0.3521563400000000
  0.1906644750000000  0.4375000000000001  0.3978436600000000
  0.4406644750000001  0.4375000000000001  0.4771563400000000
  0.0593355250000000  0.3125000000000000  0.2728436600000000
  0.1787329400000000  0.3125000000000000  0.5060683300000000
  0.3212670600000000  0.4375000000000001  0.7439316699999999
  0.0712670600000000  0.4375000000000001  0.6310683300000000
  0.4287329400000000  0.3125000000000000  0.6189316700000000
  0.3093355250000000  0.3125000000000000  0.6021563400000000
  0.1906644750000000  0.4375000000000001  0.6478436599999999
  0.4406644750000001  0.4375000000000001  0.7271563400000000
  0.0593355250000000  0.3125000000000000  0.5228436599999999
  0.1787329400000000  0.3125000000000000  0.7560683300000000
  0.3212670600000000  0.4375000000000001  0.9939316700000000
  0.0712670600000000  0.4375000000000001  0.8810683300000001
  0.4287329400000000  0.3125000000000000  0.8689316700000000
  0.3093355250000000  0.3125000000000000  0.8521563400000000
  0.1906644750000000  0.4375000000000001  0.8978436599999999
  0.4406644750000001  0.4375000000000001  0.9771563400000001
  0.0593355250000000  0.3125000000000000  0.7728436599999999
  0.1787329400000000  0.5625000000000000  0.0060683300000000
  0.3212670600000000  0.6875000000000000  0.2439316700000000
  0.0712670600000000  0.6875000000000000  0.1310683300000000
  0.4287329400000000  0.5625000000000000  0.1189316700000000
  0.3093355250000000  0.5625000000000000  0.1021563400000000
  0.1906644750000000  0.6875000000000000  0.1478436600000000
  0.4406644750000001  0.6875000000000000  0.2271563400000000
  0.0593355250000000  0.5625000000000000  0.0228436600000000
  0.1787329400000000  0.5625000000000000  0.2560683300000000
  0.3212670600000000  0.6875000000000000  0.4939316700000000
  0.0712670600000000  0.6875000000000000  0.3810683300000000
  0.4287329400000000  0.5625000000000000  0.3689316700000000
  0.3093355250000000  0.5625000000000000  0.3521563400000000
  0.1906644750000000  0.6875000000000000  0.3978436600000000
  0.4406644750000001  0.6875000000000000  0.4771563400000000
  0.0593355250000000  0.5625000000000000  0.2728436600000000
  0.1787329400000000  0.5625000000000000  0.5060683300000000
  0.3212670600000000  0.6875000000000000  0.7439316699999999
  0.0712670600000000  0.6875000000000000  0.6310683300000000
  0.4287329400000000  0.5625000000000000  0.6189316700000000
  0.3093355250000000  0.5625000000000000  0.6021563400000000
  0.1906644750000000  0.6875000000000000  0.6478436599999999
  0.4406644750000001  0.6875000000000000  0.7271563400000000
  0.0593355250000000  0.5625000000000000  0.5228436599999999
  0.1787329400000000  0.5625000000000000  0.7560683300000000
  0.3212670600000000  0.6875000000000000  0.9939316700000000
  0.0712670600000000  0.6875000000000000  0.8810683300000001
  0.4287329400000000  0.5625000000000000  0.8689316700000000
  0.3093355250000000  0.5625000000000000  0.8521563400000000
  0.1906644750000000  0.6875000000000000  0.8978436599999999
  0.4406644750000001  0.6875000000000000  0.9771563400000001
  0.0593355250000000  0.5625000000000000  0.7728436599999999
  0.1787329400000000  0.8125000000000000  0.0060683300000000
  0.3212670600000000  0.9375000000000000  0.2439316700000000
  0.0712670600000000  0.9375000000000000  0.1310683300000000
  0.4287329400000000  0.8125000000000000  0.1189316700000000
  0.3093355250000000  0.8125000000000000  0.1021563400000000
  0.1906644750000000  0.9375000000000000  0.1478436600000000
  0.4406644750000001  0.9375000000000000  0.2271563400000000
  0.0593355250000000  0.8125000000000000  0.0228436600000000
  0.1787329400000000  0.8125000000000000  0.2560683300000000
  0.3212670600000000  0.9375000000000000  0.4939316700000000
  0.0712670600000000  0.9375000000000000  0.3810683300000000
  0.4287329400000000  0.8125000000000000  0.3689316700000000
  0.3093355250000000  0.8125000000000000  0.3521563400000000
  0.1906644750000000  0.9375000000000000  0.3978436600000000
  0.4406644750000001  0.9375000000000000  0.4771563400000000
  0.0593355250000000  0.8125000000000000  0.2728436600000000
  0.1787329400000000  0.8125000000000000  0.5060683300000000
  0.3212670600000000  0.9375000000000000  0.7439316699999999
  0.0712670600000000  0.9375000000000000  0.6310683300000000
  0.4287329400000000  0.8125000000000000  0.6189316700000000
  0.3093355250000000  0.8125000000000000  0.6021563400000000
  0.1906644750000000  0.9375000000000000  0.6478436599999999
  0.4406644750000001  0.9375000000000000  0.7271563400000000
  0.0593355250000000  0.8125000000000000  0.5228436599999999
  0.1787329400000000  0.8125000000000000  0.7560683300000000
  0.3212670600000000  0.9375000000000000  0.9939316700000000
  0.0712670600000000  0.9375000000000000  0.8810683300000001
  0.4287329400000000  0.8125000000000000  0.8689316700000000
  0.3093355250000000  0.8125000000000000  0.8521563400000000
  0.1906644750000000  0.9375000000000000  0.8978436599999999
  0.4406644750000001  0.9375000000000000  0.9771563400000001
  0.0593355250000000  0.8125000000000000  0.7728436599999999
  0.6787329400000000  0.0625000000000000  0.0060683300000000
  0.8212670599999999  0.1875000000000000  0.2439316700000000
  0.5712670600000000  0.1875000000000000  0.1310683300000000
  0.9287329400000000  0.0625000000000000  0.1189316700000000
  0.8093355250000001  0.0625000000000000  0.1021563400000000
  0.6906644749999999  0.1875000000000000  0.1478436600000000
  0.9406644750000001  0.1875000000000000  0.2271563400000000
  0.5593355249999999  0.0625000000000000  0.0228436600000000
  0.6787329400000000  0.0625000000000000  0.2560683300000000
  0.8212670599999999  0.1875000000000000  0.4939316700000000
  0.5712670600000000  0.1875000000000000  0.3810683300000000
  0.9287329400000000  0.0625000000000000  0.3689316700000000
  0.8093355250000001  0.0625000000000000  0.3521563400000000
  0.6906644749999999  0.1875000000000000  0.3978436600000000
  0.9406644750000001  0.1875000000000000  0.4771563400000000
  0.5593355249999999  0.0625000000000000  0.2728436600000000
  0.6787329400000000  0.0625000000000000  0.5060683300000000
  0.8212670599999999  0.1875000000000000  0.7439316699999999
  0.5712670600000000  0.1875000000000000  0.6310683300000000
  0.9287329400000000  0.0625000000000000  0.6189316700000000
  0.8093355250000001  0.0625000000000000  0.6021563400000000
  0.6906644749999999  0.1875000000000000  0.6478436599999999
  0.9406644750000001  0.1875000000000000  0.7271563400000000
  0.5593355249999999  0.0625000000000000  0.5228436599999999
  0.6787329400000000  0.0625000000000000  0.7560683300000000
  0.8212670599999999  0.1875000000000000  0.9939316700000000
  0.5712670600000000  0.1875000000000000  0.8810683300000001
  0.9287329400000000  0.0625000000000000  0.8689316700000000
  0.8093355250000001  0.0625000000000000  0.8521563400000000
  0.6906644749999999  0.1875000000000000  0.8978436599999999
  0.9406644750000001  0.1875000000000000  0.9771563400000001
  0.5593355249999999  0.0625000000000000  0.7728436599999999
  0.6787329400000000  0.3125000000000000  0.0060683300000000
  0.8212670599999999  0.4375000000000001  0.2439316700000000
  0.5712670600000000  0.4375000000000001  0.1310683300000000
  0.9287329400000000  0.3125000000000000  0.1189316700000000
  0.8093355250000001  0.3125000000000000  0.1021563400000000
  0.6906644749999999  0.4375000000000001  0.1478436600000000
  0.9406644750000001  0.4375000000000001  0.2271563400000000
  0.5593355249999999  0.3125000000000000  0.0228436600000000
  0.6787329400000000  0.3125000000000000  0.2560683300000000
  0.8212670599999999  0.4375000000000001  0.4939316700000000
  0.5712670600000000  0.4375000000000001  0.3810683300000000
  0.9287329400000000  0.3125000000000000  0.3689316700000000
  0.8093355250000001  0.3125000000000000  0.3521563400000000
  0.6906644749999999  0.4375000000000001  0.3978436600000000
  0.9406644750000001  0.4375000000000001  0.4771563400000000
  0.5593355249999999  0.3125000000000000  0.2728436600000000
  0.6787329400000000  0.3125000000000000  0.5060683300000000
  0.8212670599999999  0.4375000000000001  0.7439316699999999
  0.5712670600000000  0.4375000000000001  0.6310683300000000
  0.9287329400000000  0.3125000000000000  0.6189316700000000
  0.8093355250000001  0.3125000000000000  0.6021563400000000
  0.6906644749999999  0.4375000000000001  0.6478436599999999
  0.9406644750000001  0.4375000000000001  0.7271563400000000
  0.5593355249999999  0.3125000000000000  0.5228436599999999
  0.6787329400000000  0.3125000000000000  0.7560683300000000
  0.8212670599999999  0.4375000000000001  0.9939316700000000
  0.5712670600000000  0.4375000000000001  0.8810683300000001
  0.9287329400000000  0.3125000000000000  0.8689316700000000
  0.8093355250000001  0.3125000000000000  0.8521563400000000
  0.6906644749999999  0.4375000000000001  0.8978436599999999
  0.9406644750000001  0.4375000000000001  0.9771563400000001
  0.5593355249999999  0.3125000000000000  0.7728436599999999
  0.6787329400000000  0.5625000000000000  0.0060683300000000
  0.8212670599999999  0.6875000000000000  0.2439316700000000
  0.5712670600000000  0.6875000000000000  0.1310683300000000
  0.9287329400000000  0.5625000000000000  0.1189316700000000
  0.8093355250000001  0.5625000000000000  0.1021563400000000
  0.6906644749999999  0.6875000000000000  0.1478436600000000
  0.9406644750000001  0.6875000000000000  0.2271563400000000
  0.5593355249999999  0.5625000000000000  0.0228436600000000
  0.6787329400000000  0.5625000000000000  0.2560683300000000
  0.8212670599999999  0.6875000000000000  0.4939316700000000
  0.5712670600000000  0.6875000000000000  0.3810683300000000
  0.9287329400000000  0.5625000000000000  0.3689316700000000
  0.8093355250000001  0.5625000000000000  0.3521563400000000
  0.6906644749999999  0.6875000000000000  0.3978436600000000
  0.9406644750000001  0.6875000000000000  0.4771563400000000
  0.5593355249999999  0.5625000000000000  0.2728436600000000
  0.6787329400000000  0.5625000000000000  0.5060683300000000
  0.8212670599999999  0.6875000000000000  0.7439316699999999
  0.5712670600000000  0.6875000000000000  0.6310683300000000
  0.9287329400000000  0.5625000000000000  0.6189316700000000
  0.8093355250000001  0.5625000000000000  0.6021563400000000
  0.6906644749999999  0.6875000000000000  0.6478436599999999
  0.9406644750000001  0.6875000000000000  0.7271563400000000
  0.5593355249999999  0.5625000000000000  0.5228436599999999
  0.6787329400000000  0.5625000000000000  0.7560683300000000
  0.8212670599999999  0.6875000000000000  0.9939316700000000
  0.5712670600000000  0.6875000000000000  0.8810683300000001
  0.9287329400000000  0.5625000000000000  0.8689316700000000
  0.8093355250000001  0.5625000000000000  0.8521563400000000
  0.6906644749999999  0.6875000000000000  0.8978436599999999
  0.9406644750000001  0.6875000000000000  0.9771563400000001
  0.5593355249999999  0.5625000000000000  0.7728436599999999
  0.6787329400000000  0.8125000000000000  0.0060683300000000
  0.8212670599999999  0.9375000000000000  0.2439316700000000
  0.5712670600000000  0.9375000000000000  0.1310683300000000
  0.9287329400000000  0.8125000000000000  0.1189316700000000
  0.8093355250000001  0.8125000000000000  0.1021563400000000
  0.6906644749999999  0.9375000000000000  0.1478436600000000
  0.9406644750000001  0.9375000000000000  0.2271563400000000
  0.5593355249999999  0.8125000000000000  0.0228436600000000
  0.6787329400000000  0.8125000000000000  0.2560683300000000
  0.8212670599999999  0.9375000000000000  0.4939316700000000
  0.5712670600000000  0.9375000000000000  0.3810683300000000
  0.9287329400000000  0.8125000000000000  0.3689316700000000
  0.8093355250000001  0.8125000000000000  0.3521563400000000
  0.6906644749999999  0.9375000000000000  0.3978436600000000
  0.9406644750000001  0.9375000000000000  0.4771563400000000
  0.5593355249999999  0.8125000000000000  0.2728436600000000
  0.6787329400000000  0.8125000000000000  0.5060683300000000
  0.8212670599999999  0.9375000000000000  0.7439316699999999
  0.5712670600000000  0.9375000000000000  0.6310683300000000
  0.9287329400000000  0.8125000000000000  0.6189316700000000
  0.8093355250000001  0.8125000000000000  0.6021563400000000
  0.6906644749999999  0.9375000000000000  0.6478436599999999
  0.9406644750000001  0.9375000000000000  0.7271563400000000
  0.5593355249999999  0.8125000000000000  0.5228436599999999
  0.6787329400000000  0.8125000000000000  0.7560683300000000
  0.8212670599999999  0.9375000000000000  0.9939316700000000
  0.5712670600000000  0.9375000000000000  0.8810683300000001
  0.9287329400000000  0.8125000000000000  0.8689316700000000
  0.8093355250000001  0.8125000000000000  0.8521563400000000
  0.6906644749999999  0.9375000000000000  0.8978436599999999
  0.9406644750000001  0.9375000000000000  0.9771563400000001
  0.5593355249999999  0.8125000000000000  0.7728436599999999
