 vasp.5.4.4.18Apr17-6-g9f103f2a35 (build Aug 16 2020 16:33:06) complex          
  
 executed on             LinuxIFC date 2026.08.15  14:47:47
 running on   40 total cores
 distrk:  each k-point on   40 cores,    1 groups
 distr:  one band on NCORES_PER_BAND=  20 cores,    2 groups


--------------------------------------------------------------------------------------------------------


 INCAR:
 POTCAR:   PAW_PBE Si 05Jan2001                   

 ----------------------------------------------------------------------------- 
|                                                                             |
|           W    W    AA    RRRRR   N    N  II  N    N   GGGG   !!!           |
|           W    W   A  A   R    R  NN   N  II  NN   N  G    G  !!!           |
|           W    W  A    A  R    R  N N  N  II  N N  N  G       !!!           |
|           W WW W  AAAAAA  RRRRR   N  N N  II  N  N N  G  GGG   !            |
|           WW  WW  A    A  R   R   N   NN  II  N   NN  G    G                |
|           W    W  A    A  R    R  N    N  II  N    N   GGGG   !!!           |
|                                                                             |
|      For optimal performance we recommend to set                            |
|        NCORE= 4 - approx SQRT( number of cores)                             |
|      NCORE specifies how many cores store one orbital (NPAR=cpu/NCORE).     |
|      This setting can  greatly improve the performance of VASP for DFT.     |
|      The default,   NCORE=1            might be grossly inefficient         |
|      on modern multi-core architectures or massively parallel machines.     |
|      Do your own testing !!!!                                               |
|      Unfortunately you need to use the default for GW and RPA calculations. |
|      (for HF NCORE is supported but not extensively tested yet)             |
|                                                                             |
 ----------------------------------------------------------------------------- 

 POTCAR:   PAW_PBE Si 05Jan2001                   
   VRHFIN =Si: s2p2                                                             
   LEXCH  = PE                                                                  
   EATOM  =   103.0669 eV,    7.5752 Ry                                         
                                                                                
   TITEL  = PAW_PBE Si 05Jan2001                                                
   LULTRA =        F    use ultrasoft PP ?                                      
   IUNSCR =        1    unscreen: 0-lin 1-nonlin 2-no                           
   RPACOR =    1.500    partial core radius                                     
   POMASS =   28.085; ZVAL   =    4.000    mass and valenz                      
   RCORE  =    1.900    outmost cutoff radius                                   
   RWIGS  =    2.480; RWIGS  =    1.312    wigner-seitz radius (au A)           
   ENMAX  =  245.345; ENMIN  =  184.009 eV                                      
   ICORE  =        2    local potential                                         
   LCOR   =        T    correct aug charges                                     
   LPAW   =        T    paw PP                                                  
   EAUG   =  322.069                                                            
   DEXC   =    -.007                                                            
   RMAX   =    2.944    core radius for proj-oper                               
   RAUG   =    1.300    factor for augmentation sphere                          
   RDEP   =    1.993    radius for radial grids                                 
   QCUT   =   -4.246; QGAM   =    8.493    optimization parameters              
                                                                                
   Description                                                                  
     l     E      TYP  RCUT    TYP  RCUT                                        
     0   .000     23  1.900                                                     
     0   .000     23  1.900                                                     
     1   .000     23  1.900                                                     
     1   .000     23  1.900                                                     
     2   .000      7  1.900                                                     
  local pseudopotential read in
  partial core-charges read in
  atomic valenz-charges read in
  non local Contribution for L=           0  read in
    real space projection operators read in
  non local Contribution for L=           0  read in
    real space projection operators read in
  non local Contribution for L=           1  read in
    real space projection operators read in
  non local Contribution for L=           1  read in
    real space projection operators read in
    PAW grid and wavefunctions read in
 
   number of l-projection  operators is LMAX  =           4
   number of lm-projection operators is LMMAX =           8
 

 ----------------------------------------------------------------------------- 
|                                                                             |
|  ADVICE TO THIS USER RUNNING 'VASP/VAMP'   (HEAR YOUR MASTER'S VOICE ...):  |
|                                                                             |
|      You have a (more or less) 'large supercell' and for larger cells       |
|      it might be more efficient to use real space projection operators      |
|      So try LREAL= Auto  in the INCAR   file.                               |
|      Mind: If you want to do a very accurate calculations keep the          |
|      reciprocal projection scheme          (i.e. LREAL=.FALSE.)             |
|                                                                             |
 ----------------------------------------------------------------------------- 

 PAW_PBE Si 05Jan2001                   :
 energy of atom  1       EATOM= -103.0669
 kinetic energy error for atom=    0.0006 (will be added to EATOM!!)
 
 
 POSCAR: Si                                      
  positions in direct lattice
  No initial velocities read in
 exchange correlation table for  LEXCH =        8
   RHO(1)=    0.500       N(1)  =     2000
   RHO(2)=  100.500       N(2)  =     4000
 


--------------------------------------------------------------------------------------------------------


 ion  position               nearest neighbor table
   1  0.062  0.063  0.062-  10 2.36   2 2.36   4 2.37  34 2.37
   2  0.000  0.000  0.000-   1 2.36   7 2.37  25 2.37  97 2.37
   3  0.312  0.063  0.062-  12 2.36   4 2.36   6 2.37  36 2.37
   4  0.250  0.000  0.000-   3 2.36  27 2.37  99 2.37   1 2.37
   5  0.562  0.062  0.062-   6 2.37   8 2.37  14 2.37  38 2.37
   6  0.500  0.000  0.000-   5 2.37  29 2.37 101 2.37   3 2.37
   7  0.812  0.062  0.062-   2 2.37   8 2.37  16 2.37  40 2.37
   8  0.750  0.000  0.000-   5 2.37   7 2.37  31 2.37 103 2.37
   9  0.062  0.312  0.062-  10 2.37  12 2.37  18 2.37  42 2.37
  10  0.000  0.250  0.000-   1 2.36   9 2.37  15 2.37 105 2.37
  11  0.312  0.312  0.062-  12 2.37  14 2.37  20 2.37  44 2.37
  12  0.250  0.250  0.000-   3 2.36   9 2.37  11 2.37 107 2.37
  13  0.562  0.312  0.062-  14 2.37  16 2.37  22 2.37  46 2.37
  14  0.500  0.250  0.000-   5 2.37  11 2.37  13 2.37 109 2.37
  15  0.812  0.312  0.062-  10 2.37  16 2.37  24 2.37  48 2.37
  16  0.750  0.250  0.000-   7 2.37  13 2.37  15 2.37 111 2.37
  17  0.062  0.562  0.062-  18 2.37  20 2.37  26 2.37  50 2.37
  18  0.000  0.500  0.000-   9 2.37  17 2.37  23 2.37 113 2.37
  19  0.312  0.562  0.062-  20 2.37  22 2.37  28 2.37  52 2.37
  20  0.250  0.500  0.000-  11 2.37  17 2.37  19 2.37 115 2.37
  21  0.562  0.562  0.062-  22 2.37  24 2.37  30 2.37  54 2.37
  22  0.500  0.500  0.000-  13 2.37  19 2.37  21 2.37 117 2.37
  23  0.812  0.562  0.062-  18 2.37  24 2.37  32 2.37  56 2.37
  24  0.750  0.500  0.000-  15 2.37  21 2.37  23 2.37 119 2.37
  25  0.062  0.812  0.062-   2 2.37  26 2.37  28 2.37  58 2.37
  26  0.000  0.750  0.000-  17 2.37  25 2.37  31 2.37 121 2.37
  27  0.312  0.812  0.062-   4 2.37  28 2.37  30 2.37  60 2.37
  28  0.250  0.750  0.000-  19 2.37  25 2.37  27 2.37 123 2.37
  29  0.562  0.812  0.062-   6 2.37  30 2.37  32 2.37  62 2.37
  30  0.500  0.750  0.000-  21 2.37  27 2.37  29 2.37 125 2.37
  31  0.812  0.812  0.062-   8 2.37  26 2.37  32 2.37  64 2.37
  32  0.750  0.750  0.000-  23 2.37  29 2.37  31 2.37 127 2.37
  33  0.062  0.062  0.312-  34 2.37  36 2.37  42 2.37  66 2.37
  34  0.000  0.000  0.250-  33 2.37  39 2.37  57 2.37   1 2.37
  35  0.312  0.062  0.312-  36 2.37  38 2.37  44 2.37  68 2.37
  36  0.250  0.000  0.250-  33 2.37  35 2.37  59 2.37   3 2.37
  37  0.562  0.062  0.312-  38 2.37  40 2.37  46 2.37  70 2.37
  38  0.500  0.000  0.250-   5 2.37  35 2.37  37 2.37  61 2.37
  39  0.812  0.062  0.312-  34 2.37  40 2.37  48 2.37  72 2.37
  40  0.750  0.000  0.250-   7 2.37  37 2.37  39 2.37  63 2.37
  41  0.062  0.312  0.312-  42 2.37  44 2.37  50 2.37  74 2.37
  42  0.000  0.250  0.250-   9 2.37  33 2.37  41 2.37  47 2.37
  43  0.312  0.312  0.312-  44 2.37  46 2.37  52 2.37  76 2.37
  44  0.250  0.250  0.250-  11 2.37  35 2.37  41 2.37  43 2.37
  45  0.562  0.312  0.312-  46 2.37  48 2.37  54 2.37  78 2.37
  46  0.500  0.250  0.250-  13 2.37  37 2.37  43 2.37  45 2.37
  47  0.812  0.312  0.312-  42 2.37  48 2.37  56 2.37  80 2.37
  48  0.750  0.250  0.250-  15 2.37  39 2.37  45 2.37  47 2.37
  49  0.062  0.562  0.312-  50 2.37  52 2.37  58 2.37  82 2.37
  50  0.000  0.500  0.250-  17 2.37  41 2.37  49 2.37  55 2.37
  51  0.312  0.562  0.312-  52 2.37  54 2.37  60 2.37  84 2.37
  52  0.250  0.500  0.250-  19 2.37  43 2.37  49 2.37  51 2.37
  53  0.562  0.562  0.312-  54 2.37  56 2.37  62 2.37  86 2.37
  54  0.500  0.500  0.250-  21 2.37  45 2.37  51 2.37  53 2.37
  55  0.812  0.562  0.312-  50 2.37  56 2.37  64 2.37  88 2.37
  56  0.750  0.500  0.250-  23 2.37  47 2.37  53 2.37  55 2.37
  57  0.062  0.812  0.312-  34 2.37  58 2.37  60 2.37  90 2.37
  58  0.000  0.750  0.250-  25 2.37  49 2.37  57 2.37  63 2.37
  59  0.312  0.812  0.312-  36 2.37  60 2.37  62 2.37  92 2.37
  60  0.250  0.750  0.250-  27 2.37  51 2.37  57 2.37  59 2.37
  61  0.562  0.812  0.312-  38 2.37  62 2.37  64 2.37  94 2.37
  62  0.500  0.750  0.250-  29 2.37  53 2.37  59 2.37  61 2.37
  63  0.812  0.812  0.312-  40 2.37  58 2.37  64 2.37  96 2.37
  64  0.750  0.750  0.250-  31 2.37  55 2.37  61 2.37  63 2.37
  65  0.062  0.062  0.562-  66 2.37  68 2.37  74 2.37  98 2.37
  66  0.000  0.000  0.500-  33 2.37  65 2.37  71 2.37  89 2.37
  67  0.312  0.062  0.562-  68 2.37  70 2.37  76 2.37 100 2.37
  68  0.250  0.000  0.500-  35 2.37  65 2.37  67 2.37  91 2.37
  69  0.562  0.062  0.562-  70 2.37  72 2.37  78 2.37 102 2.37
  70  0.500  0.000  0.500-  37 2.37  67 2.37  69 2.37  93 2.37
  71  0.812  0.062  0.562-  66 2.37  72 2.37  80 2.37 104 2.37
  72  0.750  0.000  0.500-  39 2.37  69 2.37  71 2.37  95 2.37
  73  0.062  0.312  0.562-  74 2.37  76 2.37  82 2.37 106 2.37
  74  0.000  0.250  0.500-  41 2.37  65 2.37  73 2.37  79 2.37
  75  0.312  0.312  0.562-  76 2.37  78 2.37  84 2.37 108 2.37
  76  0.250  0.250  0.500-  43 2.37  67 2.37  73 2.37  75 2.37
  77  0.562  0.312  0.562-  78 2.37  80 2.37  86 2.37 110 2.37
  78  0.500  0.250  0.500-  45 2.37  69 2.37  75 2.37  77 2.37
  79  0.812  0.312  0.562-  74 2.37  80 2.37  88 2.37 112 2.37
  80  0.750  0.250  0.500-  47 2.37  71 2.37  77 2.37  79 2.37
  81  0.062  0.562  0.562-  82 2.37  84 2.37  90 2.37 114 2.37
  82  0.000  0.500  0.500-  49 2.37  73 2.37  81 2.37  87 2.37
  83  0.312  0.562  0.562-  84 2.37  86 2.37  92 2.37 116 2.37
  84  0.250  0.500  0.500-  51 2.37  75 2.37  81 2.37  83 2.37
  85  0.562  0.562  0.562-  86 2.37  88 2.37  94 2.37 118 2.37
  86  0.500  0.500  0.500-  53 2.37  77 2.37  83 2.37  85 2.37
  87  0.812  0.562  0.562-  82 2.37  88 2.37  96 2.37 120 2.37
  88  0.750  0.500  0.500-  55 2.37  79 2.37  85 2.37  87 2.37
  89  0.062  0.812  0.562-  66 2.37  90 2.37  92 2.37 122 2.37
  90  0.000  0.750  0.500-  57 2.37  81 2.37  89 2.37  95 2.37
  91  0.312  0.812  0.562-  68 2.37  92 2.37  94 2.37 124 2.37
  92  0.250  0.750  0.500-  59 2.37  83 2.37  89 2.37  91 2.37
  93  0.562  0.812  0.562-  70 2.37  94 2.37  96 2.37 126 2.37
  94  0.500  0.750  0.500-  61 2.37  85 2.37  91 2.37  93 2.37
  95  0.812  0.812  0.562-  72 2.37  90 2.37  96 2.37 128 2.37
  96  0.750  0.750  0.500-  63 2.37  87 2.37  93 2.37  95 2.37
  97  0.062  0.062  0.812-   2 2.37  98 2.37 100 2.37 106 2.37
  98  0.000  0.000  0.750-  65 2.37  97 2.37 103 2.37 121 2.37
  99  0.312  0.062  0.812-   4 2.37 100 2.37 102 2.37 108 2.37
 100  0.250  0.000  0.750-  67 2.37  97 2.37  99 2.37 123 2.37
 101  0.562  0.062  0.812-   6 2.37 102 2.37 104 2.37 110 2.37
 102  0.500  0.000  0.750-  69 2.37  99 2.37 101 2.37 125 2.37
 103  0.812  0.062  0.812-   8 2.37  98 2.37 104 2.37 112 2.37
 104  0.750  0.000  0.750-  71 2.37 101 2.37 103 2.37 127 2.37
 105  0.062  0.312  0.812-  10 2.37 106 2.37 108 2.37 114 2.37
 106  0.000  0.250  0.750-  73 2.37  97 2.37 105 2.37 111 2.37
 107  0.312  0.312  0.812-  12 2.37 108 2.37 110 2.37 116 2.37
 108  0.250  0.250  0.750-  75 2.37  99 2.37 105 2.37 107 2.37
 109  0.562  0.312  0.812-  14 2.37 110 2.37 112 2.37 118 2.37
 110  0.500  0.250  0.750-  77 2.37 101 2.37 107 2.37 109 2.37
 111  0.812  0.312  0.812-  16 2.37 106 2.37 112 2.37 120 2.37
 112  0.750  0.250  0.750-  79 2.37 103 2.37 109 2.37 111 2.37
 113  0.062  0.562  0.812-  18 2.37 114 2.37 116 2.37 122 2.37
 114  0.000  0.500  0.750-  81 2.37 105 2.37 113 2.37 119 2.37
 115  0.312  0.562  0.812-  20 2.37 116 2.37 118 2.37 124 2.37
 116  0.250  0.500  0.750-  83 2.37 107 2.37 113 2.37 115 2.37
 117  0.562  0.562  0.812-  22 2.37 118 2.37 120 2.37 126 2.37
 118  0.500  0.500  0.750-  85 2.37 109 2.37 115 2.37 117 2.37
 119  0.812  0.562  0.812-  24 2.37 114 2.37 120 2.37 128 2.37
 120  0.750  0.500  0.750-  87 2.37 111 2.37 117 2.37 119 2.37
 121  0.062  0.812  0.812-  26 2.37  98 2.37 122 2.37 124 2.37
 122  0.000  0.750  0.750-  89 2.37 113 2.37 121 2.37 127 2.37
 123  0.312  0.812  0.812-  28 2.37 100 2.37 124 2.37 126 2.37
 124  0.250  0.750  0.750-  91 2.37 115 2.37 121 2.37 123 2.37
 125  0.562  0.812  0.812-  30 2.37 102 2.37 126 2.37 128 2.37
 126  0.500  0.750  0.750-  93 2.37 117 2.37 123 2.37 125 2.37
 127  0.812  0.812  0.812-  32 2.37 104 2.37 122 2.37 128 2.37
 128  0.750  0.750  0.750-  95 2.37 119 2.37 125 2.37 127 2.37
 

IMPORTANT INFORMATION: All symmetrisations will be switched off!
NOSYMM: (Re-)initialisation of all symmetry stuff for point group C_1.

 
 
 KPOINTS: K-Spacing Value to Generate K-Mesh: 0.03

Automatic generation of k-mesh.
Space group operators:
 irot       det(A)        alpha          n_x          n_y          n_z        tau_x        tau_y        tau_z
    1     1.000000     0.000000     1.000000     0.000000     0.000000     0.000000     0.000000     0.000000
 
 Subroutine IBZKPT returns following result:
 ===========================================
 
 Found      1 irreducible k-points:
 
 Following reciprocal coordinates:
            Coordinates               Weight
  0.000000  0.000000  0.000000      1.000000
 
 Following cartesian coordinates:
            Coordinates               Weight
  0.000000  0.000000  0.000000      1.000000
 


--------------------------------------------------------------------------------------------------------




 Dimension of arrays:
   k-points           NKPTS =      1   k-points in BZ     NKDIM =      1   number of bands    NBANDS=    322
   number of dos      NEDOS =    301   number of ions     NIONS =    128
   non local maximal  LDIM  =      4   non local SUM 2l+1 LMDIM =      8
   total plane-waves  NPLWV = ******
   max r-space proj   IRMAX =      1   max aug-charges    IRDMAX= 176819
   dimension x,y,z NGX =   120 NGY =  120 NGZ =  120
   dimension x,y,z NGXF=   240 NGYF=  240 NGZF=  240
   support grid    NGXF=   480 NGYF=  480 NGZF=  480
   ions per type =             128
   NGX,Y,Z   is equivalent  to a cutoff of  12.90, 12.90, 12.90 a.u.
   NGXF,Y,Z  is equivalent  to a cutoff of  25.80, 25.80, 25.80 a.u.

 SYSTEM =  unknown system                          
 POSCAR =  Si                                      

 Startparameter for this run:
   NWRITE =      2    write-flag & timer
   PREC   = accura    normal or accurate (medium, high low for compatibility)
   ISTART =      0    job   : 0-new  1-cont  2-samecut
   ICHARG =      2    charge: 1-file 2-atom 10-const
   ISPIN  =      1    spin polarized calculation?
   LNONCOLLINEAR =      F non collinear calculations
   LSORBIT =      F    spin-orbit coupling
   INIWAV =      1    electr: 0-lowe 1-rand  2-diag
   LASPH  =      F    aspherical Exc in radial PAW
   METAGGA=      F    non-selfconsistent MetaGGA calc.

 Electronic Relaxation 1
   ENCUT  =  500.0 eV  36.75 Ry    6.06 a.u.  28.20 28.20 28.20*2*pi/ulx,y,z
   ENINI  =  500.0     initial cutoff
   ENAUG  =  322.1 eV  augmentation charge cutoff
   NELM   =     60;   NELMIN=  2; NELMDL= -5     # of ELM steps 
   EDIFF  = 0.1E-07   stopping-criterion for ELM
   LREAL  =      F    real-space projection
   NLSPLINE    = F    spline interpolate recip. space projectors
   LCOMPAT=      F    compatible to vasp.4.4
   GGA_COMPAT  = T    GGA compatible to vasp.4.4-vasp.4.6
   LMAXPAW     = -100 max onsite density
   LMAXMIX     =    2 max onsite mixed and CHGCAR
   VOSKOWN=      0    Vosko Wilk Nusair interpolation
   ROPT   =    0.00000
 Ionic relaxation
   EDIFFG = 0.1E-06   stopping-criterion for IOM
   NSW    =      0    number of steps for IOM
   NBLOCK =      1;   KBLOCK =      1    inner block; outer block 
   IBRION =     -1    ionic relax: 0-MD 1-quasi-New 2-CG
   NFREE  =      0    steps in history (QN), initial steepest desc. (CG)
   ISIF   =      2    stress and relaxation
   IWAVPR =     10    prediction:  0-non 1-charg 2-wave 3-comb
   ISYM   =      0    0-nonsym 1-usesym 2-fastsym
   LCORR  =      T    Harris-Foulkes like correction to forces

   POTIM  = 0.5000    time-step for ionic-motion
   TEIN   =    0.0    initial temperature
   TEBEG  =    0.0;   TEEND  =   0.0 temperature during run
   SMASS  =  -3.00    Nose mass-parameter (am)
   estimated Nose-frequenzy (Omega)   =  0.10E-29 period in steps =****** mass=  -0.547E-26a.u.
   SCALEE = 1.0000    scale energy and forces
   NPACO  =    256;   APACO  = 16.0  distance and # of slots for P.C.
   PSTRESS=    0.0 pullay stress

  Mass of Ions in am
   POMASS =  28.09
  Ionic Valenz
   ZVAL   =   4.00
  Atomic Wigner-Seitz radii
   RWIGS  =  -1.00
  virtual crystal weights 
   VCA    =   1.00
   NELECT =     512.0000    total number of electrons
   NUPDOWN=      -1.0000    fix difference up-down

 DOS related values:
   EMIN   =  10.00;   EMAX   =-10.00  energy-range for DOS
   EFERMI =   0.00
   ISMEAR =     0;   SIGMA  =   0.05  broadening in eV -4-tet -1-fermi 0-gaus

 Electronic relaxation 2 (details)
   IALGO  =     38    algorithm
   LDIAG  =      T    sub-space diagonalisation (order eigenvalues)
   LSUBROT=      F    optimize rotation matrix (better conditioning)
   TURBO    =      0    0=normal 1=particle mesh
   IRESTART =      0    0=no restart 2=restart with 2 vectors
   NREBOOT  =      0    no. of reboots
   NMIN     =      0    reboot dimension
   EREF     =   0.00    reference energy to select bands
   IMIX   =      4    mixing-type and parameters
     AMIX     =   0.40;   BMIX     =  1.00
     AMIX_MAG =   1.60;   BMIX_MAG =  1.00
     AMIN     =   0.10
     WC   =   100.;   INIMIX=   1;  MIXPRE=   1;  MAXMIX= -45

 Intra band minimization:
   WEIMIN = 0.0000     energy-eigenvalue tresh-hold
   EBREAK =  0.78E-11  absolut break condition
   DEPER  =   0.30     relativ break condition  

   TIME   =   0.40     timestep for ELM

  volume/ion in A,a.u.               =      20.44       137.95
  Fermi-wavevector in a.u.,A,eV,Ry     =   0.950423  1.796039 12.290193  0.903304
  Thomas-Fermi vector in A             =   2.078798
 
 Write flags
   LWAVE        =      F    write WAVECAR
   LDOWNSAMPLE  =      F    k-point downsampling of WAVECAR
   LCHARG       =      F    write CHGCAR
   LVTOT        =      F    write LOCPOT, total local potential
   LVHAR        =      F    write LOCPOT, Hartree potential only
   LELF         =      F    write electronic localiz. function (ELF)
   LORBIT       =      0    0 simple, 1 ext, 2 COOP (PROOUT), +10 PAW based schemes


 Dipole corrections
   LMONO  =      F    monopole corrections only (constant potential shift)
   LDIPOL =      F    correct potential (dipole corrections)
   IDIPOL =      0    1-x, 2-y, 3-z, 4-all directions 
   EPSILON=  1.0000000 bulk dielectric constant

 Exchange correlation treatment:
   GGA     =    --    GGA type
   LEXCH   =     8    internal setting for exchange type
   VOSKOWN=      0    Vosko Wilk Nusair interpolation
   LHFCALC =     F    Hartree Fock is set to
   LHFONE  =     F    Hartree Fock one center treatment
   AEXX    =    0.0000 exact exchange contribution

 Linear response parameters
   LEPSILON=     F    determine dielectric tensor
   LRPA    =     F    only Hartree local field effects (RPA)
   LNABLA  =     F    use nabla operator in PAW spheres
   LVEL    =     F    velocity operator in full k-point grid
   LINTERFAST=   F  fast interpolation
   KINTER  =     0    interpolate to denser k-point grid
   CSHIFT  =0.1000    complex shift for real part using Kramers Kronig
   OMEGAMAX=  -1.0    maximum frequency
   DEG_THRESHOLD= 0.2000000E-02 threshold for treating states as degnerate
   RTIME   =   -0.100 relaxation time in fs
  (WPLASMAI=    0.000 imaginary part of plasma frequency in eV, 0.658/RTIME)
   DFIELD  = 0.0000000 0.0000000 0.0000000 field for delta impulse in time
 
 Orbital magnetization related:
   ORBITALMAG=     F  switch on orbital magnetization
   LCHIMAG   =     F  perturbation theory with respect to B field
   DQ        =  0.001000  dq finite difference perturbation B field
   LLRAUG    =     F  two centre corrections for induced B field



--------------------------------------------------------------------------------------------------------


 Static calculation
 charge density and potential will be updated during run
 non-spin polarized calculation
 Variant of blocked Davidson
 Davidson routine will perform the subspace rotation
 perform sub-space diagonalisation
    after iterative eigenvector-optimisation
 modified Broyden-mixing scheme, WC =      100.0
 initial mixing is a Kerker type mixing with AMIX =  0.4000 and BMIX =      1.0000
 Hartree-type preconditioning will be used
 using additional bands           66
 reciprocal scheme for non local part
 use partial core corrections
 calculate Harris-corrections to forces 
   (improved forces if not selfconsistent)
 use gradient corrections 
 use of overlap-Matrix (Vanderbilt PP)
 Gauss-broadening in eV      SIGMA  =   0.05


--------------------------------------------------------------------------------------------------------


  energy-cutoff  :      500.00
  volume of cell :     2616.64
      direct lattice vectors                 reciprocal lattice vectors
     0.000000000 10.937160696 10.937160696    -0.045715704  0.045715704  0.045715704
    10.937160696  0.000000000 10.937160696     0.045715704 -0.045715704  0.045715704
    10.937160696 10.937160696  0.000000000     0.045715704  0.045715704 -0.045715704

  length of vectors
    15.467480990 15.467480990 15.467480990     0.079181922  0.079181922  0.079181922


 
 k-points in units of 2pi/SCALE and weight: K-Spacing Value to Generate K-Mesh: 0.03
   0.00000000  0.00000000  0.00000000       1.000
 
 k-points in reciprocal lattice and weights: K-Spacing Value to Generate K-Mesh: 0.03
   0.00000000  0.00000000  0.00000000       1.000
 
 position of ions in fractional coordinates (direct lattice) 
   0.06204284  0.06295716  0.06204284
   0.00000000  0.00000000  0.00000000
   0.31204284  0.06295716  0.06204284
   0.25000000  0.00000000  0.00000000
   0.56250000  0.06250000  0.06250000
   0.50000000  0.00000000  0.00000000
   0.81250000  0.06250000  0.06250000
   0.75000000  0.00000000  0.00000000
   0.06250000  0.31250000  0.06250000
   0.00000000  0.25000000  0.00000000
   0.31250000  0.31250000  0.06250000
   0.25000000  0.25000000  0.00000000
   0.56250000  0.31250000  0.06250000
   0.50000000  0.25000000  0.00000000
   0.81250000  0.31250000  0.06250000
   0.75000000  0.25000000  0.00000000
   0.06250000  0.56250000  0.06250000
   0.00000000  0.50000000  0.00000000
   0.31250000  0.56250000  0.06250000
   0.25000000  0.50000000  0.00000000
   0.56250000  0.56250000  0.06250000
   0.50000000  0.50000000  0.00000000
   0.81250000  0.56250000  0.06250000
   0.75000000  0.50000000  0.00000000
   0.06250000  0.81250000  0.06250000
   0.00000000  0.75000000  0.00000000
   0.31250000  0.81250000  0.06250000
   0.25000000  0.75000000  0.00000000
   0.56250000  0.81250000  0.06250000
   0.50000000  0.75000000  0.00000000
   0.81250000  0.81250000  0.06250000
   0.75000000  0.75000000  0.00000000
   0.06250000  0.06250000  0.31250000
   0.00000000  0.00000000  0.25000000
   0.31250000  0.06250000  0.31250000
   0.25000000  0.00000000  0.25000000
   0.56250000  0.06250000  0.31250000
   0.50000000  0.00000000  0.25000000
   0.81250000  0.06250000  0.31250000
   0.75000000  0.00000000  0.25000000
   0.06250000  0.31250000  0.31250000
   0.00000000  0.25000000  0.25000000
   0.31250000  0.31250000  0.31250000
   0.25000000  0.25000000  0.25000000
   0.56250000  0.31250000  0.31250000
   0.50000000  0.25000000  0.25000000
   0.81250000  0.31250000  0.31250000
   0.75000000  0.25000000  0.25000000
   0.06250000  0.56250000  0.31250000
   0.00000000  0.50000000  0.25000000
   0.31250000  0.56250000  0.31250000
   0.25000000  0.50000000  0.25000000
   0.56250000  0.56250000  0.31250000
   0.50000000  0.50000000  0.25000000
   0.81250000  0.56250000  0.31250000
   0.75000000  0.50000000  0.25000000
   0.06250000  0.81250000  0.31250000
   0.00000000  0.75000000  0.25000000
   0.31250000  0.81250000  0.31250000
   0.25000000  0.75000000  0.25000000
   0.56250000  0.81250000  0.31250000
   0.50000000  0.75000000  0.25000000
   0.81250000  0.81250000  0.31250000
   0.75000000  0.75000000  0.25000000
   0.06250000  0.06250000  0.56250000
   0.00000000  0.00000000  0.50000000
   0.31250000  0.06250000  0.56250000
   0.25000000  0.00000000  0.50000000
   0.56250000  0.06250000  0.56250000
   0.50000000  0.00000000  0.50000000
   0.81250000  0.06250000  0.56250000
   0.75000000  0.00000000  0.50000000
   0.06250000  0.31250000  0.56250000
   0.00000000  0.25000000  0.50000000
   0.31250000  0.31250000  0.56250000
   0.25000000  0.25000000  0.50000000
   0.56250000  0.31250000  0.56250000
   0.50000000  0.25000000  0.50000000
   0.81250000  0.31250000  0.56250000
   0.75000000  0.25000000  0.50000000
   0.06250000  0.56250000  0.56250000
   0.00000000  0.50000000  0.50000000
   0.31250000  0.56250000  0.56250000
   0.25000000  0.50000000  0.50000000
   0.56250000  0.56250000  0.56250000
   0.50000000  0.50000000  0.50000000
   0.81250000  0.56250000  0.56250000
   0.75000000  0.50000000  0.50000000
   0.06250000  0.81250000  0.56250000
   0.00000000  0.75000000  0.50000000
   0.31250000  0.81250000  0.56250000
   0.25000000  0.75000000  0.50000000
   0.56250000  0.81250000  0.56250000
   0.50000000  0.75000000  0.50000000
   0.81250000  0.81250000  0.56250000
   0.75000000  0.75000000  0.50000000
   0.06250000  0.06250000  0.81250000
   0.00000000  0.00000000  0.75000000
   0.31250000  0.06250000  0.81250000
   0.25000000  0.00000000  0.75000000
   0.56250000  0.06250000  0.81250000
   0.50000000  0.00000000  0.75000000
   0.81250000  0.06250000  0.81250000
   0.75000000  0.00000000  0.75000000
   0.06250000  0.31250000  0.81250000
   0.00000000  0.25000000  0.75000000
   0.31250000  0.31250000  0.81250000
   0.25000000  0.25000000  0.75000000
   0.56250000  0.31250000  0.81250000
   0.50000000  0.25000000  0.75000000
   0.81250000  0.31250000  0.81250000
   0.75000000  0.25000000  0.75000000
   0.06250000  0.56250000  0.81250000
   0.00000000  0.50000000  0.75000000
   0.31250000  0.56250000  0.81250000
   0.25000000  0.50000000  0.75000000
   0.56250000  0.56250000  0.81250000
   0.50000000  0.50000000  0.75000000
   0.81250000  0.56250000  0.81250000
   0.75000000  0.50000000  0.75000000
   0.06250000  0.81250000  0.81250000
   0.00000000  0.75000000  0.75000000
   0.31250000  0.81250000  0.81250000
   0.25000000  0.75000000  0.75000000
   0.56250000  0.81250000  0.81250000
   0.50000000  0.75000000  0.75000000
   0.81250000  0.81250000  0.81250000
   0.75000000  0.75000000  0.75000000
 
 position of ions in cartesian coordinates  (Angst):
   1.36714509  1.35714509  1.36714509
   0.00000000  0.00000000  0.00000000
   1.36714509  4.09143526  4.10143526
   0.00000000  2.73429017  2.73429017
   1.36714509  6.83572544  6.83572544
   0.00000000  5.46858035  5.46858035
   1.36714509  9.57001561  9.57001561
   0.00000000  8.20287052  8.20287052
   4.10143526  1.36714509  4.10143526
   2.73429017  0.00000000  2.73429017
   4.10143526  4.10143526  6.83572544
   2.73429017  2.73429017  5.46858035
   4.10143526  6.83572544  9.57001561
   2.73429017  5.46858035  8.20287052
   4.10143526  9.57001561 12.30430578
   2.73429017  8.20287052 10.93716070
   6.83572544  1.36714509  6.83572544
   5.46858035  0.00000000  5.46858035
   6.83572544  4.10143526  9.57001561
   5.46858035  2.73429017  8.20287052
   6.83572544  6.83572544 12.30430578
   5.46858035  5.46858035 10.93716070
   6.83572544  9.57001561 15.03859596
   5.46858035  8.20287052 13.67145087
   9.57001561  1.36714509  9.57001561
   8.20287052  0.00000000  8.20287052
   9.57001561  4.10143526 12.30430578
   8.20287052  2.73429017 10.93716070
   9.57001561  6.83572544 15.03859596
   8.20287052  5.46858035 13.67145087
   9.57001561  9.57001561 17.77288613
   8.20287052  8.20287052 16.40574104
   4.10143526  4.10143526  1.36714509
   2.73429017  2.73429017  0.00000000
   4.10143526  6.83572544  4.10143526
   2.73429017  5.46858035  2.73429017
   4.10143526  9.57001561  6.83572544
   2.73429017  8.20287052  5.46858035
   4.10143526 12.30430578  9.57001561
   2.73429017 10.93716070  8.20287052
   6.83572544  4.10143526  4.10143526
   5.46858035  2.73429017  2.73429017
   6.83572544  6.83572544  6.83572544
   5.46858035  5.46858035  5.46858035
   6.83572544  9.57001561  9.57001561
   5.46858035  8.20287052  8.20287052
   6.83572544 12.30430578 12.30430578
   5.46858035 10.93716070 10.93716070
   9.57001561  4.10143526  6.83572544
   8.20287052  2.73429017  5.46858035
   9.57001561  6.83572544  9.57001561
   8.20287052  5.46858035  8.20287052
   9.57001561  9.57001561 12.30430578
   8.20287052  8.20287052 10.93716070
   9.57001561 12.30430578 15.03859596
   8.20287052 10.93716070 13.67145087
  12.30430578  4.10143526  9.57001561
  10.93716070  2.73429017  8.20287052
  12.30430578  6.83572544 12.30430578
  10.93716070  5.46858035 10.93716070
  12.30430578  9.57001561 15.03859596
  10.93716070  8.20287052 13.67145087
  12.30430578 12.30430578 17.77288613
  10.93716070 10.93716070 16.40574104
   6.83572544  6.83572544  1.36714509
   5.46858035  5.46858035  0.00000000
   6.83572544  9.57001561  4.10143526
   5.46858035  8.20287052  2.73429017
   6.83572544 12.30430578  6.83572544
   5.46858035 10.93716070  5.46858035
   6.83572544 15.03859596  9.57001561
   5.46858035 13.67145087  8.20287052
   9.57001561  6.83572544  4.10143526
   8.20287052  5.46858035  2.73429017
   9.57001561  9.57001561  6.83572544
   8.20287052  8.20287052  5.46858035
   9.57001561 12.30430578  9.57001561
   8.20287052 10.93716070  8.20287052
   9.57001561 15.03859596 12.30430578
   8.20287052 13.67145087 10.93716070
  12.30430578  6.83572544  6.83572544
  10.93716070  5.46858035  5.46858035
  12.30430578  9.57001561  9.57001561
  10.93716070  8.20287052  8.20287052
  12.30430578 12.30430578 12.30430578
  10.93716070 10.93716070 10.93716070
  12.30430578 15.03859596 15.03859596
  10.93716070 13.67145087 13.67145087
  15.03859596  6.83572544  9.57001561
  13.67145087  5.46858035  8.20287052
  15.03859596  9.57001561 12.30430578
  13.67145087  8.20287052 10.93716070
  15.03859596 12.30430578 15.03859596
  13.67145087 10.93716070 13.67145087
  15.03859596 15.03859596 17.77288613
  13.67145087 13.67145087 16.40574104
   9.57001561  9.57001561  1.36714509
   8.20287052  8.20287052  0.00000000
   9.57001561 12.30430578  4.10143526
   8.20287052 10.93716070  2.73429017
   9.57001561 15.03859596  6.83572544
   8.20287052 13.67145087  5.46858035
   9.57001561 17.77288613  9.57001561
   8.20287052 16.40574104  8.20287052
  12.30430578  9.57001561  4.10143526
  10.93716070  8.20287052  2.73429017
  12.30430578 12.30430578  6.83572544
  10.93716070 10.93716070  5.46858035
  12.30430578 15.03859596  9.57001561
  10.93716070 13.67145087  8.20287052
  12.30430578 17.77288613 12.30430578
  10.93716070 16.40574104 10.93716070
  15.03859596  9.57001561  6.83572544
  13.67145087  8.20287052  5.46858035
  15.03859596 12.30430578  9.57001561
  13.67145087 10.93716070  8.20287052
  15.03859596 15.03859596 12.30430578
  13.67145087 13.67145087 10.93716070
  15.03859596 17.77288613 15.03859596
  13.67145087 16.40574104 13.67145087
  17.77288613  9.57001561  9.57001561
  16.40574104  8.20287052  8.20287052
  17.77288613 12.30430578 12.30430578
  16.40574104 10.93716070 10.93716070
  17.77288613 15.03859596 15.03859596
  16.40574104 13.67145087 13.67145087
  17.77288613 17.77288613 17.77288613
  16.40574104 16.40574104 16.40574104
 


--------------------------------------------------------------------------------------------------------


 k-point  1 :   0.0000 0.0000 0.0000  plane waves:   66299

 maximum and minimum number of plane-waves per node :      3320     3310

 maximum number of plane-waves:     66299
 maximum index in each direction: 
   IXMAX=   28   IYMAX=   28   IZMAX=   28
   IXMIN=  -28   IYMIN=  -28   IZMIN=  -28


 parallel 3D FFT for wavefunctions:
    minimum data exchange during FFTs selected (reduces bandwidth)
 parallel 3D FFT for charge:
    minimum data exchange during FFTs selected (reduces bandwidth)


 total amount of memory used by VASP MPI-rank0   118934. kBytes
=======================================================================

   base      :      30000. kBytes
   nonl-proj :       7011. kBytes
   fftplans  :      53058. kBytes
   grid      :      20148. kBytes
   one-center:         21. kBytes
   wavefun   :       8696. kBytes
 
     INWAV:  cpu time    0.0000: real time    0.0002
 Broyden mixing: mesh for mixing (old mesh)
   NGX = 57   NGY = 57   NGZ = 57
  (NGX  =240   NGY  =240   NGZ  =240)
  gives a total of 185193 points

 initial charge density was supplied:
 charge density of overlapping atoms calculated
 number of electron     512.0000000 magnetization 
 keeping initial charge density in first step


--------------------------------------------------------------------------------------------------------


 Maximum index for augmentation-charges         4439 (set IRDMAX)


--------------------------------------------------------------------------------------------------------


 First call to EWALD:  gamma=   0.129
 Maximum number of real-space cells 3x 3x 3
 Maximum number of reciprocal cells 3x 3x 3

    FEWALD:  cpu time    0.0050: real time    0.0051


--------------------------------------- Iteration      1(   1)  ---------------------------------------


    POTLOK:  cpu time    0.2265: real time    0.2345
    SETDIJ:  cpu time    0.2851: real time    0.2861
     EDDAV:  cpu time    4.7741: real time    4.7882
       DOS:  cpu time    0.0006: real time    0.0006
    --------------------------------------------
      LOOP:  cpu time    5.2862: real time    5.3094

 eigenvalue-minimisations  :   644
 total energy-change (2. order) : 0.1374884E+04  (-0.1908717E+05)
 number of electron     512.0000000 magnetization 
 augmentation part      512.0000000 magnetization 

 Free energy of the ion-electron system (eV)
  ---------------------------------------------------
  alpha Z        PSCENC =       210.78028765
  Ewald energy   TEWEN  =    -14524.86545556
  -Hartree energ DENC   =      -724.62032763
  -exchange      EXHF   =         0.00000000
  -V(xc)+E(xc)   XCENC  =     -1195.83148459
  PAW double counting   =      4221.13331941    -1969.18571412
  entropy T*S    EENTRO =        -0.01544379
  eigenvalues    EBANDS =      2165.00783212
  atomic energy  EATOM  =     13192.48085998
  Solvation  Ediel_sol  =         0.00000000
  ---------------------------------------------------
  free energy    TOTEN  =      1374.88387347 eV

  energy without entropy =     1374.89931727  energy(sigma->0) =     1374.89159537


--------------------------------------------------------------------------------------------------------




--------------------------------------- Iteration      1(   2)  ---------------------------------------


     EDDAV:  cpu time    5.4080: real time    5.4243
       DOS:  cpu time    0.0005: real time    0.0005
    --------------------------------------------
      LOOP:  cpu time    5.4086: real time    5.4248

 eigenvalue-minimisations  :   758
 total energy-change (2. order) :-0.1911901E+04  (-0.1811820E+04)
 number of electron     512.0000000 magnetization 
 augmentation part      512.0000000 magnetization 

 Free energy of the ion-electron system (eV)
  ---------------------------------------------------
  alpha Z        PSCENC =       210.78028765
  Ewald energy   TEWEN  =    -14524.86545556
  -Hartree energ DENC   =      -724.62032763
  -exchange      EXHF   =         0.00000000
  -V(xc)+E(xc)   XCENC  =     -1195.83148459
  PAW double counting   =      4221.13331941    -1969.18571412
  entropy T*S    EENTRO =        -0.00000187
  eigenvalues    EBANDS =       253.09164813
  atomic energy  EATOM  =     13192.48085998
  Solvation  Ediel_sol  =         0.00000000
  ---------------------------------------------------
  free energy    TOTEN  =      -537.01686858 eV

  energy without entropy =     -537.01686672  energy(sigma->0) =     -537.01686765


--------------------------------------------------------------------------------------------------------




--------------------------------------- Iteration      1(   3)  ---------------------------------------


     EDDAV:  cpu time    5.4631: real time    5.4811
       DOS:  cpu time    0.0003: real time    0.0003
    --------------------------------------------
      LOOP:  cpu time    5.4634: real time    5.4814

 eigenvalue-minimisations  :   768
 total energy-change (2. order) :-0.1530060E+03  (-0.1483219E+03)
 number of electron     512.0000000 magnetization 
 augmentation part      512.0000000 magnetization 

 Free energy of the ion-electron system (eV)
  ---------------------------------------------------
  alpha Z        PSCENC =       210.78028765
  Ewald energy   TEWEN  =    -14524.86545556
  -Hartree energ DENC   =      -724.62032763
  -exchange      EXHF   =         0.00000000
  -V(xc)+E(xc)   XCENC  =     -1195.83148459
  PAW double counting   =      4221.13331941    -1969.18571412
  entropy T*S    EENTRO =        -0.00000000
  eigenvalues    EBANDS =       100.08561120
  atomic energy  EATOM  =     13192.48085998
  Solvation  Ediel_sol  =         0.00000000
  ---------------------------------------------------
  free energy    TOTEN  =      -690.02290365 eV

  energy without entropy =     -690.02290365  energy(sigma->0) =     -690.02290365


--------------------------------------------------------------------------------------------------------




--------------------------------------- Iteration      1(   4)  ---------------------------------------


     EDDAV:  cpu time    5.3594: real time    5.3757
       DOS:  cpu time    0.0003: real time    0.0003
    --------------------------------------------
      LOOP:  cpu time    5.3597: real time    5.3760

 eigenvalue-minimisations  :   752
 total energy-change (2. order) :-0.4510339E+01  (-0.4454602E+01)
 number of electron     512.0000000 magnetization 
 augmentation part      512.0000000 magnetization 

 Free energy of the ion-electron system (eV)
  ---------------------------------------------------
  alpha Z        PSCENC =       210.78028765
  Ewald energy   TEWEN  =    -14524.86545556
  -Hartree energ DENC   =      -724.62032763
  -exchange      EXHF   =         0.00000000
  -V(xc)+E(xc)   XCENC  =     -1195.83148459
  PAW double counting   =      4221.13331941    -1969.18571412
  entropy T*S    EENTRO =        -0.00000000
  eigenvalues    EBANDS =        95.57527204
  atomic energy  EATOM  =     13192.48085998
  Solvation  Ediel_sol  =         0.00000000
  ---------------------------------------------------
  free energy    TOTEN  =      -694.53324281 eV

  energy without entropy =     -694.53324281  energy(sigma->0) =     -694.53324281


--------------------------------------------------------------------------------------------------------




--------------------------------------- Iteration      1(   5)  ---------------------------------------


     EDDAV:  cpu time    5.3404: real time    5.3565
       DOS:  cpu time    0.0004: real time    0.0004
    CHARGE:  cpu time    0.5036: real time    0.5048
    MIXING:  cpu time    0.0098: real time    0.0099
    --------------------------------------------
      LOOP:  cpu time    5.8542: real time    5.8717

 eigenvalue-minimisations  :   744
 total energy-change (2. order) :-0.1655764E+00  (-0.1647845E+00)
 number of electron     511.9999999 magnetization 
 augmentation part      -29.7895686 magnetization 

 Broyden mixing:
  rms(total) = 0.24757E+01    rms(broyden)= 0.24757E+01
  rms(prec ) = 0.29957E+01
  weight for this iteration     100.00

 Free energy of the ion-electron system (eV)
  ---------------------------------------------------
  alpha Z        PSCENC =       210.78028765
  Ewald energy   TEWEN  =    -14524.86545556
  -Hartree energ DENC   =      -724.62032763
  -exchange      EXHF   =         0.00000000
  -V(xc)+E(xc)   XCENC  =     -1195.83148459
  PAW double counting   =      4221.13331941    -1969.18571412
  entropy T*S    EENTRO =        -0.00000000
  eigenvalues    EBANDS =        95.40969567
  atomic energy  EATOM  =     13192.48085998
  Solvation  Ediel_sol  =         0.00000000
  ---------------------------------------------------
  free energy    TOTEN  =      -694.69881918 eV

  energy without entropy =     -694.69881918  energy(sigma->0) =     -694.69881918


--------------------------------------------------------------------------------------------------------




--------------------------------------- Iteration      1(   6)  ---------------------------------------


    POTLOK:  cpu time    0.2234: real time    0.2245
    SETDIJ:  cpu time    0.2726: real time    0.2733
     EDDAV:  cpu time    5.0562: real time    5.0681
       DOS:  cpu time    0.0004: real time    0.0004
    CHARGE:  cpu time    0.4950: real time    0.4961
    MIXING:  cpu time    0.0094: real time    0.0094
    --------------------------------------------
      LOOP:  cpu time    6.0570: real time    6.0719

 eigenvalue-minimisations  :   696
 total energy-change (2. order) : 0.8398928E+01  (-0.4783741E+00)
 number of electron     511.9999999 magnetization 
 augmentation part      -29.4083887 magnetization 

 Broyden mixing:
  rms(total) = 0.14788E+01    rms(broyden)= 0.14788E+01
  rms(prec ) = 0.17864E+01
  weight for this iteration     100.00

 eigenvalues of (default mixing * dielectric matrix)
  average eigenvalue GAMMA=   2.4617
  2.4617

 Free energy of the ion-electron system (eV)
  ---------------------------------------------------
  alpha Z        PSCENC =       210.78028765
  Ewald energy   TEWEN  =    -14524.86545556
  -Hartree energ DENC   =      -824.84936451
  -exchange      EXHF   =         0.00000000
  -V(xc)+E(xc)   XCENC  =     -1180.31909381
  PAW double counting   =      4464.76510694    -2219.65202911
  entropy T*S    EENTRO =        -0.00000000
  eigenvalues    EBANDS =       195.35979773
  atomic energy  EATOM  =     13192.48085998
  Solvation  Ediel_sol  =         0.00000000
  ---------------------------------------------------
  free energy    TOTEN  =      -686.29989069 eV

  energy without entropy =     -686.29989069  energy(sigma->0) =     -686.29989069


--------------------------------------------------------------------------------------------------------




--------------------------------------- Iteration      1(   7)  ---------------------------------------


    POTLOK:  cpu time    0.2236: real time    0.2242
    SETDIJ:  cpu time    0.2721: real time    0.2728
     EDDAV:  cpu time    4.9422: real time    4.9539
       DOS:  cpu time    0.0004: real time    0.0004
    CHARGE:  cpu time    0.4948: real time    0.4959
    MIXING:  cpu time    0.0093: real time    0.0093
    --------------------------------------------
      LOOP:  cpu time    5.9424: real time    5.9566

 eigenvalue-minimisations  :   664
 total energy-change (2. order) : 0.3872882E+01  (-0.9699667E+00)
 number of electron     511.9999999 magnetization 
 augmentation part      -28.9140802 magnetization 

 Broyden mixing:
  rms(total) = 0.13039E+00    rms(broyden)= 0.13039E+00
  rms(prec ) = 0.15183E+00
  weight for this iteration     100.00

 eigenvalues of (default mixing * dielectric matrix)
  average eigenvalue GAMMA=   2.4933
  2.4933  2.4933

 Free energy of the ion-electron system (eV)
  ---------------------------------------------------
  alpha Z        PSCENC =       210.78028765
  Ewald energy   TEWEN  =    -14524.86545556
  -Hartree energ DENC   =      -991.88325795
  -exchange      EXHF   =         0.00000000
  -V(xc)+E(xc)   XCENC  =     -1153.93892785
  PAW double counting   =      4789.67040070    -2553.36895094
  entropy T*S    EENTRO =        -0.00000000
  eigenvalues    EBANDS =       348.69803528
  atomic energy  EATOM  =     13192.48085998
  Solvation  Ediel_sol  =         0.00000000
  ---------------------------------------------------
  free energy    TOTEN  =      -682.42700868 eV

  energy without entropy =     -682.42700868  energy(sigma->0) =     -682.42700868


--------------------------------------------------------------------------------------------------------




--------------------------------------- Iteration      1(   8)  ---------------------------------------


    POTLOK:  cpu time    0.2233: real time    0.2239
    SETDIJ:  cpu time    0.2721: real time    0.2728
     EDDAV:  cpu time    5.0113: real time    5.0231
       DOS:  cpu time    0.0004: real time    0.0004
    CHARGE:  cpu time    0.4971: real time    0.4983
    MIXING:  cpu time    0.0102: real time    0.0102
    --------------------------------------------
      LOOP:  cpu time    6.0144: real time    6.0287

 eigenvalue-minimisations  :   688
 total energy-change (2. order) :-0.1320877E+00  (-0.4947955E-01)
 number of electron     511.9999999 magnetization 
 augmentation part      -28.9853430 magnetization 

 Broyden mixing:
  rms(total) = 0.28104E-01    rms(broyden)= 0.28104E-01
  rms(prec ) = 0.37974E-01
  weight for this iteration     100.00

 eigenvalues of (default mixing * dielectric matrix)
  average eigenvalue GAMMA=   2.1009
  1.4525  2.7601  2.0901

 Free energy of the ion-electron system (eV)
  ---------------------------------------------------
  alpha Z        PSCENC =       210.78028765
  Ewald energy   TEWEN  =    -14524.86545556
  -Hartree energ DENC   =      -986.33116982
  -exchange      EXHF   =         0.00000000
  -V(xc)+E(xc)   XCENC  =     -1153.99527982
  PAW double counting   =      4718.72999283    -2480.21078989
  entropy T*S    EENTRO =        -0.00000000
  eigenvalues    EBANDS =       340.85245827
  atomic energy  EATOM  =     13192.48085998
  Solvation  Ediel_sol  =         0.00000000
  ---------------------------------------------------
  free energy    TOTEN  =      -682.55909636 eV

  energy without entropy =     -682.55909636  energy(sigma->0) =     -682.55909636


--------------------------------------------------------------------------------------------------------




--------------------------------------- Iteration      1(   9)  ---------------------------------------


    POTLOK:  cpu time    0.2250: real time    0.2287
    SETDIJ:  cpu time    0.2735: real time    0.2741
     EDDAV:  cpu time    5.4481: real time    5.4618
       DOS:  cpu time    0.0004: real time    0.0004
    CHARGE:  cpu time    0.4953: real time    0.4964
    MIXING:  cpu time    0.0107: real time    0.0107
    --------------------------------------------
      LOOP:  cpu time    6.4530: real time    6.4723

 eigenvalue-minimisations  :   768
 total energy-change (2. order) :-0.6415639E-02  (-0.2455504E-02)
 number of electron     511.9999999 magnetization 
 augmentation part      -28.9800580 magnetization 

 Broyden mixing:
  rms(total) = 0.15923E-01    rms(broyden)= 0.15923E-01
  rms(prec ) = 0.18147E-01
  weight for this iteration     100.00

 eigenvalues of (default mixing * dielectric matrix)
  average eigenvalue GAMMA=   2.2877
  1.0206  3.3897  2.7011  2.0396

 Free energy of the ion-electron system (eV)
  ---------------------------------------------------
  alpha Z        PSCENC =       210.78028765
  Ewald energy   TEWEN  =    -14524.86545556
  -Hartree energ DENC   =      -991.21309841
  -exchange      EXHF   =         0.00000000
  -V(xc)+E(xc)   XCENC  =     -1153.27712031
  PAW double counting   =      4725.24270281    -2486.96169039
  entropy T*S    EENTRO =        -0.00000000
  eigenvalues    EBANDS =       345.24800222
  atomic energy  EATOM  =     13192.48085998
  Solvation  Ediel_sol  =         0.00000000
  ---------------------------------------------------
  free energy    TOTEN  =      -682.56551200 eV

  energy without entropy =     -682.56551200  energy(sigma->0) =     -682.56551200


--------------------------------------------------------------------------------------------------------




--------------------------------------- Iteration      1(  10)  ---------------------------------------


    POTLOK:  cpu time    0.2236: real time    0.2242
    SETDIJ:  cpu time    0.2733: real time    0.2739
     EDDAV:  cpu time    4.9244: real time    4.9360
       DOS:  cpu time    0.0004: real time    0.0004
    CHARGE:  cpu time    0.4947: real time    0.4958
    MIXING:  cpu time    0.0102: real time    0.0102
    --------------------------------------------
      LOOP:  cpu time    5.9264: real time    5.9406

 eigenvalue-minimisations  :   672
 total energy-change (2. order) :-0.2686544E-02  (-0.5907857E-03)
 number of electron     511.9999999 magnetization 
 augmentation part      -28.9811157 magnetization 

 Broyden mixing:
  rms(total) = 0.47935E-02    rms(broyden)= 0.47935E-02
  rms(prec ) = 0.57428E-02
  weight for this iteration     100.00

 eigenvalues of (default mixing * dielectric matrix)
  average eigenvalue GAMMA=   1.9832
  3.2367  2.6102  2.1606  1.0582  0.8505

 Free energy of the ion-electron system (eV)
  ---------------------------------------------------
  alpha Z        PSCENC =       210.78028765
  Ewald energy   TEWEN  =    -14524.86545556
  -Hartree energ DENC   =      -991.21952762
  -exchange      EXHF   =         0.00000000
  -V(xc)+E(xc)   XCENC  =     -1153.35174511
  PAW double counting   =      4721.46528243    -2483.16589080
  entropy T*S    EENTRO =        -0.00000000
  eigenvalues    EBANDS =       345.30799049
  atomic energy  EATOM  =     13192.48085998
  Solvation  Ediel_sol  =         0.00000000
  ---------------------------------------------------
  free energy    TOTEN  =      -682.56819854 eV

  energy without entropy =     -682.56819854  energy(sigma->0) =     -682.56819854


--------------------------------------------------------------------------------------------------------




--------------------------------------- Iteration      1(  11)  ---------------------------------------


    POTLOK:  cpu time    0.2225: real time    0.2245
    SETDIJ:  cpu time    0.2731: real time    0.2737
     EDDAV:  cpu time    5.3673: real time    5.3799
       DOS:  cpu time    0.0004: real time    0.0004
    CHARGE:  cpu time    0.4972: real time    0.4984
    MIXING:  cpu time    0.0101: real time    0.0101
    --------------------------------------------
      LOOP:  cpu time    6.3707: real time    6.3870

 eigenvalue-minimisations  :   752
 total energy-change (2. order) :-0.1351728E-04  (-0.2026401E-04)
 number of electron     511.9999999 magnetization 
 augmentation part      -28.9796091 magnetization 

 Broyden mixing:
  rms(total) = 0.49132E-03    rms(broyden)= 0.49123E-03
  rms(prec ) = 0.56171E-03
  weight for this iteration     100.00

 eigenvalues of (default mixing * dielectric matrix)
  average eigenvalue GAMMA=   2.0360
  3.3666  2.6906  2.2079  1.9878  0.9816  0.9816

 Free energy of the ion-electron system (eV)
  ---------------------------------------------------
  alpha Z        PSCENC =       210.78028765
  Ewald energy   TEWEN  =    -14524.86545556
  -Hartree energ DENC   =      -991.69612345
  -exchange      EXHF   =         0.00000000
  -V(xc)+E(xc)   XCENC  =     -1153.28760942
  PAW double counting   =      4723.32789696    -2485.07371659
  entropy T*S    EENTRO =        -0.00000000
  eigenvalues    EBANDS =       345.76564837
  atomic energy  EATOM  =     13192.48085998
  Solvation  Ediel_sol  =         0.00000000
  ---------------------------------------------------
  free energy    TOTEN  =      -682.56821206 eV

  energy without entropy =     -682.56821206  energy(sigma->0) =     -682.56821206


--------------------------------------------------------------------------------------------------------




--------------------------------------- Iteration      1(  12)  ---------------------------------------


    POTLOK:  cpu time    0.2230: real time    0.2293
    SETDIJ:  cpu time    0.2733: real time    0.2740
     EDDAV:  cpu time    5.1461: real time    5.1581
       DOS:  cpu time    0.0004: real time    0.0004
    CHARGE:  cpu time    0.4940: real time    0.4951
    MIXING:  cpu time    0.0105: real time    0.0105
    --------------------------------------------
      LOOP:  cpu time    6.1472: real time    6.1674

 eigenvalue-minimisations  :   712
 total energy-change (2. order) :-0.4489404E-05  (-0.1286894E-05)
 number of electron     511.9999999 magnetization 
 augmentation part      -28.9793429 magnetization 

 Broyden mixing:
  rms(total) = 0.22022E-03    rms(broyden)= 0.22001E-03
  rms(prec ) = 0.25002E-03
  weight for this iteration     100.00

 eigenvalues of (default mixing * dielectric matrix)
  average eigenvalue GAMMA=   1.9252
  3.3084  2.6930  2.2603  2.2603  1.0285  1.0285  0.8972

 Free energy of the ion-electron system (eV)
  ---------------------------------------------------
  alpha Z        PSCENC =       210.78028765
  Ewald energy   TEWEN  =    -14524.86545556
  -Hartree energ DENC   =      -991.73976209
  -exchange      EXHF   =         0.00000000
  -V(xc)+E(xc)   XCENC  =     -1153.28643343
  PAW double counting   =      4723.43903274    -2485.18107402
  entropy T*S    EENTRO =        -0.00000000
  eigenvalues    EBANDS =       345.80432817
  atomic energy  EATOM  =     13192.48085998
  Solvation  Ediel_sol  =         0.00000000
  ---------------------------------------------------
  free energy    TOTEN  =      -682.56821655 eV

  energy without entropy =     -682.56821655  energy(sigma->0) =     -682.56821655


--------------------------------------------------------------------------------------------------------




--------------------------------------- Iteration      1(  13)  ---------------------------------------


    POTLOK:  cpu time    0.2220: real time    0.2226
    SETDIJ:  cpu time    0.2732: real time    0.2739
     EDDAV:  cpu time    5.3046: real time    5.3170
       DOS:  cpu time    0.0004: real time    0.0004
    CHARGE:  cpu time    0.4942: real time    0.4954
    MIXING:  cpu time    0.0107: real time    0.0107
    --------------------------------------------
      LOOP:  cpu time    6.3051: real time    6.3201

 eigenvalue-minimisations  :   744
 total energy-change (2. order) : 0.4167974E-05  (-0.5607891E-07)
 number of electron     511.9999999 magnetization 
 augmentation part      -28.9794723 magnetization 

 Broyden mixing:
  rms(total) = 0.69322E-04    rms(broyden)= 0.68658E-04
  rms(prec ) = 0.81110E-04
  weight for this iteration     100.00

 eigenvalues of (default mixing * dielectric matrix)
  average eigenvalue GAMMA=   1.8744
  3.3076  2.6983  2.4835  2.1372  0.9675  0.9569  1.2223  1.2223

 Free energy of the ion-electron system (eV)
  ---------------------------------------------------
  alpha Z        PSCENC =       210.78028765
  Ewald energy   TEWEN  =    -14524.86545556
  -Hartree energ DENC   =      -991.72890454
  -exchange      EXHF   =         0.00000000
  -V(xc)+E(xc)   XCENC  =     -1153.28664656
  PAW double counting   =      4723.39509666    -2485.13342267
  entropy T*S    EENTRO =        -0.00000000
  eigenvalues    EBANDS =       345.78997266
  atomic energy  EATOM  =     13192.48085998
  Solvation  Ediel_sol  =         0.00000000
  ---------------------------------------------------
  free energy    TOTEN  =      -682.56821238 eV

  energy without entropy =     -682.56821238  energy(sigma->0) =     -682.56821238


--------------------------------------------------------------------------------------------------------




--------------------------------------- Iteration      1(  14)  ---------------------------------------


    POTLOK:  cpu time    0.2221: real time    0.2228
    SETDIJ:  cpu time    0.2764: real time    0.2770
     EDDAV:  cpu time    5.2342: real time    5.2474
       DOS:  cpu time    0.0004: real time    0.0004
    CHARGE:  cpu time    0.4968: real time    0.4979
    MIXING:  cpu time    0.0107: real time    0.0107
    --------------------------------------------
      LOOP:  cpu time    6.2406: real time    6.2563

 eigenvalue-minimisations  :   728
 total energy-change (2. order) :-0.8038551E-06  (-0.1099390E-07)
 number of electron     511.9999999 magnetization 
 augmentation part      -28.9794389 magnetization 

 Broyden mixing:
  rms(total) = 0.37298E-04    rms(broyden)= 0.36049E-04
  rms(prec ) = 0.46822E-04
  weight for this iteration     100.00

 eigenvalues of (default mixing * dielectric matrix)
  average eigenvalue GAMMA=   1.8187
  3.2923  2.7276  2.4316  2.2596  0.9341  1.0129  1.0129  1.3486  1.3486

 Free energy of the ion-electron system (eV)
  ---------------------------------------------------
  alpha Z        PSCENC =       210.78028765
  Ewald energy   TEWEN  =    -14524.86545556
  -Hartree energ DENC   =      -991.73845544
  -exchange      EXHF   =         0.00000000
  -V(xc)+E(xc)   XCENC  =     -1153.28547637
  PAW double counting   =      4723.42857640    -2485.16727236
  entropy T*S    EENTRO =        -0.00000000
  eigenvalues    EBANDS =       345.79872251
  atomic energy  EATOM  =     13192.48085998
  Solvation  Ediel_sol  =         0.00000000
  ---------------------------------------------------
  free energy    TOTEN  =      -682.56821319 eV

  energy without entropy =     -682.56821319  energy(sigma->0) =     -682.56821319


--------------------------------------------------------------------------------------------------------




--------------------------------------- Iteration      1(  15)  ---------------------------------------


    POTLOK:  cpu time    0.2227: real time    0.2242
    SETDIJ:  cpu time    0.2728: real time    0.2734
     EDDAV:  cpu time    3.6408: real time    3.6493
       DOS:  cpu time    0.0004: real time    0.0004
    CHARGE:  cpu time    0.4959: real time    0.4971
    MIXING:  cpu time    0.0108: real time    0.0109
    --------------------------------------------
      LOOP:  cpu time    4.6435: real time    4.6554

 eigenvalue-minimisations  :   432
 total energy-change (2. order) : 0.9784089E-06  (-0.2522441E-08)
 number of electron     511.9999999 magnetization 
 augmentation part      -28.9794651 magnetization 

 Broyden mixing:
  rms(total) = 0.11596E-04    rms(broyden)= 0.65427E-05
  rms(prec ) = 0.72265E-05
  weight for this iteration     100.00
  WARNING: grid for Broyden might be to small

 eigenvalues of (default mixing * dielectric matrix)
  average eigenvalue GAMMA=   1.8270
  3.2983  2.6665  2.5868  2.1356  2.0648  0.9418  0.9875  1.0293  1.2794  1.2794

 Free energy of the ion-electron system (eV)
  ---------------------------------------------------
  alpha Z        PSCENC =       210.78028765
  Ewald energy   TEWEN  =    -14524.86545556
  -Hartree energ DENC   =      -991.73304180
  -exchange      EXHF   =         0.00000000
  -V(xc)+E(xc)   XCENC  =     -1153.28601084
  PAW double counting   =      4723.40802878    -2485.14602588
  entropy T*S    EENTRO =        -0.00000000
  eigenvalues    EBANDS =       345.79314546
  atomic energy  EATOM  =     13192.48085998
  Solvation  Ediel_sol  =         0.00000000
  ---------------------------------------------------
  free energy    TOTEN  =      -682.56821221 eV

  energy without entropy =     -682.56821221  energy(sigma->0) =     -682.56821221


--------------------------------------------------------------------------------------------------------




--------------------------------------- Iteration      1(  16)  ---------------------------------------


    POTLOK:  cpu time    0.2232: real time    0.2239
    SETDIJ:  cpu time    0.2726: real time    0.2732
     EDDAV:  cpu time    3.2935: real time    3.3013
       DOS:  cpu time    0.0004: real time    0.0004
    CHARGE:  cpu time    0.4940: real time    0.4951
    MIXING:  cpu time    0.0117: real time    0.0117
    --------------------------------------------
      LOOP:  cpu time    4.2955: real time    4.3057

 eigenvalue-minimisations  :   368
 total energy-change (2. order) :-0.4679168E-07  (-0.2011158E-09)
 number of electron     511.9999999 magnetization 
 augmentation part      -28.9794683 magnetization 

 Broyden mixing:
  rms(total) = 0.99536E-05    rms(broyden)= 0.27210E-05
  rms(prec ) = 0.33012E-05
  weight for this iteration     100.00
  WARNING: grid for Broyden might be to small

 eigenvalues of (default mixing * dielectric matrix)
  average eigenvalue GAMMA=   1.7904
  3.2787  2.7626  2.5544  2.2365  2.2365  1.3389  1.3389  1.1253  0.9854  0.9185
  0.9185

 Free energy of the ion-electron system (eV)
  ---------------------------------------------------
  alpha Z        PSCENC =       210.78028765
  Ewald energy   TEWEN  =    -14524.86545556
  -Hartree energ DENC   =      -991.73325143
  -exchange      EXHF   =         0.00000000
  -V(xc)+E(xc)   XCENC  =     -1153.28595125
  PAW double counting   =      4723.40804477    -2485.14613738
  entropy T*S    EENTRO =        -0.00000000
  eigenvalues    EBANDS =       345.79339096
  atomic energy  EATOM  =     13192.48085998
  Solvation  Ediel_sol  =         0.00000000
  ---------------------------------------------------
  free energy    TOTEN  =      -682.56821225 eV

  energy without entropy =     -682.56821225  energy(sigma->0) =     -682.56821225


--------------------------------------------------------------------------------------------------------




--------------------------------------- Iteration      1(  17)  ---------------------------------------


    POTLOK:  cpu time    0.2223: real time    0.2229
    SETDIJ:  cpu time    0.2737: real time    0.2744
     EDDAV:  cpu time    3.2076: real time    3.2151
       DOS:  cpu time    0.0004: real time    0.0004
    CHARGE:  cpu time    0.4941: real time    0.4953
    MIXING:  cpu time    0.0119: real time    0.0119
    --------------------------------------------
      LOOP:  cpu time    4.2100: real time    4.2200

 eigenvalue-minimisations  :   352
 total energy-change (2. order) :-0.4122194E-07  (-0.2706568E-10)
 number of electron     511.9999999 magnetization 
 augmentation part      -28.9794693 magnetization 

 Broyden mixing:
  rms(total) = 0.96571E-05    rms(broyden)= 0.12605E-05
  rms(prec ) = 0.15129E-05
  weight for this iteration     100.00
  WARNING: grid for Broyden might be to small

 eigenvalues of (default mixing * dielectric matrix)
  average eigenvalue GAMMA=   1.7765
  3.2911  2.6997  2.6008  2.0606  2.0606  2.0279  1.2559  1.2559  0.9318  0.9745
  1.0564  1.1026

 Free energy of the ion-electron system (eV)
  ---------------------------------------------------
  alpha Z        PSCENC =       210.78028765
  Ewald energy   TEWEN  =    -14524.86545556
  -Hartree energ DENC   =      -991.73310178
  -exchange      EXHF   =         0.00000000
  -V(xc)+E(xc)   XCENC  =     -1153.28597613
  PAW double counting   =      4723.40845174    -2485.14658404
  entropy T*S    EENTRO =        -0.00000000
  eigenvalues    EBANDS =       345.79330584
  atomic energy  EATOM  =     13192.48085998
  Solvation  Ediel_sol  =         0.00000000
  ---------------------------------------------------
  free energy    TOTEN  =      -682.56821229 eV

  energy without entropy =     -682.56821229  energy(sigma->0) =     -682.56821229


--------------------------------------------------------------------------------------------------------




--------------------------------------- Iteration      1(  18)  ---------------------------------------


    POTLOK:  cpu time    0.2225: real time    0.2232
    SETDIJ:  cpu time    0.2721: real time    0.2728
     EDDAV:  cpu time    3.2725: real time    3.2801
       DOS:  cpu time    0.0004: real time    0.0004
    CHARGE:  cpu time    0.4943: real time    0.4955
    MIXING:  cpu time    0.0119: real time    0.0119
    --------------------------------------------
      LOOP:  cpu time    4.2737: real time    4.2839

 eigenvalue-minimisations  :   352
 total energy-change (2. order) : 0.1612716E-07  (-0.8353818E-11)
 number of electron     511.9999999 magnetization 
 augmentation part      -28.9794697 magnetization 

 Broyden mixing:
  rms(total) = 0.95896E-05    rms(broyden)= 0.53854E-06
  rms(prec ) = 0.65169E-06
  weight for this iteration     100.00
  WARNING: grid for Broyden might be to small

 eigenvalues of (default mixing * dielectric matrix)
  average eigenvalue GAMMA=   1.7918
  3.2999  2.6968  2.6968  2.3722  2.3722  2.1754  1.3368  1.3368  1.0931  1.0931
  1.0124  0.9341  0.8740

 Free energy of the ion-electron system (eV)
  ---------------------------------------------------
  alpha Z        PSCENC =       210.78028765
  Ewald energy   TEWEN  =    -14524.86545556
  -Hartree energ DENC   =      -991.73307757
  -exchange      EXHF   =         0.00000000
  -V(xc)+E(xc)   XCENC  =     -1153.28598072
  PAW double counting   =      4723.40791881    -2485.14604502
  entropy T*S    EENTRO =        -0.00000000
  eigenvalues    EBANDS =       345.79328014
  atomic energy  EATOM  =     13192.48085998
  Solvation  Ediel_sol  =         0.00000000
  ---------------------------------------------------
  free energy    TOTEN  =      -682.56821228 eV

  energy without entropy =     -682.56821228  energy(sigma->0) =     -682.56821228


--------------------------------------------------------------------------------------------------------




--------------------------------------- Iteration      1(  19)  ---------------------------------------


    POTLOK:  cpu time    0.2229: real time    0.2235
    SETDIJ:  cpu time    0.2728: real time    0.2734
     EDDAV:  cpu time    3.2272: real time    3.2348
       DOS:  cpu time    0.0003: real time    0.0003
    --------------------------------------------
      LOOP:  cpu time    3.7231: real time    3.7320

 eigenvalue-minimisations  :   352
 total energy-change (2. order) : 0.5777110E-08  (-0.1815770E-12)
 number of electron     511.9999999 magnetization 
 augmentation part      -28.9794697 magnetization 

 Free energy of the ion-electron system (eV)
  ---------------------------------------------------
  alpha Z        PSCENC =       210.78028765
  Ewald energy   TEWEN  =    -14524.86545556
  -Hartree energ DENC   =      -991.73305050
  -exchange      EXHF   =         0.00000000
  -V(xc)+E(xc)   XCENC  =     -1153.28598648
  PAW double counting   =      4723.40770959    -2485.14583646
  entropy T*S    EENTRO =        -0.00000000
  eigenvalues    EBANDS =       345.79325949
  atomic energy  EATOM  =     13192.48085998
  Solvation  Ediel_sol  =         0.00000000
  ---------------------------------------------------
  free energy    TOTEN  =      -682.56821227 eV

  energy without entropy =     -682.56821227  energy(sigma->0) =     -682.56821227


--------------------------------------------------------------------------------------------------------




 average (electrostatic) potential at core
  the test charge radii are     0.9892
  (the norm of the test charge is              1.0000)
       1 -83.4136       2 -83.4135       3 -83.4139       4 -83.4137       5 -83.4138
       6 -83.4140       7 -83.4136       8 -83.4137       9 -83.4159      10 -83.4139
      11 -83.4162      12 -83.4139      13 -83.4141      14 -83.4142      15 -83.4138
      16 -83.4142      17 -83.4152      18 -83.4152      19 -83.4151      20 -83.4155
      21 -83.4139      22 -83.4142      23 -83.4140      24 -83.4138      25 -83.4163
      26 -83.4155      27 -83.4161      28 -83.4155      29 -83.4139      30 -83.4141
      31 -83.4141      32 -83.4140      33 -83.4116      34 -83.4136      35 -83.4136
      36 -83.4136      37 -83.4133      38 -83.4132      39 -83.4113      40 -83.4133
      41 -83.4139      42 -83.4137      43 -83.4139      44 -83.4140      45 -83.4135
      46 -83.4137      47 -83.4135      48 -83.4134      49 -83.4140      50 -83.4141
      51 -83.4138      52 -83.4140      53 -83.4135      54 -83.4136      55 -83.4138
      56 -83.4136      57 -83.4138      58 -83.4141      59 -83.4137      60 -83.4137
      61 -83.4136      62 -83.4134      63 -83.4137      64 -83.4138      65 -83.4134
      66 -83.4123      67 -83.4135      68 -83.4136      69 -83.4123      70 -83.4133
      71 -83.4123      72 -83.4119      73 -83.4139      74 -83.4138      75 -83.4137
      76 -83.4138      77 -83.4134      78 -83.4134      79 -83.4136      80 -83.4134
      81 -83.4137      82 -83.4139      83 -83.4137      84 -83.4137      85 -83.4137
      86 -83.4135      87 -83.4137      88 -83.4137      89 -83.4135      90 -83.4137
      91 -83.4138      92 -83.4138      93 -83.4136      94 -83.4137      95 -83.4133
      96 -83.4136      97 -83.4135      98 -83.4134      99 -83.4114     100 -83.4133
     101 -83.4112     102 -83.4119     103 -83.4133     104 -83.4120     105 -83.4137
     106 -83.4141     107 -83.4136     108 -83.4138     109 -83.4137     110 -83.4134
     111 -83.4138     112 -83.4137     113 -83.4139     114 -83.4136     115 -83.4141
     116 -83.4137     117 -83.4138     118 -83.4138     119 -83.4136     120 -83.4138
     121 -83.4140     122 -83.4137     123 -83.4140     124 -83.4140     125 -83.4134
     126 -83.4137     127 -83.4134     128 -83.4135
 
 
 
 E-fermi :   5.9200     XC(G=0):  -9.3007     alpha+bet :-11.7327


 k-point     1 :       0.0000    0.0000    0.0000
  band No.  band energies     occupation 
      1      -6.1630      2.00000
      2      -5.3790      2.00000
      3      -5.3780      2.00000
      4      -5.3776      2.00000
      5      -5.3775      2.00000
      6      -5.3774      2.00000
      7      -5.3774      2.00000
      8      -5.3769      2.00000
      9      -5.3759      2.00000
     10      -5.1005      2.00000
     11      -5.1003      2.00000
     12      -5.0996      2.00000
     13      -5.0996      2.00000
     14      -5.0990      2.00000
     15      -5.0988      2.00000
     16      -4.1588      2.00000
     17      -4.1586      2.00000
     18      -4.1575      2.00000
     19      -4.1571      2.00000
     20      -4.1570      2.00000
     21      -4.1570      2.00000
     22      -4.1569      2.00000
     23      -4.1569      2.00000
     24      -4.1568      2.00000
     25      -4.1564      2.00000
     26      -4.1553      2.00000
     27      -4.1552      2.00000
     28      -3.8815      2.00000
     29      -3.8815      2.00000
     30      -3.8808      2.00000
     31      -3.8808      2.00000
     32      -3.5011      2.00000
     33      -3.4988      2.00000
     34      -3.4979      2.00000
     35      -3.4966      2.00000
     36      -3.4966      2.00000
     37      -3.4966      2.00000
     38      -3.4964      2.00000
     39      -3.4964      2.00000
     40      -3.4963      2.00000
     41      -3.4963      2.00000
     42      -3.4962      2.00000
     43      -3.4962      2.00000
     44      -3.4962      2.00000
     45      -3.4962      2.00000
     46      -3.4962      2.00000
     47      -3.4961      2.00000
     48      -3.4961      2.00000
     49      -3.4960      2.00000
     50      -3.4959      2.00000
     51      -3.4958      2.00000
     52      -3.4958      2.00000
     53      -3.4946      2.00000
     54      -3.4937      2.00000
     55      -3.4913      2.00000
     56      -2.0925      2.00000
     57      -2.0909      2.00000
     58      -2.0909      2.00000
     59      -2.0909      2.00000
     60      -2.0909      2.00000
     61      -2.0894      2.00000
     62      -1.9381      2.00000
     63      -1.9370      2.00000
     64      -1.9361      2.00000
     65      -1.9356      2.00000
     66      -1.9354      2.00000
     67      -1.9354      2.00000
     68      -1.9354      2.00000
     69      -1.9354      2.00000
     70      -1.9352      2.00000
     71      -1.9347      2.00000
     72      -1.9338      2.00000
     73      -1.9327      2.00000
     74      -1.2192      2.00000
     75      -1.2192      2.00000
     76      -1.2176      2.00000
     77      -1.2176      2.00000
     78      -0.6734      2.00000
     79      -0.6720      2.00000
     80      -0.6710      2.00000
     81      -0.6692      2.00000
     82      -0.6690      2.00000
     83      -0.6689      2.00000
     84      -0.6689      2.00000
     85      -0.6689      2.00000
     86      -0.6687      2.00000
     87      -0.6687      2.00000
     88      -0.6687      2.00000
     89      -0.6686      2.00000
     90      -0.6686      2.00000
     91      -0.6686      2.00000
     92      -0.6686      2.00000
     93      -0.6685      2.00000
     94      -0.6684      2.00000
     95      -0.6683      2.00000
     96      -0.6683      2.00000
     97      -0.6682      2.00000
     98      -0.6680      2.00000
     99      -0.6663      2.00000
    100      -0.6653      2.00000
    101      -0.6638      2.00000
    102       0.2144      2.00000
    103       0.2153      2.00000
    104       0.2155      2.00000
    105       0.2165      2.00000
    106       0.2167      2.00000
    107       0.2167      2.00000
    108       0.2168      2.00000
    109       0.2168      2.00000
    110       0.2170      2.00000
    111       0.2180      2.00000
    112       0.2182      2.00000
    113       0.2191      2.00000
    114       1.7663      2.00000
    115       1.7668      2.00000
    116       1.7675      2.00000
    117       1.7678      2.00000
    118       1.7678      2.00000
    119       1.7682      2.00000
    120       1.7688      2.00000
    121       1.7694      2.00000
    122       1.8844      2.00000
    123       1.8851      2.00000
    124       1.8857      2.00000
    125       1.8858      2.00000
    126       1.8859      2.00000
    127       1.8860      2.00000
    128       1.8860      2.00000
    129       1.8861      2.00000
    130       1.8862      2.00000
    131       1.8863      2.00000
    132       1.8868      2.00000
    133       1.8876      2.00000
    134       1.9777      2.00000
    135       1.9778      2.00000
    136       1.9782      2.00000
    137       1.9783      2.00000
    138       1.9785      2.00000
    139       1.9788      2.00000
    140       1.9789      2.00000
    141       1.9792      2.00000
    142       1.9794      2.00000
    143       1.9795      2.00000
    144       1.9799      2.00000
    145       1.9800      2.00000
    146       2.1397      2.00000
    147       2.1405      2.00000
    148       2.1411      2.00000
    149       2.1411      2.00000
    150       2.1416      2.00000
    151       2.1424      2.00000
    152       2.1841      2.00000
    153       2.1850      2.00000
    154       2.1851      2.00000
    155       2.1856      2.00000
    156       2.1862      2.00000
    157       2.1864      2.00000
    158       2.1866      2.00000
    159       2.1867      2.00000
    160       2.1867      2.00000
    161       2.1868      2.00000
    162       2.1868      2.00000
    163       2.1869      2.00000
    164       2.1869      2.00000
    165       2.1870      2.00000
    166       2.1870      2.00000
    167       2.1871      2.00000
    168       2.1871      2.00000
    169       2.1872      2.00000
    170       2.1874      2.00000
    171       2.1876      2.00000
    172       2.1883      2.00000
    173       2.1888      2.00000
    174       2.1890      2.00000
    175       2.1898      2.00000
    176       2.8559      2.00000
    177       2.8566      2.00000
    178       2.8566      2.00000
    179       2.8566      2.00000
    180       2.8566      2.00000
    181       2.8573      2.00000
    182       3.4891      2.00000
    183       3.4907      2.00000
    184       3.4913      2.00000
    185       3.4914      2.00000
    186       3.4920      2.00000
    187       3.4922      2.00000
    188       3.4923      2.00000
    189       3.4924      2.00000
    190       3.4924      2.00000
    191       3.4925      2.00000
    192       3.4925      2.00000
    193       3.4925      2.00000
    194       3.4925      2.00000
    195       3.4925      2.00000
    196       3.4926      2.00000
    197       3.4926      2.00000
    198       3.4927      2.00000
    199       3.4928      2.00000
    200       3.4928      2.00000
    201       3.4930      2.00000
    202       3.4937      2.00000
    203       3.4938      2.00000
    204       3.4943      2.00000
    205       3.4959      2.00000
    206       3.8020      2.00000
    207       3.8028      2.00000
    208       3.8036      2.00000
    209       3.8037      2.00000
    210       3.8038      2.00000
    211       3.8038      2.00000
    212       3.8038      2.00000
    213       3.8038      2.00000
    214       3.8040      2.00000
    215       3.8041      2.00000
    216       3.8049      2.00000
    217       3.8057      2.00000
    218       4.3511      2.00000
    219       4.3512      2.00000
    220       4.3522      2.00000
    221       4.3523      2.00000
    222       4.3527      2.00000
    223       4.3528      2.00000
    224       4.3528      2.00000
    225       4.3529      2.00000
    226       4.3533      2.00000
    227       4.3534      2.00000
    228       4.3544      2.00000
    229       4.3545      2.00000
    230       4.4764      2.00000
    231       4.4765      2.00000
    232       4.4774      2.00000
    233       4.4774      2.00000
    234       4.4780      2.00000
    235       4.4780      2.00000
    236       4.4790      2.00000
    237       4.4790      2.00000
    238       4.9072      2.00000
    239       4.9103      2.00000
    240       4.9112      2.00000
    241       4.9113      2.00000
    242       4.9115      2.00000
    243       4.9116      2.00000
    244       4.9116      2.00000
    245       4.9117      2.00000
    246       4.9118      2.00000
    247       4.9119      2.00000
    248       4.9120      2.00000
    249       4.9120      2.00000
    250       4.9123      2.00000
    251       4.9124      2.00000
    252       4.9133      2.00000
    253       4.9165      2.00000
    254       5.6589      2.00000
    255       5.6604      2.00000
    256       5.6619      2.00000
    257       6.3943      0.00000
    258       6.3951      0.00000
    259       6.3951      0.00000
    260       6.3951      0.00000
    261       6.3951      0.00000
    262       6.3960      0.00000
    263       6.7952      0.00000
    264       6.7956      0.00000
    265       6.7963      0.00000
    266       6.7963      0.00000
    267       6.7969      0.00000
    268       6.7973      0.00000
    269       7.1206      0.00000
    270       7.1206      0.00000
    271       7.1211      0.00000
    272       7.1211      0.00000
    273       7.1826      0.00000
    274       7.1835      0.00000
    275       7.1840      0.00000
    276       7.1848      0.00000
    277       7.1856      0.00000
    278       7.1858      0.00000
    279       7.1858      0.00000
    280       7.1858      0.00000
    281       7.1859      0.00000
    282       7.1859      0.00000
    283       7.1859      0.00000
    284       7.1859      0.00000
    285       7.1861      0.00000
    286       7.1861      0.00000
    287       7.1861      0.00000
    288       7.1861      0.00000
    289       7.1862      0.00000
    290       7.1862      0.00000
    291       7.1862      0.00000
    292       7.1863      0.00000
    293       7.1871      0.00000
    294       7.1880      0.00000
    295       7.1885      0.00000
    296       7.1894      0.00000
    297       7.6112      0.00000
    298       7.6117      0.00000
    299       7.6119      0.00000
    300       7.6122      0.00000
    301       7.6123      0.00000
    302       7.6125      0.00000
    303       7.6127      0.00000
    304       7.6133      0.00000
    305       8.0813      0.00000
    306       8.0817      0.00000
    307       8.0819      0.00000
    308       8.0823      0.00000
    309       8.0829      0.00000
    310       8.0829      0.00000
    311       8.0830      0.00000
    312       8.0830      0.00000
    313       8.0835      0.00000
    314       8.0840      0.00000
    315       8.0841      0.00000
    316       8.0846      0.00000
    317       8.1984      0.00000
    318       8.1993      0.00000
    319       8.2002      0.00000
    320       8.7789      0.00000
    321       8.7793      0.00000
    322       8.7870      0.00000


--------------------------------------------------------------------------------------------------------


 soft charge-density along one line, spin component           1
         0         1         2         3         4         5         6         7         8         9
 total charge-density along one line
 
 pseudopotential strength for first ion, spin component:           1
 18.431  -0.001  -0.000   0.000   0.000   0.000  -0.000  -0.000
 -0.001   0.006   0.000  -0.000  -0.000  -0.000   0.000   0.000
 -0.000   0.000   4.180   0.000  -0.000  -0.005  -0.000   0.000
  0.000  -0.000   0.000   4.180   0.000  -0.000  -0.005  -0.000
  0.000  -0.000  -0.000   0.000   4.180   0.000  -0.000  -0.005
  0.000  -0.000  -0.005  -0.000   0.000   0.005   0.000  -0.000
 -0.000   0.000  -0.000  -0.005  -0.000   0.000   0.005   0.000
 -0.000   0.000   0.000  -0.000  -0.005  -0.000   0.000   0.005
 total augmentation occupancy for first ion, spin component:           1
  1.463  -0.793  -0.003   0.000   0.000   0.004  -0.000   0.000
 -0.793   0.733   0.003   0.000   0.000  -0.004   0.000   0.000
 -0.003   0.003   1.037   0.000  -0.000  -0.551   0.000   0.000
  0.000   0.000   0.000   1.037   0.004   0.000  -0.551  -0.005
  0.000   0.000  -0.000   0.004   1.037   0.000  -0.005  -0.551
  0.004  -0.004  -0.551   0.000   0.000   0.351  -0.000  -0.000
 -0.000   0.000   0.000  -0.551  -0.005  -0.000   0.351   0.004
  0.000   0.000   0.000  -0.005  -0.551  -0.000   0.004   0.351


------------------------ aborting loop because EDIFF is reached ----------------------------------------


    CHARGE:  cpu time    0.4949: real time    0.4961
    FORLOC:  cpu time    0.1961: real time    0.1966
    FORNL :  cpu time    5.4033: real time    5.4161
    STRESS:  cpu time    8.6746: real time    8.6950
    FORCOR:  cpu time    0.4065: real time    0.4076
    FORHAR:  cpu time    0.2421: real time    0.2426
    MIXING:  cpu time    0.0099: real time    0.0099
    OFIELD:  cpu time    0.0001: real time    0.0001

  FORCE on cell =-STRESS in cart. coord.  units (eV):
  Direction    XX          YY          ZZ          XY          YZ          ZX
  --------------------------------------------------------------------------------------
  Alpha Z   210.78029   210.78029   210.78029
  Ewald   -4841.66448 -4841.68236 -4841.66540    -0.00000     0.00029     1.54970
  Hartree   330.57877   330.57586   330.57839     0.00000     0.00038     0.17688
  E(xc)   -1619.14457 -1619.14439 -1619.14457     0.00001     0.00001    -0.01325
  Local   -1899.81347 -1899.79360 -1899.81218     0.00027    -0.00043    -1.63671
  n-local  4936.76853  4936.76475  4936.76851    -0.00000     0.00002     0.31829
  augment  -736.53102  -736.53082  -736.53102    -0.00027    -0.00027    -0.01430
  Kinetic  3628.38852  3628.38956  3628.38855    -0.00000     0.00003    -0.20624
  Fock        0.00000     0.00000     0.00000     0.00000     0.00000     0.00000
  -------------------------------------------------------------------------------------
  Total       9.36258     9.35929     9.36258     0.00001     0.00002     0.17436
  in kB       5.73274     5.73073     5.73274     0.00001     0.00001     0.10676
  external pressure =        5.73 kB  Pullay stress =        0.00 kB


 VOLUME and BASIS-vectors are now :
 -----------------------------------------------------------------------------
  energy-cutoff  :      500.00
  volume of cell :     2616.64
      direct lattice vectors                 reciprocal lattice vectors
     0.000000000 10.937160696 10.937160696    -0.045715704  0.045715704  0.045715704
    10.937160696  0.000000000 10.937160696     0.045715704 -0.045715704  0.045715704
    10.937160696 10.937160696  0.000000000     0.045715704  0.045715704 -0.045715704

  length of vectors
    15.467480990 15.467480990 15.467480990     0.079181922  0.079181922  0.079181922


 FORCES acting on ions
    electron-ion (+dipol)            ewald-force                    non-local-force                 convergence-correction
 -----------------------------------------------------------------------------------------------
   -.785E-03 -.500E+00 0.596E-01   -.715E-15 0.445E+00 -.601E-01   -.184E-03 0.184E+00 -.146E-02   0.106E-06 0.156E-05 -.822E-06
   0.207E+00 0.121E-01 0.220E+00   -.179E+00 -.112E-01 -.191E+00   -.489E-01 -.340E-01 -.499E-01   -.357E-06 0.522E-06 -.651E-06
   0.748E-03 -.500E+00 0.599E-01   -.155E-13 0.445E+00 -.604E-01   0.195E-03 0.184E+00 -.150E-02   -.686E-07 0.138E-05 -.831E-06
   0.929E-03 0.886E-02 0.403E+00   -.846E-03 -.737E-02 -.347E+00   -.653E-03 -.669E-01 -.959E-01   0.545E-07 0.563E-06 -.121E-05
   0.735E-03 0.332E-01 0.719E-01   0.386E-13 -.311E-01 -.728E-01   0.214E-03 -.374E-02 -.145E-02   -.218E-07 0.894E-07 -.453E-06
   -.207E+00 0.142E-01 0.219E+00   0.178E+00 -.130E-01 -.190E+00   0.482E-01 -.340E-01 -.492E-01   0.414E-06 0.379E-06 -.728E-06
   -.799E-03 0.331E-01 0.722E-01   0.522E-13 -.310E-01 -.732E-01   -.165E-03 -.377E-02 -.146E-02   0.315E-07 -.760E-09 -.494E-06
   0.227E-04 0.174E-01 0.366E-01   -.182E-04 -.168E-01 -.338E-01   -.307E-05 -.103E-02 -.317E-02   0.196E-06 0.500E-06 0.198E-06
   -.540E-01 0.370E-03 0.668E-02   0.603E-01 0.126E-01 -.109E-03   -.526E-02 -.959E-02 -.657E-02   0.783E-06 -.237E-06 -.163E-06
   -.223E+00 0.419E-01 -.181E+00   0.195E+00 -.418E-01 0.153E+00   0.485E-01 -.329E-01 0.480E-01   0.662E-06 0.234E-06 0.179E-06
   0.841E-02 -.237E-01 0.137E-01   -.240E-02 0.356E-01 -.815E-02   -.671E-02 -.709E-02 -.667E-02   0.482E-06 -.117E-06 0.198E-06
   -.197E+00 -.900E-02 -.180E+00   0.167E+00 0.110E-01 0.153E+00   0.499E-01 -.346E-01 0.475E-01   0.710E-06 0.145E-06 0.283E-06
   -.485E-02 0.108E-01 0.152E-01   0.576E-02 -.106E-01 -.161E-01   -.435E-03 -.364E-03 0.521E-03   0.277E-06 0.409E-07 0.129E-06
   0.283E-02 -.593E-02 0.310E-01   -.546E-02 0.752E-02 -.295E-01   0.213E-02 -.139E-02 -.107E-02   0.344E-06 -.127E-06 -.205E-07
   -.673E-01 0.349E-01 0.818E-02   0.685E-01 -.337E-01 -.805E-02   0.103E-02 -.287E-02 0.620E-03   0.722E-06 0.383E-08 -.219E-06
   -.229E-01 0.450E-01 0.305E-01   0.217E-01 -.453E-01 -.296E-01   0.714E-03 0.354E-03 -.507E-03   -.133E-07 -.115E-06 -.216E-06
   -.714E-02 0.814E-03 -.324E-02   0.803E-02 0.350E-02 0.229E-02   -.685E-03 -.274E-02 0.674E-03   0.470E-07 0.390E-06 0.159E-06
   -.204E-01 -.340E-02 -.780E-02   0.216E-01 -.262E-02 0.928E-02   -.144E-02 0.376E-02 -.243E-02   -.600E-07 0.382E-06 -.390E-06
   -.783E-02 0.187E-02 -.254E-02   0.804E-02 0.346E-02 0.229E-02   -.622E-04 -.376E-02 -.231E-04   0.537E-07 -.292E-07 -.122E-07
   -.397E-02 -.132E-01 -.172E-03   0.573E-02 0.738E-02 0.353E-02   -.239E-02 0.380E-02 -.368E-02   0.105E-06 0.846E-07 -.128E-06
   -.202E-01 0.901E-02 -.253E-02   0.208E-01 -.798E-02 0.229E-02   -.874E-04 -.127E-02 -.246E-04   0.201E-06 0.178E-06 -.298E-06
   -.112E-01 0.546E-02 0.363E-02   0.101E-01 -.475E-02 -.219E-02   0.911E-03 -.682E-03 -.112E-02   0.207E-06 0.399E-07 -.561E-07
   -.195E-01 0.795E-02 -.323E-02   0.208E-01 -.795E-02 0.229E-02   -.714E-03 -.246E-03 0.667E-03   0.175E-06 0.185E-06 -.287E-06
   -.277E-01 0.152E-01 -.400E-02   0.259E-01 -.148E-01 0.356E-02   0.187E-02 -.731E-03 0.130E-03   0.206E-06 0.161E-06 -.346E-06
   -.265E-02 -.247E-01 0.126E-02   -.218E-02 0.356E-01 -.792E-02   0.606E-02 -.607E-02 0.742E-02   -.151E-06 -.623E-07 0.976E-07
   -.155E-02 -.864E-02 0.569E-02   -.160E-02 0.211E-02 -.766E-02   0.324E-02 0.472E-02 0.283E-02   0.230E-06 0.319E-06 0.368E-06
   -.655E-01 0.498E-03 -.663E-02   0.602E-01 0.124E-01 0.109E-03   0.823E-02 -.960E-02 0.654E-02   0.457E-06 -.232E-06 -.281E-06
   -.196E-01 -.245E-01 -.249E-02   0.159E-01 0.197E-01 0.192E-02   0.383E-02 0.309E-02 0.139E-02   0.256E-06 -.114E-06 -.586E-07
   -.669E-01 0.346E-01 0.661E-02   0.681E-01 -.337E-01 -.802E-02   0.959E-03 -.252E-02 0.304E-03   0.275E-06 -.741E-07 -.149E-06
   -.400E-01 -.369E-02 0.114E-02   0.374E-01 0.543E-02 0.192E-02   0.238E-02 -.169E-02 -.224E-02   0.912E-07 0.105E-06 -.213E-06
   -.412E-02 0.944E-02 0.145E-01   0.573E-02 -.106E-01 -.160E-01   -.119E-02 0.980E-03 0.120E-02   -.261E-07 0.140E-06 0.157E-06
   -.219E-01 0.122E-01 0.934E-02   0.199E-01 -.121E-01 -.766E-02   0.179E-02 -.673E-04 -.812E-03   0.831E-08 0.872E-07 -.103E-06
   0.540E-01 0.468E-03 0.635E-02   -.602E-01 0.124E-01 0.109E-03   0.518E-02 -.957E-02 -.645E-02   -.735E-06 -.400E-06 -.221E-06
   0.196E+00 -.712E-02 -.179E+00   -.167E+00 0.946E-02 0.153E+00   -.493E-01 -.346E-01 0.468E-01   -.672E-06 -.222E-09 0.286E-06
   0.669E-01 0.350E-01 0.809E-02   -.681E-01 -.337E-01 -.802E-02   -.102E-02 -.284E-02 0.675E-03   -.447E-06 -.204E-06 -.154E-06
   0.222E+00 0.438E-01 -.180E+00   -.194E+00 -.434E-01 0.153E+00   -.479E-01 -.329E-01 0.474E-01   -.697E-06 0.789E-07 0.304E-06
   0.482E-02 0.108E-01 0.152E-01   -.573E-02 -.106E-01 -.160E-01   0.432E-03 -.365E-03 0.526E-03   -.114E-06 -.140E-07 0.194E-06
   0.227E-01 0.448E-01 0.303E-01   -.215E-01 -.451E-01 -.294E-01   -.711E-03 0.364E-03 -.502E-03   0.395E-07 -.270E-06 -.442E-07
   -.814E-02 -.237E-01 0.134E-01   0.218E-02 0.356E-01 -.792E-02   0.664E-02 -.709E-02 -.660E-02   -.307E-06 -.318E-07 0.381E-06
   -.282E-02 -.609E-02 0.309E-01   0.544E-02 0.767E-02 -.294E-01   -.213E-02 -.139E-02 -.106E-02   -.191E-06 -.980E-07 0.211E-06
   0.787E-02 -.929E-02 0.207E-02   -.808E-02 0.907E-02 -.229E-02   0.620E-04 -.138E-03 0.484E-03   0.101E-07 -.246E-06 0.205E-06
   0.847E-04 -.250E-01 0.910E-02   -.831E-04 0.278E-01 -.131E-01   -.615E-05 -.236E-02 0.330E-02   0.492E-07 -.515E-06 0.150E-06
   0.783E-02 0.478E-02 0.254E-02   -.804E-02 -.417E-02 -.229E-02   0.630E-04 -.816E-03 0.222E-04   -.826E-07 -.141E-06 0.296E-06
   0.272E-01 -.825E-02 0.101E-01   -.261E-01 0.102E-01 -.121E-01   -.735E-03 -.156E-02 0.171E-02   -.100E-06 -.259E-06 0.116E-06
   -.781E-02 0.474E-02 0.253E-02   0.803E-02 -.414E-02 -.229E-02   -.681E-04 -.813E-03 0.260E-04   -.254E-07 -.112E-06 0.494E-06
   -.112E-04 0.834E-02 0.110E-01   0.947E-05 -.738E-02 -.112E-01   0.149E-05 -.761E-03 0.122E-03   0.677E-07 -.208E-07 0.215E-06
   -.777E-02 -.933E-02 0.207E-02   0.799E-02 0.911E-02 -.229E-02   -.691E-04 -.134E-03 0.489E-03   -.176E-06 -.345E-06 0.961E-08
   -.271E-01 -.840E-02 0.101E-01   0.261E-01 0.103E-01 -.121E-01   0.728E-03 -.156E-02 0.171E-02   0.224E-06 -.114E-06 0.129E-06
   -.233E-02 0.533E-03 -.803E-02   0.228E-02 -.499E-03 0.804E-02   -.211E-03 -.265E-03 0.125E-03   -.288E-06 -.872E-07 0.786E-07
   -.206E-02 -.123E-02 -.233E-02   0.293E-02 0.226E-02 0.112E-02   -.697E-03 -.794E-03 0.106E-02   -.210E-06 -.560E-07 0.102E-06
   -.989E-02 0.108E-01 -.152E-01   0.103E-01 -.106E-01 0.161E-01   -.478E-03 -.370E-03 -.520E-03   -.215E-06 -.231E-07 0.278E-06
   -.362E-02 0.314E-02 -.741E-02   0.450E-02 -.211E-02 0.669E-02   -.702E-03 -.853E-03 0.580E-03   0.206E-07 0.755E-07 0.447E-06
   -.120E-01 0.150E-01 -.749E-02   0.128E-01 -.156E-01 0.802E-02   -.582E-03 0.464E-03 -.309E-03   -.316E-06 -.181E-06 -.142E-06
   -.149E-01 0.106E-01 -.724E-02   0.146E-01 -.100E-01 0.669E-02   0.207E-03 -.587E-03 0.415E-03   0.650E-07 -.101E-06 -.187E-08
   -.442E-02 0.474E-02 -.343E-03   0.475E-02 -.553E-02 0.544E-05   -.314E-03 0.569E-03 0.337E-03   -.246E-06 -.368E-07 0.164E-07
   -.133E-01 0.628E-02 -.216E-02   0.130E-01 -.565E-02 0.111E-02   0.212E-03 -.529E-03 0.894E-03   -.162E-06 -.184E-06 -.168E-06
   -.273E-03 0.149E-01 -.596E-01   0.488E-14 -.141E-01 0.601E-01   -.678E-03 -.262E-02 0.148E-02   0.130E-06 -.301E-06 0.758E-06
   -.413E-02 -.126E-01 -.177E-01   0.653E-02 0.145E-01 0.165E-01   -.206E-02 -.150E-02 0.853E-03   -.661E-07 -.273E-06 0.459E-06
   -.733E-03 0.548E-01 -.596E-01   -.777E-14 -.537E-01 0.601E-01   -.216E-03 -.280E-02 0.148E-02   -.941E-08 -.408E-06 0.262E-06
   -.256E-01 0.259E-01 -.427E-01   0.270E-01 -.250E-01 0.409E-01   -.141E-02 -.612E-03 0.103E-02   -.119E-06 -.276E-06 0.859E-07
   0.137E-03 0.348E-01 0.463E-02   -.395E-13 -.356E-01 -.475E-02   -.149E-03 0.509E-03 0.125E-03   -.120E-06 -.256E-06 0.971E-08
   -.250E-01 0.508E-01 -.170E-01   0.244E-01 -.512E-01 0.164E-01   0.203E-03 0.539E-03 0.266E-03   -.201E-06 -.283E-06 -.171E-06
   0.599E-03 -.509E-02 0.458E-02   0.191E-13 0.405E-02 -.471E-02   -.611E-03 0.696E-03 0.126E-03   0.260E-07 -.118E-06 0.289E-06
   -.355E-02 0.123E-01 0.793E-02   0.401E-02 -.117E-01 -.806E-02   -.450E-03 -.354E-03 0.874E-04   -.200E-06 0.657E-07 0.186E-06
   0.195E-01 0.799E-02 -.323E-02   -.208E-01 -.798E-02 0.229E-02   0.713E-03 -.248E-03 0.672E-03   -.370E-07 0.209E-06 -.650E-07
   0.204E-01 -.335E-02 -.779E-02   -.216E-01 -.267E-02 0.929E-02   0.147E-02 0.378E-02 -.245E-02   0.120E-06 0.252E-06 -.416E-06
   0.201E-01 0.897E-02 -.254E-02   -.208E-01 -.795E-02 0.229E-02   0.980E-04 -.126E-02 -.238E-04   0.167E-07 0.518E-07 -.373E-06
   0.276E-01 0.152E-01 -.398E-02   -.259E-01 -.147E-01 0.355E-02   -.184E-02 -.712E-03 0.121E-03   0.117E-06 0.583E-07 -.276E-06
   0.781E-02 0.183E-02 -.253E-02   -.803E-02 0.350E-02 0.229E-02   0.689E-04 -.376E-02 -.256E-04   0.476E-07 0.190E-06 0.567E-08
   0.112E-01 0.541E-02 0.360E-02   -.101E-01 -.472E-02 -.218E-02   -.907E-03 -.677E-03 -.111E-02   -.217E-07 0.614E-07 -.596E-07
   0.714E-02 0.851E-03 -.322E-02   -.804E-02 0.346E-02 0.229E-02   0.688E-03 -.275E-02 0.666E-03   -.130E-06 0.272E-07 0.830E-07
   0.396E-02 -.131E-01 -.195E-03   -.574E-02 0.736E-02 0.357E-02   0.241E-02 0.382E-02 -.369E-02   0.776E-07 0.166E-06 0.360E-07
   0.120E-01 0.151E-01 -.752E-02   -.128E-01 -.157E-01 0.805E-02   0.584E-03 0.471E-03 -.310E-03   -.179E-07 -.374E-07 -.104E-06
   0.133E-01 0.633E-02 -.217E-02   -.131E-01 -.569E-02 0.112E-02   -.214E-03 -.533E-03 0.897E-03   -.996E-07 0.902E-08 -.145E-06
   0.991E-02 0.108E-01 -.152E-01   -.103E-01 -.106E-01 0.161E-01   0.486E-03 -.360E-03 -.528E-03   0.130E-06 0.335E-07 0.443E-07
   0.149E-01 0.107E-01 -.726E-02   -.146E-01 -.100E-01 0.670E-02   -.210E-03 -.591E-03 0.417E-03   -.135E-06 -.250E-07 -.983E-07
   0.234E-02 0.497E-03 -.801E-02   -.230E-02 -.465E-03 0.802E-02   0.213E-03 -.262E-03 0.119E-03   0.621E-07 0.293E-08 0.106E-06
   0.364E-02 0.310E-02 -.741E-02   -.452E-02 -.208E-02 0.669E-02   0.699E-03 -.850E-03 0.578E-03   -.124E-06 0.128E-06 0.335E-06
   0.445E-02 0.477E-02 -.330E-03   -.478E-02 -.556E-02 -.544E-05   0.312E-03 0.568E-03 0.336E-03   0.771E-07 -.333E-07 -.898E-07
   0.209E-02 -.123E-02 -.232E-02   -.297E-02 0.225E-02 0.111E-02   0.694E-03 -.793E-03 0.106E-02   -.562E-07 -.104E-06 -.716E-07
   0.142E-03 0.132E-01 -.170E-01   0.000E+00 -.130E-01 0.175E-01   -.152E-03 -.432E-03 -.151E-03   -.192E-07 -.107E-07 0.211E-06
   0.286E-02 0.105E-01 -.105E-01   -.212E-02 -.100E-01 0.100E-01   -.559E-03 -.429E-03 0.351E-03   0.600E-07 0.302E-08 0.919E-07
   -.131E-03 0.132E-01 -.170E-01   0.211E-13 -.130E-01 0.175E-01   0.145E-03 -.433E-03 -.154E-03   0.909E-07 0.311E-07 0.137E-06
   0.116E-04 0.130E-01 -.187E-01   -.786E-05 -.127E-01 0.180E-01   -.191E-05 -.417E-03 0.539E-03   0.412E-07 -.251E-06 0.426E-06
   -.136E-03 0.854E-02 -.462E-02   0.207E-13 -.920E-02 0.475E-02   0.148E-03 0.451E-03 -.126E-03   0.198E-07 0.966E-07 -.241E-06
   -.284E-02 0.105E-01 -.105E-01   0.210E-02 -.100E-01 0.100E-01   0.557E-03 -.424E-03 0.350E-03   -.316E-07 -.115E-06 -.916E-07
   0.137E-03 0.857E-02 -.464E-02   0.000E+00 -.923E-02 0.477E-02   -.149E-03 0.452E-03 -.125E-03   0.464E-07 -.862E-08 -.568E-07
   0.606E-05 0.802E-02 -.225E-02   -.769E-05 -.738E-02 0.204E-02   0.129E-05 -.435E-03 0.162E-03   -.333E-07 -.226E-07 -.196E-06
   0.106E-01 0.948E-02 -.145E-01   -.103E-01 -.106E-01 0.161E-01   -.150E-03 0.979E-03 -.121E-02   -.549E-08 0.347E-07 0.858E-07
   0.614E-02 0.856E-02 -.223E-01   -.466E-02 -.778E-02 0.210E-01   -.102E-02 -.829E-03 0.152E-02   0.124E-06 0.431E-07 0.262E-06
   0.120E-01 0.147E-01 -.721E-02   -.128E-01 -.156E-01 0.802E-02   0.644E-03 0.794E-03 -.667E-03   0.209E-06 -.369E-07 -.411E-06
   0.968E-02 0.212E-01 -.223E-01   -.867E-02 -.208E-01 0.209E-01   -.566E-03 -.539E-03 0.155E-02   0.191E-06 0.967E-07 -.159E-06
   0.482E-02 0.474E-02 0.330E-03   -.475E-02 -.553E-02 0.544E-05   -.614E-04 0.568E-03 -.336E-03   0.158E-06 0.117E-06 -.108E-06
   0.510E-02 0.165E-01 -.286E-02   -.505E-02 -.160E-01 0.302E-02   -.498E-04 -.250E-03 -.113E-03   0.198E-06 0.125E-06 -.342E-06
   0.342E-02 -.484E-03 -.695E-02   -.228E-02 -.499E-03 0.804E-02   -.855E-03 0.752E-03 -.874E-03   0.388E-08 0.309E-08 0.200E-06
   0.156E-02 0.383E-02 -.286E-02   -.104E-02 -.303E-02 0.304E-02   -.501E-03 -.540E-03 -.138E-03   0.545E-07 0.198E-07 0.845E-07
   0.673E-01 0.346E-01 0.658E-02   -.685E-01 -.337E-01 -.805E-02   -.969E-03 -.254E-02 0.354E-03   -.608E-06 -.167E-07 -.769E-07
   0.220E-01 0.122E-01 0.936E-02   -.200E-01 -.121E-01 -.769E-02   -.181E-02 -.771E-04 -.811E-03   -.127E-06 0.177E-06 0.242E-06
   0.655E-01 0.340E-03 -.639E-02   -.603E-01 0.126E-01 -.109E-03   -.813E-02 -.956E-02 0.648E-02   -.509E-06 -.228E-06 -.246E-06
   0.399E-01 -.384E-02 0.120E-02   -.374E-01 0.557E-02 0.187E-02   -.238E-02 -.170E-02 -.226E-02   -.133E-06 0.281E-08 -.190E-06
   0.238E-02 -.247E-01 0.153E-02   0.240E-02 0.356E-01 -.815E-02   -.600E-02 -.607E-02 0.735E-02   -.549E-07 -.188E-06 -.132E-07
   0.195E-01 -.246E-01 -.246E-02   -.158E-01 0.197E-01 0.187E-02   -.384E-02 0.311E-02 0.140E-02   -.372E-06 -.118E-06 -.206E-07
   0.415E-02 0.950E-02 0.145E-01   -.576E-02 -.106E-01 -.161E-01   0.119E-02 0.978E-03 0.121E-02   0.379E-07 0.162E-06 0.257E-06
   0.156E-02 -.857E-02 0.571E-02   0.162E-02 0.206E-02 -.769E-02   -.326E-02 0.473E-02 0.284E-02   -.412E-06 -.522E-07 0.264E-06
   0.801E-03 0.548E-01 -.599E-01   0.546E-13 -.538E-01 0.604E-01   0.162E-03 -.282E-02 0.149E-02   -.308E-07 -.311E-06 0.466E-06
   0.251E-01 0.510E-01 -.171E-01   -.246E-01 -.514E-01 0.165E-01   -.203E-03 0.531E-03 0.270E-03   -.474E-07 -.169E-06 -.529E-07
   0.337E-03 0.148E-01 -.598E-01   0.346E-13 -.140E-01 0.604E-01   0.626E-03 -.264E-02 0.149E-02   0.253E-07 -.417E-06 0.702E-06
   0.257E-01 0.260E-01 -.427E-01   -.271E-01 -.250E-01 0.410E-01   0.141E-02 -.614E-03 0.103E-02   -.259E-09 -.305E-06 0.102E-06
   -.599E-03 -.506E-02 0.468E-02   0.294E-13 0.402E-02 -.481E-02   0.611E-03 0.695E-03 0.124E-03   0.316E-08 -.231E-06 0.301E-06
   0.410E-02 -.127E-01 -.176E-01   -.650E-02 0.146E-01 0.164E-01   0.207E-02 -.150E-02 0.845E-03   -.238E-07 -.333E-06 0.355E-06
   -.136E-03 0.350E-01 0.464E-02   0.648E-13 -.358E-01 -.477E-02   0.149E-03 0.511E-03 0.125E-03   0.572E-07 -.176E-06 -.950E-07
   0.356E-02 0.123E-01 0.797E-02   -.403E-02 -.118E-01 -.811E-02   0.452E-03 -.357E-03 0.896E-04   0.769E-07 -.626E-07 0.218E-06
   -.106E-01 0.946E-02 -.145E-01   0.103E-01 -.106E-01 0.161E-01   0.152E-03 0.979E-03 -.121E-02   -.141E-06 0.168E-06 0.126E-06
   -.973E-02 0.212E-01 -.223E-01   0.870E-02 -.208E-01 0.210E-01   0.574E-03 -.553E-03 0.156E-02   -.232E-06 0.946E-07 -.646E-07
   -.344E-02 -.522E-03 -.693E-02   0.230E-02 -.465E-03 0.802E-02   0.859E-03 0.756E-03 -.874E-03   0.130E-06 -.312E-07 0.324E-07
   -.617E-02 0.853E-02 -.223E-01   0.468E-02 -.774E-02 0.210E-01   0.103E-02 -.841E-03 0.154E-02   -.154E-06 0.509E-07 0.212E-06
   -.485E-02 0.477E-02 0.343E-03   0.478E-02 -.556E-02 -.544E-05   0.634E-04 0.569E-03 -.337E-03   0.784E-07 0.146E-08 -.125E-06
   -.156E-02 0.383E-02 -.282E-02   0.105E-02 -.303E-02 0.301E-02   0.498E-03 -.540E-03 -.137E-03   -.270E-07 -.111E-06 0.293E-07
   -.120E-01 0.148E-01 -.724E-02   0.128E-01 -.157E-01 0.805E-02   -.644E-03 0.793E-03 -.668E-03   -.119E-06 0.679E-07 -.245E-06
   -.512E-02 0.165E-01 -.287E-02   0.508E-02 -.161E-01 0.303E-02   0.475E-04 -.252E-03 -.114E-03   -.478E-07 0.478E-07 -.214E-06
   0.714E-02 0.301E-02 0.323E-02   -.803E-02 -.414E-02 -.229E-02   0.686E-03 0.915E-03 -.672E-03   -.295E-07 0.292E-06 0.249E-06
   -.115E-04 0.700E-02 -.726E-02   0.761E-05 -.738E-02 0.607E-02   0.244E-05 0.881E-03 0.419E-03   -.581E-07 -.195E-06 0.379E-06
   0.709E-02 -.103E-01 0.370E-02   -.799E-02 0.911E-02 -.229E-02   0.686E-03 0.882E-03 -.113E-02   0.108E-06 -.893E-07 -.229E-06
   0.758E-02 0.330E-02 -.319E-02   -.706E-02 -.301E-02 0.301E-02   -.153E-03 0.120E-03 -.209E-03   0.436E-07 -.869E-07 0.534E-07
   -.718E-02 -.103E-01 0.369E-02   0.808E-02 0.907E-02 -.229E-02   -.687E-03 0.880E-03 -.113E-02   0.531E-07 -.902E-07 -.723E-07
   -.266E-04 -.362E-03 0.870E-03   0.259E-04 0.132E-02 -.474E-04   0.740E-06 -.645E-03 -.837E-03   0.441E-07 -.105E-06 -.114E-06
   -.714E-02 0.305E-02 0.323E-02   0.804E-02 -.417E-02 -.229E-02   -.687E-03 0.913E-03 -.668E-03   -.378E-07 0.115E-06 0.388E-07
   -.761E-02 0.334E-02 -.320E-02   0.709E-02 -.305E-02 0.301E-02   0.154E-03 0.116E-03 -.209E-03   0.119E-06 -.195E-06 0.158E-06
 -----------------------------------------------------------------------------------------------
   -.103E-04 -.482E-05 -.151E-05   0.173E-12 -.400E-12 0.282E-13   0.104E-04 0.579E-05 0.219E-05   0.726E-07 0.371E-07 -.736E-07
 
 
 POSITION                                       TOTAL-FORCE (eV/Angst)
 -----------------------------------------------------------------------------------
      1.36715      1.35715      1.36715        -0.000969      0.128737     -0.002012
      0.00000      0.00000      0.00000        -0.020046     -0.033073     -0.020716
      1.36715      4.09144      4.10144         0.000943      0.128723     -0.002040
      0.00000      2.73429      2.73429        -0.000569     -0.065419     -0.040469
      1.36715      6.83573      6.83573         0.000949     -0.001713     -0.002388
      0.00000      5.46858      5.46858         0.019476     -0.032763     -0.020148
      1.36715      9.57002      9.57002        -0.000964     -0.001727     -0.002405
      0.00000      8.20287      8.20287         0.000002     -0.000416     -0.000394
      4.10144      1.36715      4.10144         0.001070      0.003337     -0.000002
      2.73429      0.00000      2.73429         0.020179     -0.032783      0.020857
      4.10144      4.10144      6.83573        -0.000694      0.004817     -0.001115
      2.73429      2.73429      5.46858         0.020179     -0.032609      0.020860
      4.10144      6.83573      9.57002         0.000480     -0.000151     -0.000358
      2.73429      5.46858      8.20287        -0.000502      0.000195      0.000420
      4.10144      9.57002     12.30431         0.002243     -0.001633      0.000754
      2.73429      8.20287     10.93716        -0.000500      0.000022      0.000420
      6.83573      1.36715      6.83573         0.000208      0.001575     -0.000272
      5.46858      0.00000      5.46858        -0.000279     -0.002263     -0.000948
      6.83573      4.10144      9.57002         0.000150      0.001576     -0.000272
      5.46858      2.73429      8.20287        -0.000634     -0.001975     -0.000315
      6.83573      6.83573     12.30431         0.000521     -0.000247     -0.000271
      5.46858      5.46858     10.93716        -0.000239      0.000023      0.000318
      6.83573      9.57002     15.03860         0.000579     -0.000246     -0.000270
      5.46858      8.20287     13.67145         0.000118     -0.000265     -0.000316
      9.57002      1.36715      9.57002         0.001238      0.004817      0.000757
      8.20287      0.00000      8.20287         0.000090     -0.001805      0.000859
      9.57002      4.10144     12.30431         0.002988      0.003347      0.000015
      8.20287      2.73429     10.93716         0.000134     -0.001803      0.000818
      9.57002      6.83573     15.03860         0.002168     -0.001620     -0.001101
      8.20287      5.46858     13.67145        -0.000142      0.000042      0.000818
      9.57002      9.57002     17.77289         0.000421     -0.000152     -0.000358
      8.20287      8.20287     16.40574        -0.000190      0.000046      0.000860
      4.10144      4.10144      1.36715        -0.001070      0.003342      0.000003
      2.73429      2.73429      0.00000        -0.019610     -0.032309      0.020294
      4.10144      6.83573      4.10144        -0.002226     -0.001616      0.000742
      2.73429      5.46858      2.73429        -0.019606     -0.032482      0.020296
      4.10144      9.57002      6.83573        -0.000479     -0.000150     -0.000358
      2.73429      8.20287      5.46858         0.000501      0.000022      0.000424
      4.10144     12.30431      9.57002         0.000676      0.004810     -0.001097
      2.73429     10.93716      8.20287         0.000495      0.000196      0.000425
      6.83573      4.10144      4.10144        -0.000149     -0.000356      0.000272
      5.46858      2.73429      2.73429        -0.000004      0.000501     -0.000681
      6.83573      6.83573      6.83573        -0.000150     -0.000209      0.000272
      5.46858      5.46858      5.46858         0.000321      0.000348     -0.000362
      6.83573      9.57002      9.57002         0.000149     -0.000207      0.000270
      5.46858      8.20287      8.20287        -0.000000      0.000198     -0.000037
      6.83573     12.30431     12.30431         0.000150     -0.000357      0.000270
      5.46858     10.93716     10.93716        -0.000326      0.000351     -0.000356
      9.57002      4.10144      6.83573        -0.000260     -0.000231      0.000137
      8.20287      2.73429      5.46858         0.000181      0.000234     -0.000151
      9.57002      6.83573      9.57002        -0.000064     -0.000150      0.000358
      8.20287      5.46858      8.20287         0.000178      0.000177     -0.000140
      9.57002      9.57002     12.30431         0.000210     -0.000140      0.000221
      8.20287      8.20287     10.93716        -0.000062      0.000044     -0.000139
      9.57002     12.30431     15.03860         0.000014     -0.000221     -0.000000
      8.20287     10.93716     13.67145        -0.000058      0.000100     -0.000150
     12.30431      4.10144      9.57002        -0.000950     -0.001822      0.002016
     10.93716      2.73429      8.20287         0.000336      0.000405     -0.000362
     12.30431      6.83573     12.30431        -0.000950     -0.001737      0.002018
     10.93716      5.46858     10.93716         0.000000      0.000327     -0.000683
     12.30431      9.57002     15.03860        -0.000012     -0.000260     -0.000002
     10.93716      8.20287     13.67145        -0.000321      0.000142     -0.000365
     12.30431     12.30431     17.77289        -0.000012     -0.000346     -0.000002
     10.93716     10.93716     16.40574         0.000014      0.000220     -0.000044
      6.83573      6.83573      1.36715        -0.000579     -0.000247     -0.000272
      5.46858      5.46858      0.00000         0.000275     -0.002244     -0.000947
      6.83573      9.57002      4.10144        -0.000520     -0.000245     -0.000271
      5.46858      8.20287      2.73429        -0.000116     -0.000261     -0.000315
      6.83573     12.30431      6.83573        -0.000150      0.001565     -0.000270
      5.46858     10.93716      5.46858         0.000238      0.000022      0.000315
      6.83573     15.03860      9.57002        -0.000208      0.001566     -0.000270
      5.46858     13.67145      8.20287         0.000631     -0.001959     -0.000316
      9.57002      6.83573      4.10144        -0.000209     -0.000141      0.000220
      8.20287      5.46858      2.73429         0.000058      0.000101     -0.000152
      9.57002      9.57002      6.83573         0.000061     -0.000151      0.000357
      8.20287      8.20287      5.46858         0.000061      0.000044     -0.000140
      9.57002     12.30431      9.57002         0.000258     -0.000230      0.000137
      8.20287     10.93716      8.20287        -0.000176      0.000176     -0.000139
      9.57002     15.03860     12.30431        -0.000013     -0.000221     -0.000000
      8.20287     13.67145     10.93716        -0.000179      0.000233     -0.000151
     12.30431      6.83573      6.83573        -0.000010     -0.000236      0.000372
     10.93716      5.46858      5.46858         0.000183      0.000051     -0.000103
     12.30431      9.57002      9.57002         0.000014     -0.000236      0.000372
     10.93716      8.20287      8.20287         0.000002     -0.000110     -0.000160
     12.30431     12.30431     12.30431         0.000012     -0.000207      0.000002
     10.93716     10.93716     10.93716        -0.000182      0.000050     -0.000105
     12.30431     15.03860     15.03860        -0.000012     -0.000207      0.000001
     10.93716     13.67145     13.67145        -0.000000      0.000212     -0.000048
     15.03860      6.83573      9.57002         0.000121     -0.000152      0.000358
     13.67145      5.46858      8.20287         0.000466     -0.000051      0.000218
     15.03860      9.57002     12.30431        -0.000151     -0.000142      0.000138
     13.67145      8.20287     10.93716         0.000451     -0.000142      0.000218
     15.03860     12.30431     15.03860         0.000011     -0.000220      0.000000
     13.67145     10.93716     13.67145         0.000003      0.000170      0.000046
     15.03860     15.03860     17.77289         0.000283     -0.000231      0.000221
     13.67145     13.67145     16.40574         0.000017      0.000261      0.000046
      9.57002      9.57002      1.36715        -0.002183     -0.001629     -0.001111
      8.20287      8.20287      0.00000         0.000188      0.000040      0.000861
      9.57002     12.30431      4.10144        -0.002976      0.003332     -0.000015
      8.20287     10.93716      2.73429         0.000148      0.000043      0.000811
      9.57002     15.03860      6.83573        -0.001217      0.004810      0.000738
      8.20287     13.67145      5.46858        -0.000129     -0.001785      0.000810
      9.57002     17.77289      9.57002        -0.000420     -0.000149     -0.000358
      8.20287     16.40574      8.20287        -0.000085     -0.001784      0.000862
     12.30431      9.57002      4.10144         0.000963     -0.001752      0.002034
     10.93716      8.20287      2.73429         0.000319      0.000142     -0.000363
     12.30431     12.30431      6.83573         0.000962     -0.001838      0.002036
     10.93716     10.93716      5.46858         0.000003      0.000329     -0.000685
     12.30431     15.03860      9.57002         0.000012     -0.000346     -0.000001
     10.93716     13.67145      8.20287        -0.000330      0.000408     -0.000366
     12.30431     17.77289     12.30431         0.000012     -0.000261     -0.000001
     10.93716     16.40574     10.93716        -0.000015      0.000221     -0.000044
     15.03860      9.57002      6.83573        -0.000122     -0.000149      0.000357
     13.67145      8.20287      5.46858        -0.000453     -0.000145      0.000220
     15.03860     12.30431      9.57002        -0.000284     -0.000231      0.000220
     13.67145     10.93716      8.20287        -0.000467     -0.000054      0.000220
     15.03860     15.03860     12.30431        -0.000011     -0.000221     -0.000000
     13.67145     13.67145     10.93716        -0.000016      0.000262      0.000046
     15.03860     17.77289     15.03860         0.000151     -0.000139      0.000137
     13.67145     16.40574     13.67145        -0.000001      0.000171      0.000046
     17.77289      9.57002      9.57002        -0.000208     -0.000208      0.000271
     16.40574      8.20287      8.20287        -0.000002      0.000502     -0.000772
     17.77289     12.30431     12.30431        -0.000208     -0.000356      0.000272
     16.40574     10.93716     10.93716         0.000363      0.000406     -0.000394
     17.77289     15.03860     15.03860         0.000208     -0.000356      0.000270
     16.40574     13.67145     13.67145         0.000000      0.000311     -0.000015
     17.77289     17.77289     17.77289         0.000209     -0.000208      0.000271
     16.40574     16.40574     16.40574        -0.000365      0.000407     -0.000394
 -----------------------------------------------------------------------------------
    total drift:                                0.000000      0.000001      0.000001


--------------------------------------------------------------------------------------------------------



  FREE ENERGIE OF THE ION-ELECTRON SYSTEM (eV)
  ---------------------------------------------------
  free  energy   TOTEN  =      -682.56821227 eV

  energy  without entropy=     -682.56821227  energy(sigma->0) =     -682.56821227
 


--------------------------------------------------------------------------------------------------------


    POTLOK:  cpu time    0.4957: real time    0.4968


--------------------------------------------------------------------------------------------------------


     LOOP+:  cpu time  120.3172: real time  120.6572
    4ORBIT:  cpu time    0.0000: real time    0.0000

 total amount of memory used by VASP MPI-rank0   118934. kBytes
=======================================================================

   base      :      30000. kBytes
   nonl-proj :       7011. kBytes
   fftplans  :      53058. kBytes
   grid      :      20148. kBytes
   one-center:         21. kBytes
   wavefun   :       8696. kBytes
 
  
  
 General timing and accounting informations for this job:
 ========================================================
  
                  Total CPU time used (sec):      128.074
                            User time (sec):      125.388
                          System time (sec):        2.686
                         Elapsed time (sec):      128.495
  
                   Maximum memory used (kb):      245552.
                   Average memory used (kb):           0.
  
                          Minor page faults:        83624
                          Major page faults:            0
                 Voluntary context switches:          491
