<?xml version="1.0" encoding="ISO-8859-1"?>
<modeling>
 <generator>
  <i name="program" type="string">vasp </i>
  <i name="version" type="string">5.4.4.18Apr17-6-g9f103f2a35  </i>
  <i name="subversion" type="string">(build Aug 16 2020 16:33:06) complex            parallel </i>
  <i name="platform" type="string">LinuxIFC </i>
  <i name="date" type="string">2026 08 15 </i>
  <i name="time" type="string">15:19:05 </i>
 </generator>
 <incar>
  <i type="string" name="PREC">accurate</i>
  <i type="logical" name="ADDGRID"> T  </i>
  <i type="int" name="IBRION">    -1</i>
  <i name="EDIFF">      0.00000001</i>
  <i type="int" name="ISYM">     0</i>
  <i name="ENCUT">    500.00000000</i>
  <i type="logical" name="LREAL"> F  </i>
  <i type="int" name="ISMEAR">     0</i>
  <i name="SIGMA">      0.05000000</i>
  <i type="logical" name="LWAVE"> F  </i>
  <i type="logical" name="LCHARG"> F  </i>
  <v type="int" name="KPOINT_BSE">    -1     0     0     0</v>
 </incar>
 <structure name="primitive_cell" >
  <crystal>
   <varray name="basis" >
    <v>       0.00000000      10.93716070      10.93716070 </v>
    <v>      10.93716070       0.00000000      10.93716070 </v>
    <v>      10.93716070      10.93716070       0.00000000 </v>
   </varray>
   <i name="volume">   2616.63878844 </i>
   <varray name="rec_basis" >
    <v>      -0.04571570       0.04571570       0.04571570 </v>
    <v>       0.04571570      -0.04571570       0.04571570 </v>
    <v>       0.04571570       0.04571570      -0.04571570 </v>
   </varray>
  </crystal>
  <varray name="positions" >
   <v>       0.06204284       0.06295716       0.06204284 </v>
   <v>       0.00000000       0.25000000       0.00000000 </v>
   <v>       0.00000000       0.00000000       0.00000000 </v>
   <v>       0.25000000       0.00000000       0.00000000 </v>
   <v>       0.00000000       0.00000000       0.25000000 </v>
   <v>      -0.18750000       0.06250000       0.06250000 </v>
   <v>      -0.18750000       0.31250000       0.06250000 </v>
   <v>       0.06250000       0.06250000      -0.18750000 </v>
   <v>       0.06250000       0.31250000      -0.18750000 </v>
   <v>       0.06250000       0.31250000       0.06250000 </v>
   <v>       0.06250000      -0.18750000       0.06250000 </v>
   <v>      -0.18750000       0.06250000       0.31250000 </v>
   <v>       0.31250000       0.06250000      -0.18750000 </v>
   <v>       0.31250000       0.06250000       0.06250000 </v>
   <v>       0.31250000      -0.18750000       0.06250000 </v>
   <v>       0.06250000       0.06250000       0.31250000 </v>
   <v>       0.06250000      -0.18750000       0.31250000 </v>
   <v>      -0.25000000       0.25000000       0.00000000 </v>
   <v>       0.00000000       0.25000000      -0.25000000 </v>
   <v>      -0.25000000       0.00000000       0.25000000 </v>
   <v>      -0.25000000       0.25000000       0.25000000 </v>
   <v>       0.25000000       0.00000000      -0.25000000 </v>
   <v>       0.25000000       0.25000000      -0.25000000 </v>
   <v>       0.25000000       0.25000000       0.00000000 </v>
   <v>       0.00000000       0.25000000       0.25000000 </v>
   <v>       0.25000000      -0.25000000       0.00000000 </v>
   <v>       0.00000000      -0.25000000       0.25000000 </v>
   <v>       0.25000000       0.00000000       0.25000000 </v>
   <v>       0.25000000      -0.25000000       0.25000000 </v>
   <v>      -0.18750000       0.31250000      -0.18750000 </v>
   <v>      -0.18750000       0.31250000       0.31250000 </v>
   <v>      -0.18750000      -0.18750000       0.31250000 </v>
   <v>       0.31250000       0.31250000      -0.18750000 </v>
   <v>       0.31250000      -0.18750000      -0.18750000 </v>
   <v>       0.31250000      -0.18750000       0.31250000 </v>
   <v>      -0.25000000       0.00000000       0.00000000 </v>
   <v>      -0.25000000      -0.50000000       0.00000000 </v>
   <v>       0.00000000       0.00000000      -0.25000000 </v>
   <v>       0.00000000      -0.50000000      -0.25000000 </v>
   <v>       0.00000000      -0.50000000       0.00000000 </v>
   <v>       0.00000000      -0.25000000       0.00000000 </v>
   <v>      -0.25000000       0.00000000      -0.50000000 </v>
   <v>      -0.50000000       0.00000000      -0.25000000 </v>
   <v>       0.00000000       0.00000000      -0.50000000 </v>
   <v>      -0.50000000      -0.25000000       0.00000000 </v>
   <v>       0.00000000      -0.25000000      -0.50000000 </v>
   <v>      -0.49954284      -0.00045716       0.00045716 </v>
   <v>      -0.43750000       0.31250000       0.06250000 </v>
   <v>       0.06250000       0.31250000      -0.43750000 </v>
   <v>      -0.18750000       0.06250000      -0.18750000 </v>
   <v>      -0.18750000      -0.43750000      -0.18750000 </v>
   <v>      -0.18750000      -0.43750000       0.06250000 </v>
   <v>      -0.43750000       0.31250000       0.31250000 </v>
   <v>       0.31250000       0.06250000      -0.43750000 </v>
   <v>       0.06250000      -0.18750000      -0.18750000 </v>
   <v>      -0.18750000      -0.18750000       0.06250000 </v>
   <v>      -0.43750000       0.06250000       0.31250000 </v>
   <v>       0.31250000       0.31250000      -0.43750000 </v>
   <v>       0.06250000      -0.43750000      -0.18750000 </v>
   <v>       0.31250000       0.31250000       0.06250000 </v>
   <v>       0.31250000      -0.43750000       0.06250000 </v>
   <v>       0.06250000       0.31250000       0.31250000 </v>
   <v>       0.06250000      -0.43750000       0.31250000 </v>
   <v>      -0.18750000       0.06250000      -0.43750000 </v>
   <v>      -0.18750000      -0.18750000      -0.43750000 </v>
   <v>      -0.43750000       0.06250000      -0.18750000 </v>
   <v>      -0.43750000      -0.18750000      -0.18750000 </v>
   <v>      -0.43750000      -0.18750000       0.06250000 </v>
   <v>       0.31250000       0.06250000       0.31250000 </v>
   <v>       0.31250000      -0.43750000       0.31250000 </v>
   <v>       0.06250000      -0.18750000      -0.43750000 </v>
   <v>      -0.25000000       0.25000000      -0.25000000 </v>
   <v>      -0.25000000      -0.50000000      -0.25000000 </v>
   <v>      -0.50000000       0.25000000       0.25000000 </v>
   <v>       0.25000000       0.25000000      -0.50000000 </v>
   <v>      -0.25000000      -0.50000000       0.25000000 </v>
   <v>       0.25000000      -0.50000000      -0.25000000 </v>
   <v>      -0.25000000      -0.25000000       0.25000000 </v>
   <v>       0.25000000      -0.25000000      -0.25000000 </v>
   <v>      -0.25000000       0.25000000      -0.50000000 </v>
   <v>      -0.50000000       0.25000000      -0.25000000 </v>
   <v>      -0.25000000      -0.25000000      -0.50000000 </v>
   <v>      -0.50000000      -0.25000000      -0.25000000 </v>
   <v>       0.25000000       0.25000000       0.25000000 </v>
   <v>       0.25000000      -0.50000000       0.25000000 </v>
   <v>      -0.50000000      -0.25000000       0.25000000 </v>
   <v>       0.25000000      -0.25000000      -0.50000000 </v>
   <v>      -0.43750000       0.06250000       0.06250000 </v>
   <v>      -0.43750000      -0.43750000       0.06250000 </v>
   <v>       0.06250000       0.06250000      -0.43750000 </v>
   <v>       0.06250000      -0.43750000      -0.43750000 </v>
   <v>       0.06250000      -0.43750000       0.06250000 </v>
   <v>      -0.43750000       0.06250000      -0.43750000 </v>
   <v>      -0.50000000      -0.50000000       0.00000000 </v>
   <v>      -0.50000000       0.25000000       0.00000000 </v>
   <v>       0.00000000       0.25000000      -0.50000000 </v>
   <v>       0.00000000      -0.50000000      -0.50000000 </v>
   <v>      -0.50000000      -0.50000000       0.25000000 </v>
   <v>      -0.50000000       0.00000000       0.25000000 </v>
   <v>       0.25000000       0.00000000      -0.50000000 </v>
   <v>       0.25000000      -0.50000000      -0.50000000 </v>
   <v>      -0.50000000       0.00000000      -0.50000000 </v>
   <v>      -0.50000000       0.25000000      -0.50000000 </v>
   <v>       0.25000000      -0.50000000       0.00000000 </v>
   <v>       0.00000000      -0.50000000       0.25000000 </v>
   <v>      -0.18750000       0.31250000      -0.43750000 </v>
   <v>      -0.18750000      -0.43750000      -0.43750000 </v>
   <v>      -0.43750000       0.31250000      -0.18750000 </v>
   <v>      -0.43750000      -0.43750000      -0.18750000 </v>
   <v>      -0.43750000      -0.43750000       0.31250000 </v>
   <v>      -0.43750000      -0.18750000       0.31250000 </v>
   <v>       0.31250000      -0.43750000      -0.43750000 </v>
   <v>       0.31250000      -0.18750000      -0.43750000 </v>
   <v>      -0.18750000      -0.43750000       0.31250000 </v>
   <v>      -0.43750000       0.31250000      -0.43750000 </v>
   <v>      -0.43750000      -0.18750000      -0.43750000 </v>
   <v>       0.31250000      -0.43750000      -0.18750000 </v>
   <v>      -0.25000000       0.00000000      -0.25000000 </v>
   <v>      -0.25000000      -0.25000000      -0.25000000 </v>
   <v>      -0.25000000      -0.25000000       0.00000000 </v>
   <v>       0.00000000      -0.25000000      -0.25000000 </v>
   <v>      -0.18750000      -0.18750000      -0.18750000 </v>
   <v>       0.31250000       0.31250000       0.31250000 </v>
   <v>      -0.25000000      -0.50000000      -0.50000000 </v>
   <v>      -0.50000000      -0.50000000      -0.25000000 </v>
   <v>      -0.50000000      -0.25000000      -0.50000000 </v>
   <v>      -0.50000000      -0.50000000      -0.50000000 </v>
   <v>      -0.43750000      -0.43750000      -0.43750000 </v>
  </varray>
 </structure>
 <varray name="primitive_index" >
  <v type="int" >        1 </v>
  <v type="int" >       69 </v>
  <v type="int" >       65 </v>
  <v type="int" >       66 </v>
  <v type="int" >       81 </v>
  <v type="int" >        4 </v>
  <v type="int" >        8 </v>
  <v type="int" >       49 </v>
  <v type="int" >       53 </v>
  <v type="int" >        5 </v>
  <v type="int" >       13 </v>
  <v type="int" >       20 </v>
  <v type="int" >       50 </v>
  <v type="int" >        2 </v>
  <v type="int" >       14 </v>
  <v type="int" >       17 </v>
  <v type="int" >       29 </v>
  <v type="int" >       72 </v>
  <v type="int" >      117 </v>
  <v type="int" >       84 </v>
  <v type="int" >       88 </v>
  <v type="int" >      114 </v>
  <v type="int" >      118 </v>
  <v type="int" >       70 </v>
  <v type="int" >       85 </v>
  <v type="int" >       78 </v>
  <v type="int" >       93 </v>
  <v type="int" >       82 </v>
  <v type="int" >       94 </v>
  <v type="int" >       56 </v>
  <v type="int" >       24 </v>
  <v type="int" >       32 </v>
  <v type="int" >       54 </v>
  <v type="int" >       62 </v>
  <v type="int" >       30 </v>
  <v type="int" >       68 </v>
  <v type="int" >       76 </v>
  <v type="int" >      113 </v>
  <v type="int" >      121 </v>
  <v type="int" >       73 </v>
  <v type="int" >       77 </v>
  <v type="int" >      100 </v>
  <v type="int" >      115 </v>
  <v type="int" >       97 </v>
  <v type="int" >       79 </v>
  <v type="int" >      109 </v>
  <v type="int" >       67 </v>
  <v type="int" >        7 </v>
  <v type="int" >       37 </v>
  <v type="int" >       52 </v>
  <v type="int" >       60 </v>
  <v type="int" >       12 </v>
  <v type="int" >       23 </v>
  <v type="int" >       34 </v>
  <v type="int" >       61 </v>
  <v type="int" >       16 </v>
  <v type="int" >       19 </v>
  <v type="int" >       38 </v>
  <v type="int" >       57 </v>
  <v type="int" >        6 </v>
  <v type="int" >       10 </v>
  <v type="int" >       21 </v>
  <v type="int" >       25 </v>
  <v type="int" >       36 </v>
  <v type="int" >       48 </v>
  <v type="int" >       51 </v>
  <v type="int" >       63 </v>
  <v type="int" >       15 </v>
  <v type="int" >       18 </v>
  <v type="int" >       26 </v>
  <v type="int" >       45 </v>
  <v type="int" >      120 </v>
  <v type="int" >      124 </v>
  <v type="int" >       87 </v>
  <v type="int" >      102 </v>
  <v type="int" >       92 </v>
  <v type="int" >      122 </v>
  <v type="int" >       96 </v>
  <v type="int" >      126 </v>
  <v type="int" >      104 </v>
  <v type="int" >      119 </v>
  <v type="int" >      112 </v>
  <v type="int" >      127 </v>
  <v type="int" >       86 </v>
  <v type="int" >       90 </v>
  <v type="int" >       95 </v>
  <v type="int" >      110 </v>
  <v type="int" >        3 </v>
  <v type="int" >       11 </v>
  <v type="int" >       33 </v>
  <v type="int" >       41 </v>
  <v type="int" >        9 </v>
  <v type="int" >       35 </v>
  <v type="int" >       75 </v>
  <v type="int" >       71 </v>
  <v type="int" >      101 </v>
  <v type="int" >      105 </v>
  <v type="int" >       91 </v>
  <v type="int" >       83 </v>
  <v type="int" >       98 </v>
  <v type="int" >      106 </v>
  <v type="int" >       99 </v>
  <v type="int" >      103 </v>
  <v type="int" >       74 </v>
  <v type="int" >       89 </v>
  <v type="int" >       40 </v>
  <v type="int" >       44 </v>
  <v type="int" >       55 </v>
  <v type="int" >       59 </v>
  <v type="int" >       27 </v>
  <v type="int" >       31 </v>
  <v type="int" >       42 </v>
  <v type="int" >       46 </v>
  <v type="int" >       28 </v>
  <v type="int" >       39 </v>
  <v type="int" >       47 </v>
  <v type="int" >       58 </v>
  <v type="int" >      116 </v>
  <v type="int" >      128 </v>
  <v type="int" >       80 </v>
  <v type="int" >      125 </v>
  <v type="int" >       64 </v>
  <v type="int" >       22 </v>
  <v type="int" >      108 </v>
  <v type="int" >      123 </v>
  <v type="int" >      111 </v>
  <v type="int" >      107 </v>
  <v type="int" >       43 </v>
 </varray>
 <kpoints>
  <generation param="Gamma">
   <v type="int" name="divisions">       1        1        1 </v>
   <v name="usershift">      0.00000000       0.00000000       0.00000000 </v>
   <v name="genvec1">      1.00000000       0.00000000       0.00000000 </v>
   <v name="genvec2">      0.00000000       1.00000000       0.00000000 </v>
   <v name="genvec3">      0.00000000       0.00000000       1.00000000 </v>
   <v name="shift">      0.00000000       0.00000000       0.00000000 </v>
  </generation>
  <varray name="kpointlist" >
   <v>       0.00000000       0.00000000       0.00000000 </v>
  </varray>
  <varray name="weights" >
   <v>       1.00000000 </v>
  </varray>
 </kpoints>
 <parameters>
  <separator name="general" >
   <i type="string" name="SYSTEM">unknown system</i>
   <i type="logical" name="LCOMPAT"> F  </i>
  </separator>
  <separator name="electronic" >
   <i type="string" name="PREC">accura</i>
   <i name="ENMAX">    500.00000000</i>
   <i name="ENAUG">    322.06900000</i>
   <i name="EDIFF">      0.00000001</i>
   <i type="int" name="IALGO">    38</i>
   <i type="int" name="IWAVPR">    10</i>
   <i type="int" name="NBANDS">   322</i>
   <i name="NELECT">    512.00000000</i>
   <i type="int" name="TURBO">     0</i>
   <i type="int" name="IRESTART">     0</i>
   <i type="int" name="NREBOOT">     0</i>
   <i type="int" name="NMIN">     0</i>
   <i name="EREF">      0.00000000</i>
   <separator name="electronic smearing" >
    <i type="int" name="ISMEAR">     0</i>
    <i name="SIGMA">      0.05000000</i>
    <i name="KSPACING">      0.50000000</i>
    <i type="logical" name="KGAMMA"> T  </i>
   </separator>
   <separator name="electronic projectors" >
    <i type="logical" name="LREAL"> F  </i>
    <v name="ROPT">      0.00000000</v>
    <i type="int" name="LMAXPAW">  -100</i>
    <i type="int" name="LMAXMIX">     2</i>
    <i type="logical" name="NLSPLINE"> F  </i>
   </separator>
   <separator name="electronic startup" >
    <i type="int" name="ISTART">     0</i>
    <i type="int" name="ICHARG">     2</i>
    <i type="int" name="INIWAV">     1</i>
   </separator>
   <separator name="electronic spin" >
    <i type="int" name="ISPIN">     1</i>
    <i type="logical" name="LNONCOLLINEAR"> F  </i>
    <v name="MAGMOM">      1.00000000      1.00000000      1.00000000      1.00000000      1.00000000      1.00000000      1.00000000      1.00000000      1.00000000      1.00000000      1.00000000      1.00000000      1.00000000      1.00000000      1.00000000      1.00000000      1.00000000      1.00000000      1.00000000      1.00000000
      1.00000000      1.00000000      1.00000000      1.00000000      1.00000000      1.00000000      1.00000000      1.00000000      1.00000000      1.00000000      1.00000000      1.00000000      1.00000000      1.00000000      1.00000000      1.00000000      1.00000000      1.00000000      1.00000000      1.00000000
      1.00000000      1.00000000      1.00000000      1.00000000      1.00000000      1.00000000      1.00000000      1.00000000      1.00000000      1.00000000      1.00000000      1.00000000      1.00000000      1.00000000      1.00000000      1.00000000      1.00000000      1.00000000      1.00000000      1.00000000
      1.00000000      1.00000000      1.00000000      1.00000000      1.00000000      1.00000000      1.00000000      1.00000000      1.00000000      1.00000000      1.00000000      1.00000000      1.00000000      1.00000000      1.00000000      1.00000000      1.00000000      1.00000000      1.00000000      1.00000000
      1.00000000      1.00000000      1.00000000      1.00000000      1.00000000      1.00000000      1.00000000      1.00000000      1.00000000      1.00000000      1.00000000      1.00000000      1.00000000      1.00000000      1.00000000      1.00000000      1.00000000      1.00000000      1.00000000      1.00000000
      1.00000000      1.00000000      1.00000000      1.00000000      1.00000000      1.00000000      1.00000000      1.00000000      1.00000000      1.00000000      1.00000000      1.00000000      1.00000000      1.00000000      1.00000000      1.00000000      1.00000000      1.00000000      1.00000000      1.00000000
      1.00000000      1.00000000      1.00000000      1.00000000      1.00000000      1.00000000      1.00000000      1.00000000</v>
    <i name="NUPDOWN">     -1.00000000</i>
    <i type="logical" name="LSORBIT"> F  </i>
    <v name="SAXIS">      0.00000000      0.00000000      1.00000000</v>
    <i type="logical" name="LSPIRAL"> F  </i>
    <v name="QSPIRAL">      0.00000000      0.00000000      0.00000000</v>
    <i type="logical" name="LZEROZ"> F  </i>
   </separator>
   <separator name="electronic exchange-correlation" >
    <i type="logical" name="LASPH"> F  </i>
    <i type="logical" name="LMETAGGA"> F  </i>
   </separator>
   <separator name="electronic convergence" >
    <i type="int" name="NELM">    60</i>
    <i type="int" name="NELMDL">    -5</i>
    <i type="int" name="NELMIN">     2</i>
    <i name="ENINI">    500.00000000</i>
    <separator name="electronic convergence detail" >
     <i type="logical" name="LDIAG"> T  </i>
     <i type="logical" name="LSUBROT"> F  </i>
     <i name="WEIMIN">      0.00000000</i>
     <i name="EBREAK">      0.00000000</i>
     <i name="DEPER">      0.30000000</i>
     <i type="int" name="NRMM">     4</i>
     <i name="TIME">      0.40000000</i>
    </separator>
   </separator>
   <separator name="electronic mixer" >
    <i name="AMIX">      0.40000000</i>
    <i name="BMIX">      1.00000000</i>
    <i name="AMIN">      0.10000000</i>
    <i name="AMIX_MAG">      1.60000000</i>
    <i name="BMIX_MAG">      1.00000000</i>
    <separator name="electronic mixer details" >
     <i type="int" name="IMIX">     4</i>
     <i type="logical" name="MIXFIRST"> F  </i>
     <i type="int" name="MAXMIX">   -45</i>
     <i name="WC">    100.00000000</i>
     <i type="int" name="INIMIX">     1</i>
     <i type="int" name="MIXPRE">     1</i>
     <i type="int" name="MREMOVE">     5</i>
    </separator>
   </separator>
   <separator name="electronic dipolcorrection" >
    <i type="logical" name="LDIPOL"> F  </i>
    <i type="logical" name="LMONO"> F  </i>
    <i type="int" name="IDIPOL">     0</i>
    <i name="EPSILON">      1.00000000</i>
    <v name="DIPOL">   -100.00000000   -100.00000000   -100.00000000</v>
    <i name="EFIELD">      0.00000000</i>
   </separator>
  </separator>
  <separator name="grids" >
   <i type="int" name="NGX">   120</i>
   <i type="int" name="NGY">   120</i>
   <i type="int" name="NGZ">   120</i>
   <i type="int" name="NGXF">   240</i>
   <i type="int" name="NGYF">   240</i>
   <i type="int" name="NGZF">   240</i>
   <i type="logical" name="ADDGRID"> T  </i>
  </separator>
  <separator name="ionic" >
   <i type="int" name="NSW">     0</i>
   <i type="int" name="IBRION">    -1</i>
   <i type="int" name="MDALGO">     0</i>
   <i type="int" name="ISIF">     2</i>
   <i name="PSTRESS">      0.00000000</i>
   <i name="EDIFFG">      0.00000010</i>
   <i type="int" name="NFREE">     0</i>
   <i name="POTIM">      0.50000000</i>
   <i name="SMASS">     -3.00000000</i>
   <i name="SCALEE">      1.00000000</i>
  </separator>
  <separator name="ionic md" >
   <i name="TEBEG">      0.00010000</i>
   <i name="TEEND">      0.00010000</i>
   <i type="int" name="NBLOCK">     1</i>
   <i type="int" name="KBLOCK">     1</i>
   <i type="int" name="NPACO">   256</i>
   <i name="APACO">     16.00000000</i>
  </separator>
  <separator name="symmetry" >
   <i type="int" name="ISYM">     0</i>
   <i name="SYMPREC">      0.00001000</i>
  </separator>
  <separator name="dos" >
   <i type="int" name="LORBIT">     0</i>
   <v name="RWIGS">     -1.00000000</v>
   <i type="int" name="NEDOS">   301</i>
   <i name="EMIN">     10.00000000</i>
   <i name="EMAX">    -10.00000000</i>
   <i name="EFERMI">      0.00000000</i>
  </separator>
  <separator name="writing" >
   <i type="int" name="NWRITE">     2</i>
   <i type="logical" name="LWAVE"> F  </i>
   <i type="logical" name="LDOWNSAMPLE"> F  </i>
   <i type="logical" name="LCHARG"> F  </i>
   <i type="logical" name="LPARD"> F  </i>
   <i type="logical" name="LVTOT"> F  </i>
   <i type="logical" name="LVHAR"> F  </i>
   <i type="logical" name="LELF"> F  </i>
   <i type="logical" name="LOPTICS"> F  </i>
   <v name="STM">      0.00000000      0.00000000      0.00000000      0.00000000      0.00000000      0.00000000      0.00000000</v>
  </separator>
  <separator name="performance" >
   <i type="int" name="NPAR">     2</i>
   <i type="int" name="NSIM">     4</i>
   <i type="int" name="NBLK">    -1</i>
   <i type="logical" name="LPLANE"> T  </i>
   <i type="logical" name="LSCALAPACK"> T  </i>
   <i type="logical" name="LSCAAWARE"> F  </i>
   <i type="logical" name="LSCALU"> F  </i>
   <i type="logical" name="LASYNC"> F  </i>
   <i type="logical" name="LORBITALREAL"> F  </i>
  </separator>
  <separator name="miscellaneous" >
   <i type="int" name="IDIOT">     3</i>
   <i type="int" name="ISPECIAL">     0</i>
   <i type="logical" name="LMUSIC"> F  </i>
   <v name="POMASS">     28.08500000</v>
   <v name="DARWINR">      0.00000000</v>
   <v name="DARWINV">      1.00000000</v>
   <i type="logical" name="LCORR"> T  </i>
  </separator>
  <i type="logical" name="GGA_COMPAT"> T  </i>
  <i type="logical" name="LBERRY"> F  </i>
  <i type="int" name="ICORELEVEL">     0</i>
  <i type="logical" name="LDAU"> F  </i>
  <i type="int" name="I_CONSTRAINED_M">     0</i>
  <separator name="electronic exchange-correlation" >
   <i type="string" name="GGA">--</i>
   <i type="int" name="VOSKOWN">     0</i>
   <i type="logical" name="LHFCALC"> F  </i>
   <i type="string" name="PRECFOCK"></i>
   <i type="logical" name="LSYMGRAD"> F  </i>
   <i type="logical" name="LHFONE"> F  </i>
   <i type="logical" name="LRHFCALC"> F  </i>
   <i type="logical" name="LTHOMAS"> F  </i>
   <i type="logical" name="LMODELHF"> F  </i>
   <i name="ENCUT4O">     -1.00000000</i>
   <i type="int" name="EXXOEP">     0</i>
   <i type="int" name="FOURORBIT">     0</i>
   <i name="AEXX">      0.00000000</i>
   <i name="HFALPHA">      0.00000000</i>
   <i name="MCALPHA">      0.00000000</i>
   <i name="ALDAX">      1.00000000</i>
   <i name="AGGAX">      1.00000000</i>
   <i name="ALDAC">      1.00000000</i>
   <i name="AGGAC">      1.00000000</i>
   <i type="int" name="NKREDX">     1</i>
   <i type="int" name="NKREDY">     1</i>
   <i type="int" name="NKREDZ">     1</i>
   <i type="logical" name="SHIFTRED"> F  </i>
   <i type="logical" name="ODDONLY"> F  </i>
   <i type="logical" name="EVENONLY"> F  </i>
   <i type="int" name="LMAXFOCK">     0</i>
   <i type="int" name="NMAXFOCKAE">     0</i>
   <i type="logical" name="LFOCKAEDFT"> F  </i>
   <i name="HFSCREEN">      0.00000000</i>
   <i name="HFSCREENC">      0.00000000</i>
   <i type="int" name="NBANDSGWLOW">     0</i>
  </separator>
  <separator name="vdW DFT" >
   <i type="logical" name="LUSE_VDW"> F  </i>
   <i name="Zab_VDW">     -0.84910000</i>
   <i name="PARAM1">      0.12340000</i>
   <i name="PARAM2">      1.00000000</i>
   <i name="PARAM3">      0.00000000</i>
  </separator>
  <separator name="model GW" >
   <i type="int" name="MODEL_GW">     0</i>
   <i name="MODEL_EPS0">     12.26549432</i>
   <i name="MODEL_ALPHA">      1.00000000</i>
  </separator>
  <separator name="linear response parameters" >
   <i type="logical" name="LEPSILON"> F  </i>
   <i type="logical" name="LRPA"> F  </i>
   <i type="logical" name="LNABLA"> F  </i>
   <i type="logical" name="LVEL"> F  </i>
   <i type="int" name="KINTER">     0</i>
   <i name="CSHIFT">      0.10000000</i>
   <i name="OMEGAMAX">     -1.00000000</i>
   <i name="DEG_THRESHOLD">      0.00200000</i>
   <i name="RTIME">     -0.10000000</i>
   <i name="WPLASMAI">      0.00000000</i>
   <v name="DFIELD">      0.00000000      0.00000000      0.00000000</v>
   <v name="WPLASMA">      0.00000000      0.00000000      0.00000000      0.00000000      0.00000000      0.00000000      0.00000000      0.00000000      0.00000000</v>
  </separator>
  <separator name="orbital magnetization" >
   <i type="logical" name="NUCIND"> F  </i>
   <v name="MAGPOS">      0.00000000      0.00000000      0.00000000</v>
   <i type="logical" name="LNICSALL"> T  </i>
   <i type="logical" name="ORBITALMAG"> F  </i>
   <i type="logical" name="LMAGBLOCH"> F  </i>
   <i type="logical" name="LCHIMAG"> F  </i>
   <i type="logical" name="LGAUGE"> T  </i>
   <i type="int" name="MAGATOM">     0</i>
   <v name="MAGDIPOL">      0.00000000      0.00000000      0.00000000</v>
   <v name="AVECCONST">      0.00000000      0.00000000      0.00000000</v>
  </separator>
  <separator name="response functions" >
   <i type="logical" name="LADDER"> F  </i>
   <i type="logical" name="LRPAFORCE"> F  </i>
   <i type="logical" name="LFXC"> F  </i>
   <i type="logical" name="LHARTREE"> T  </i>
   <i type="int" name="IBSE">     0</i>
   <v type="int" name="KPOINT">    -1     0     0     0</v>
   <i type="logical" name="LTCTE"> F  </i>
   <i type="logical" name="LTETE"> F  </i>
   <i type="logical" name="LTRIPLET"> F  </i>
   <i type="logical" name="LFXCEPS"> F  </i>
   <i type="logical" name="LFXHEG"> F  </i>
   <i type="int" name="NATURALO">     2</i>
   <i type="logical" name="L2ORDER"> F  </i>
   <i type="logical" name="LMP2LT"> F  </i>
   <i type="logical" name="LUSEW"> F  </i>
   <i name="ENCUTGW">     -2.00000000</i>
   <i name="ENCUTGWSOFT">     -2.00000000</i>
   <i name="ENCUTLF">     -1.00000000</i>
   <i type="int" name="LMAXMP2">    -1</i>
   <i name="SCISSOR">      0.00000000</i>
   <i type="int" name="NOMEGA">     0</i>
   <i type="int" name="NOMEGAR">     0</i>
   <i type="int" name="NBANDSGW">    -1</i>
   <i type="int" name="NBANDSO">    -1</i>
   <i type="int" name="NBANDSV">    -1</i>
   <i type="int" name="NELM">     1</i>
   <i type="int" name="NELMHF">     1</i>
   <i type="int" name="DIM">     3</i>
   <i type="int" name="ANTIRES">     0</i>
   <i name="OMEGAMAX">    -30.00000000</i>
   <i name="OMEGAMIN">    -30.00000000</i>
   <i name="OMEGATL">   -200.00000000</i>
   <i type="int" name="OMEGAGRID">   140</i>
   <i name="CSHIFT">     -0.10000000</i>
   <i type="logical" name="SELFENERGY"> F  </i>
   <i type="logical" name="LSPECTRAL"> F  </i>
   <i type="logical" name="LSPECTRALGW"> F  </i>
   <i type="logical" name="LSINGLES"> F  </i>
   <i type="logical" name="LFERMIGW"> F  </i>
   <i type="logical" name="ODDONLYGW"> F  </i>
   <i type="logical" name="EVENONLYGW"> F  </i>
   <i type="int" name="NKREDLFX">     1</i>
   <i type="int" name="NKREDLFY">     1</i>
   <i type="int" name="NKREDLFZ">     1</i>
   <i type="int" name="MAXMEM">  2800</i>
   <i type="int" name="TELESCOPE">     0</i>
   <i type="int" name="TAUPAR">     1</i>
   <i type="int" name="OMEGAPAR">    -1</i>
   <i name="LAMBDA">      1.00000000</i>
  </separator>
  <separator name="External order field" >
   <i name="OFIELD_KAPPA">      0.00000000</i>
   <v name="OFIELD_K">      0.00000000      0.00000000      0.00000000</v>
   <i name="OFIELD_Q6_NEAR">      0.00000000</i>
   <i name="OFIELD_Q6_FAR">      0.00000000</i>
   <i name="OFIELD_A">      0.00000000</i>
  </separator>
 </parameters>
 <atominfo>
  <atoms>     128 </atoms>
  <types>       1 </types>
  <array name="atoms" >
   <dimension dim="1">ion</dimension>
   <field type="string">element</field>
   <field type="int">atomtype</field>
   <set>
    <rc><c>Si</c><c>   1</c></rc>
    <rc><c>Si</c><c>   1</c></rc>
    <rc><c>Si</c><c>   1</c></rc>
    <rc><c>Si</c><c>   1</c></rc>
    <rc><c>Si</c><c>   1</c></rc>
    <rc><c>Si</c><c>   1</c></rc>
    <rc><c>Si</c><c>   1</c></rc>
    <rc><c>Si</c><c>   1</c></rc>
    <rc><c>Si</c><c>   1</c></rc>
    <rc><c>Si</c><c>   1</c></rc>
    <rc><c>Si</c><c>   1</c></rc>
    <rc><c>Si</c><c>   1</c></rc>
    <rc><c>Si</c><c>   1</c></rc>
    <rc><c>Si</c><c>   1</c></rc>
    <rc><c>Si</c><c>   1</c></rc>
    <rc><c>Si</c><c>   1</c></rc>
    <rc><c>Si</c><c>   1</c></rc>
    <rc><c>Si</c><c>   1</c></rc>
    <rc><c>Si</c><c>   1</c></rc>
    <rc><c>Si</c><c>   1</c></rc>
    <rc><c>Si</c><c>   1</c></rc>
    <rc><c>Si</c><c>   1</c></rc>
    <rc><c>Si</c><c>   1</c></rc>
    <rc><c>Si</c><c>   1</c></rc>
    <rc><c>Si</c><c>   1</c></rc>
    <rc><c>Si</c><c>   1</c></rc>
    <rc><c>Si</c><c>   1</c></rc>
    <rc><c>Si</c><c>   1</c></rc>
    <rc><c>Si</c><c>   1</c></rc>
    <rc><c>Si</c><c>   1</c></rc>
    <rc><c>Si</c><c>   1</c></rc>
    <rc><c>Si</c><c>   1</c></rc>
    <rc><c>Si</c><c>   1</c></rc>
    <rc><c>Si</c><c>   1</c></rc>
    <rc><c>Si</c><c>   1</c></rc>
    <rc><c>Si</c><c>   1</c></rc>
    <rc><c>Si</c><c>   1</c></rc>
    <rc><c>Si</c><c>   1</c></rc>
    <rc><c>Si</c><c>   1</c></rc>
    <rc><c>Si</c><c>   1</c></rc>
    <rc><c>Si</c><c>   1</c></rc>
    <rc><c>Si</c><c>   1</c></rc>
    <rc><c>Si</c><c>   1</c></rc>
    <rc><c>Si</c><c>   1</c></rc>
    <rc><c>Si</c><c>   1</c></rc>
    <rc><c>Si</c><c>   1</c></rc>
    <rc><c>Si</c><c>   1</c></rc>
    <rc><c>Si</c><c>   1</c></rc>
    <rc><c>Si</c><c>   1</c></rc>
    <rc><c>Si</c><c>   1</c></rc>
    <rc><c>Si</c><c>   1</c></rc>
    <rc><c>Si</c><c>   1</c></rc>
    <rc><c>Si</c><c>   1</c></rc>
    <rc><c>Si</c><c>   1</c></rc>
    <rc><c>Si</c><c>   1</c></rc>
    <rc><c>Si</c><c>   1</c></rc>
    <rc><c>Si</c><c>   1</c></rc>
    <rc><c>Si</c><c>   1</c></rc>
    <rc><c>Si</c><c>   1</c></rc>
    <rc><c>Si</c><c>   1</c></rc>
    <rc><c>Si</c><c>   1</c></rc>
    <rc><c>Si</c><c>   1</c></rc>
    <rc><c>Si</c><c>   1</c></rc>
    <rc><c>Si</c><c>   1</c></rc>
    <rc><c>Si</c><c>   1</c></rc>
    <rc><c>Si</c><c>   1</c></rc>
    <rc><c>Si</c><c>   1</c></rc>
    <rc><c>Si</c><c>   1</c></rc>
    <rc><c>Si</c><c>   1</c></rc>
    <rc><c>Si</c><c>   1</c></rc>
    <rc><c>Si</c><c>   1</c></rc>
    <rc><c>Si</c><c>   1</c></rc>
    <rc><c>Si</c><c>   1</c></rc>
    <rc><c>Si</c><c>   1</c></rc>
    <rc><c>Si</c><c>   1</c></rc>
    <rc><c>Si</c><c>   1</c></rc>
    <rc><c>Si</c><c>   1</c></rc>
    <rc><c>Si</c><c>   1</c></rc>
    <rc><c>Si</c><c>   1</c></rc>
    <rc><c>Si</c><c>   1</c></rc>
    <rc><c>Si</c><c>   1</c></rc>
    <rc><c>Si</c><c>   1</c></rc>
    <rc><c>Si</c><c>   1</c></rc>
    <rc><c>Si</c><c>   1</c></rc>
    <rc><c>Si</c><c>   1</c></rc>
    <rc><c>Si</c><c>   1</c></rc>
    <rc><c>Si</c><c>   1</c></rc>
    <rc><c>Si</c><c>   1</c></rc>
    <rc><c>Si</c><c>   1</c></rc>
    <rc><c>Si</c><c>   1</c></rc>
    <rc><c>Si</c><c>   1</c></rc>
    <rc><c>Si</c><c>   1</c></rc>
    <rc><c>Si</c><c>   1</c></rc>
    <rc><c>Si</c><c>   1</c></rc>
    <rc><c>Si</c><c>   1</c></rc>
    <rc><c>Si</c><c>   1</c></rc>
    <rc><c>Si</c><c>   1</c></rc>
    <rc><c>Si</c><c>   1</c></rc>
    <rc><c>Si</c><c>   1</c></rc>
    <rc><c>Si</c><c>   1</c></rc>
    <rc><c>Si</c><c>   1</c></rc>
    <rc><c>Si</c><c>   1</c></rc>
    <rc><c>Si</c><c>   1</c></rc>
    <rc><c>Si</c><c>   1</c></rc>
    <rc><c>Si</c><c>   1</c></rc>
    <rc><c>Si</c><c>   1</c></rc>
    <rc><c>Si</c><c>   1</c></rc>
    <rc><c>Si</c><c>   1</c></rc>
    <rc><c>Si</c><c>   1</c></rc>
    <rc><c>Si</c><c>   1</c></rc>
    <rc><c>Si</c><c>   1</c></rc>
    <rc><c>Si</c><c>   1</c></rc>
    <rc><c>Si</c><c>   1</c></rc>
    <rc><c>Si</c><c>   1</c></rc>
    <rc><c>Si</c><c>   1</c></rc>
    <rc><c>Si</c><c>   1</c></rc>
    <rc><c>Si</c><c>   1</c></rc>
    <rc><c>Si</c><c>   1</c></rc>
    <rc><c>Si</c><c>   1</c></rc>
    <rc><c>Si</c><c>   1</c></rc>
    <rc><c>Si</c><c>   1</c></rc>
    <rc><c>Si</c><c>   1</c></rc>
    <rc><c>Si</c><c>   1</c></rc>
    <rc><c>Si</c><c>   1</c></rc>
    <rc><c>Si</c><c>   1</c></rc>
    <rc><c>Si</c><c>   1</c></rc>
    <rc><c>Si</c><c>   1</c></rc>
    <rc><c>Si</c><c>   1</c></rc>
   </set>
  </array>
  <array name="atomtypes" >
   <dimension dim="1">type</dimension>
   <field type="int">atomspertype</field>
   <field type="string">element</field>
   <field>mass</field>
   <field>valence</field>
   <field type="string">pseudopotential</field>
   <set>
    <rc><c> 128</c><c>Si</c><c>     28.08500000</c><c>      4.00000000</c><c> PAW_PBE Si 05Jan2001                   </c></rc>
   </set>
  </array>
 </atominfo>
 <structure name="initialpos" >
  <crystal>
   <varray name="basis" >
    <v>       0.00000000      10.93716070      10.93716070 </v>
    <v>      10.93716070       0.00000000      10.93716070 </v>
    <v>      10.93716070      10.93716070       0.00000000 </v>
   </varray>
   <i name="volume">   2616.63878844 </i>
   <varray name="rec_basis" >
    <v>      -0.04571570       0.04571570       0.04571570 </v>
    <v>       0.04571570      -0.04571570       0.04571570 </v>
    <v>       0.04571570       0.04571570      -0.04571570 </v>
   </varray>
  </crystal>
  <varray name="positions" >
   <v>       0.06204284       0.06295716       0.06204284 </v>
   <v>       0.31250000       0.06250000       0.06250000 </v>
   <v>       0.56250000       0.06250000       0.06250000 </v>
   <v>       0.81250000       0.06250000       0.06250000 </v>
   <v>       0.06250000       0.31250000       0.06250000 </v>
   <v>       0.31250000       0.31250000       0.06250000 </v>
   <v>       0.56250000       0.31250000       0.06250000 </v>
   <v>       0.81250000       0.31250000       0.06250000 </v>
   <v>       0.06250000       0.56250000       0.06250000 </v>
   <v>       0.31250000       0.56250000       0.06250000 </v>
   <v>       0.56250000       0.56250000       0.06250000 </v>
   <v>       0.81250000       0.56250000       0.06250000 </v>
   <v>       0.06250000       0.81250000       0.06250000 </v>
   <v>       0.31250000       0.81250000       0.06250000 </v>
   <v>       0.56250000       0.81250000       0.06250000 </v>
   <v>       0.81250000       0.81250000       0.06250000 </v>
   <v>       0.06250000       0.06250000       0.31250000 </v>
   <v>       0.31250000       0.06250000       0.31250000 </v>
   <v>       0.56250000       0.06250000       0.31250000 </v>
   <v>       0.81250000       0.06250000       0.31250000 </v>
   <v>       0.06250000       0.31250000       0.31250000 </v>
   <v>       0.31250000       0.31250000       0.31250000 </v>
   <v>       0.56250000       0.31250000       0.31250000 </v>
   <v>       0.81250000       0.31250000       0.31250000 </v>
   <v>       0.06250000       0.56250000       0.31250000 </v>
   <v>       0.31250000       0.56250000       0.31250000 </v>
   <v>       0.56250000       0.56250000       0.31250000 </v>
   <v>       0.81250000       0.56250000       0.31250000 </v>
   <v>       0.06250000       0.81250000       0.31250000 </v>
   <v>       0.31250000       0.81250000       0.31250000 </v>
   <v>       0.56250000       0.81250000       0.31250000 </v>
   <v>       0.81250000       0.81250000       0.31250000 </v>
   <v>       0.06250000       0.06250000       0.56250000 </v>
   <v>       0.31250000       0.06250000       0.56250000 </v>
   <v>       0.56250000       0.06250000       0.56250000 </v>
   <v>       0.81250000       0.06250000       0.56250000 </v>
   <v>       0.06250000       0.31250000       0.56250000 </v>
   <v>       0.31250000       0.31250000       0.56250000 </v>
   <v>       0.56250000       0.31250000       0.56250000 </v>
   <v>       0.81250000       0.31250000       0.56250000 </v>
   <v>       0.06250000       0.56250000       0.56250000 </v>
   <v>       0.31250000       0.56250000       0.56250000 </v>
   <v>       0.56250000       0.56250000       0.56250000 </v>
   <v>       0.81250000       0.56250000       0.56250000 </v>
   <v>       0.06250000       0.81250000       0.56250000 </v>
   <v>       0.31250000       0.81250000       0.56250000 </v>
   <v>       0.56250000       0.81250000       0.56250000 </v>
   <v>       0.81250000       0.81250000       0.56250000 </v>
   <v>       0.06250000       0.06250000       0.81250000 </v>
   <v>       0.31250000       0.06250000       0.81250000 </v>
   <v>       0.56250000       0.06250000       0.81250000 </v>
   <v>       0.81250000       0.06250000       0.81250000 </v>
   <v>       0.06250000       0.31250000       0.81250000 </v>
   <v>       0.31250000       0.31250000       0.81250000 </v>
   <v>       0.56250000       0.31250000       0.81250000 </v>
   <v>       0.81250000       0.31250000       0.81250000 </v>
   <v>       0.06250000       0.56250000       0.81250000 </v>
   <v>       0.31250000       0.56250000       0.81250000 </v>
   <v>       0.56250000       0.56250000       0.81250000 </v>
   <v>       0.81250000       0.56250000       0.81250000 </v>
   <v>       0.06250000       0.81250000       0.81250000 </v>
   <v>       0.31250000       0.81250000       0.81250000 </v>
   <v>       0.56250000       0.81250000       0.81250000 </v>
   <v>       0.81250000       0.81250000       0.81250000 </v>
   <v>       0.00000000       0.00000000       0.00000000 </v>
   <v>       0.25000000       0.00000000       0.00000000 </v>
   <v>       0.50045716       0.99954284       0.00045716 </v>
   <v>       0.75000000       0.00000000       0.00000000 </v>
   <v>       0.00000000       0.25000000       0.00000000 </v>
   <v>       0.25000000       0.25000000       0.00000000 </v>
   <v>       0.50000000       0.25000000       0.00000000 </v>
   <v>       0.75000000       0.25000000       0.00000000 </v>
   <v>       0.00000000       0.50000000       0.00000000 </v>
   <v>       0.25000000       0.50000000       0.00000000 </v>
   <v>       0.50000000       0.50000000       0.00000000 </v>
   <v>       0.75000000       0.50000000       0.00000000 </v>
   <v>       0.00000000       0.75000000       0.00000000 </v>
   <v>       0.25000000       0.75000000       0.00000000 </v>
   <v>       0.50000000       0.75000000       0.00000000 </v>
   <v>       0.75000000       0.75000000       0.00000000 </v>
   <v>       0.00000000       0.00000000       0.25000000 </v>
   <v>       0.25000000       0.00000000       0.25000000 </v>
   <v>       0.50000000       0.00000000       0.25000000 </v>
   <v>       0.75000000       0.00000000       0.25000000 </v>
   <v>       0.00000000       0.25000000       0.25000000 </v>
   <v>       0.25000000       0.25000000       0.25000000 </v>
   <v>       0.50000000       0.25000000       0.25000000 </v>
   <v>       0.75000000       0.25000000       0.25000000 </v>
   <v>       0.00000000       0.50000000       0.25000000 </v>
   <v>       0.25000000       0.50000000       0.25000000 </v>
   <v>       0.50000000       0.50000000       0.25000000 </v>
   <v>       0.75000000       0.50000000       0.25000000 </v>
   <v>       0.00000000       0.75000000       0.25000000 </v>
   <v>       0.25000000       0.75000000       0.25000000 </v>
   <v>       0.50000000       0.75000000       0.25000000 </v>
   <v>       0.75000000       0.75000000       0.25000000 </v>
   <v>       0.00000000       0.00000000       0.50000000 </v>
   <v>       0.25000000       0.00000000       0.50000000 </v>
   <v>       0.50000000       0.00000000       0.50000000 </v>
   <v>       0.75000000       0.00000000       0.50000000 </v>
   <v>       0.00000000       0.25000000       0.50000000 </v>
   <v>       0.25000000       0.25000000       0.50000000 </v>
   <v>       0.50000000       0.25000000       0.50000000 </v>
   <v>       0.75000000       0.25000000       0.50000000 </v>
   <v>       0.00000000       0.50000000       0.50000000 </v>
   <v>       0.25000000       0.50000000       0.50000000 </v>
   <v>       0.50000000       0.50000000       0.50000000 </v>
   <v>       0.75000000       0.50000000       0.50000000 </v>
   <v>       0.00000000       0.75000000       0.50000000 </v>
   <v>       0.25000000       0.75000000       0.50000000 </v>
   <v>       0.50000000       0.75000000       0.50000000 </v>
   <v>       0.75000000       0.75000000       0.50000000 </v>
   <v>       0.00000000       0.00000000       0.75000000 </v>
   <v>       0.25000000       0.00000000       0.75000000 </v>
   <v>       0.50000000       0.00000000       0.75000000 </v>
   <v>       0.75000000       0.00000000       0.75000000 </v>
   <v>       0.00000000       0.25000000       0.75000000 </v>
   <v>       0.25000000       0.25000000       0.75000000 </v>
   <v>       0.50000000       0.25000000       0.75000000 </v>
   <v>       0.75000000       0.25000000       0.75000000 </v>
   <v>       0.00000000       0.50000000       0.75000000 </v>
   <v>       0.25000000       0.50000000       0.75000000 </v>
   <v>       0.50000000       0.50000000       0.75000000 </v>
   <v>       0.75000000       0.50000000       0.75000000 </v>
   <v>       0.00000000       0.75000000       0.75000000 </v>
   <v>       0.25000000       0.75000000       0.75000000 </v>
   <v>       0.50000000       0.75000000       0.75000000 </v>
   <v>       0.75000000       0.75000000       0.75000000 </v>
  </varray>
 </structure>
 <calculation>
  <scstep>
   <time name="dav">    4.80    4.81</time>
   <time name="total">    5.32    5.34</time>
   <energy>
    <i name="alphaZ">    210.78028765 </i>
    <i name="ewald"> -14524.86513549 </i>
    <i name="hartreedc">   -724.62061359 </i>
    <i name="XCdc">  -1195.83148081 </i>
    <i name="pawpsdc">   4221.13331941 </i>
    <i name="pawaedc">  -1969.18571412 </i>
    <i name="eentropy">     -0.01572893 </i>
    <i name="bandstr">   2164.99882979 </i>
    <i name="atom">  13192.48085998 </i>
    <i name="e_fr_energy">   1374.87462388 </i>
    <i name="e_wo_entrp">   1374.89035282 </i>
    <i name="e_0_energy">   1374.88248835 </i>
   </energy>
  </scstep>
  <scstep>
   <time name="dav">    5.44    5.46</time>
   <time name="total">    5.44    5.46</time>
   <energy>
    <i name="e_fr_energy">   -537.01601034 </i>
    <i name="e_wo_entrp">   -537.01600845 </i>
    <i name="e_0_energy">   -537.01600940 </i>
   </energy>
  </scstep>
  <scstep>
   <time name="dav">    5.48    5.50</time>
   <time name="total">    5.48    5.50</time>
   <energy>
    <i name="e_fr_energy">   -690.02310441 </i>
    <i name="e_wo_entrp">   -690.02310441 </i>
    <i name="e_0_energy">   -690.02310441 </i>
   </energy>
  </scstep>
  <scstep>
   <time name="dav">    5.39    5.41</time>
   <time name="total">    5.39    5.41</time>
   <energy>
    <i name="e_fr_energy">   -694.53328995 </i>
    <i name="e_wo_entrp">   -694.53328995 </i>
    <i name="e_0_energy">   -694.53328995 </i>
   </energy>
  </scstep>
  <scstep>
   <time name="dav">    5.38    5.40</time>
   <time name="total">    5.91    5.92</time>
   <energy>
    <i name="e_fr_energy">   -694.69876696 </i>
    <i name="e_wo_entrp">   -694.69876696 </i>
    <i name="e_0_energy">   -694.69876696 </i>
   </energy>
  </scstep>
  <scstep>
   <time name="dav">    5.08    5.10</time>
   <time name="total">    6.10    6.11</time>
   <energy>
    <i name="e_fr_energy">   -686.29987795 </i>
    <i name="e_wo_entrp">   -686.29987795 </i>
    <i name="e_0_energy">   -686.29987795 </i>
   </energy>
  </scstep>
  <scstep>
   <time name="dav">    4.92    4.93</time>
   <time name="total">    5.93    5.95</time>
   <energy>
    <i name="e_fr_energy">   -682.42698904 </i>
    <i name="e_wo_entrp">   -682.42698904 </i>
    <i name="e_0_energy">   -682.42698904 </i>
   </energy>
  </scstep>
  <scstep>
   <time name="dav">    5.00    5.01</time>
   <time name="total">    6.02    6.04</time>
   <energy>
    <i name="e_fr_energy">   -682.55907490 </i>
    <i name="e_wo_entrp">   -682.55907490 </i>
    <i name="e_0_energy">   -682.55907490 </i>
   </energy>
  </scstep>
  <scstep>
   <time name="dav">    5.57    5.59</time>
   <time name="total">    6.59    6.61</time>
   <energy>
    <i name="e_fr_energy">   -682.56549396 </i>
    <i name="e_wo_entrp">   -682.56549396 </i>
    <i name="e_0_energy">   -682.56549396 </i>
   </energy>
  </scstep>
  <scstep>
   <time name="dav">    4.95    4.96</time>
   <time name="total">    5.96    5.98</time>
   <energy>
    <i name="e_fr_energy">   -682.56818070 </i>
    <i name="e_wo_entrp">   -682.56818070 </i>
    <i name="e_0_energy">   -682.56818070 </i>
   </energy>
  </scstep>
  <scstep>
   <time name="dav">    5.43    5.44</time>
   <time name="total">    6.44    6.46</time>
   <energy>
    <i name="e_fr_energy">   -682.56819400 </i>
    <i name="e_wo_entrp">   -682.56819400 </i>
    <i name="e_0_energy">   -682.56819400 </i>
   </energy>
  </scstep>
  <scstep>
   <time name="dav">    5.31    5.32</time>
   <time name="total">    6.32    6.34</time>
   <energy>
    <i name="e_fr_energy">   -682.56819869 </i>
    <i name="e_wo_entrp">   -682.56819869 </i>
    <i name="e_0_energy">   -682.56819869 </i>
   </energy>
  </scstep>
  <scstep>
   <time name="dav">    5.29    5.31</time>
   <time name="total">    6.31    6.33</time>
   <energy>
    <i name="e_fr_energy">   -682.56819485 </i>
    <i name="e_wo_entrp">   -682.56819485 </i>
    <i name="e_0_energy">   -682.56819485 </i>
   </energy>
  </scstep>
  <scstep>
   <time name="dav">    5.32    5.33</time>
   <time name="total">    6.33    6.35</time>
   <energy>
    <i name="e_fr_energy">   -682.56819542 </i>
    <i name="e_wo_entrp">   -682.56819542 </i>
    <i name="e_0_energy">   -682.56819542 </i>
   </energy>
  </scstep>
  <scstep>
   <time name="dav">    4.00    4.02</time>
   <time name="total">    5.02    5.04</time>
   <energy>
    <i name="e_fr_energy">   -682.56819435 </i>
    <i name="e_wo_entrp">   -682.56819435 </i>
    <i name="e_0_energy">   -682.56819435 </i>
   </energy>
  </scstep>
  <scstep>
   <time name="dav">    3.31    3.32</time>
   <time name="total">    4.32    4.34</time>
   <energy>
    <i name="e_fr_energy">   -682.56819444 </i>
    <i name="e_wo_entrp">   -682.56819444 </i>
    <i name="e_0_energy">   -682.56819444 </i>
   </energy>
  </scstep>
  <scstep>
   <time name="dav">    3.22    3.23</time>
   <time name="total">    4.24    4.25</time>
   <energy>
    <i name="e_fr_energy">   -682.56819446 </i>
    <i name="e_wo_entrp">   -682.56819446 </i>
    <i name="e_0_energy">   -682.56819446 </i>
   </energy>
  </scstep>
  <scstep>
   <time name="dav">    3.22    3.23</time>
   <time name="total">    4.24    4.25</time>
   <energy>
    <i name="e_fr_energy">   -682.56819445 </i>
    <i name="e_wo_entrp">   -682.56819445 </i>
    <i name="e_0_energy">   -682.56819445 </i>
   </energy>
  </scstep>
  <scstep>
   <time name="dav">    3.23    3.23</time>
   <time name="total">    3.73    3.74</time>
   <energy>
    <i name="alphaZ">    210.78028765 </i>
    <i name="ewald"> -14524.86513549 </i>
    <i name="hartreedc">   -991.73333121 </i>
    <i name="XCdc">  -1153.28598517 </i>
    <i name="pawpsdc">   4723.40774906 </i>
    <i name="pawaedc">  -2485.14587628 </i>
    <i name="eentropy">     -0.00000000 </i>
    <i name="bandstr">    345.79323700 </i>
    <i name="atom">  13192.48085998 </i>
    <i name="e_fr_energy">   -682.56819444 </i>
    <i name="e_wo_entrp">   -682.56819444 </i>
    <i name="e_0_energy">   -682.56819444 </i>
   </energy>
  </scstep>
  <structure>
   <crystal>
    <varray name="basis" >
     <v>       0.00000000      10.93716070      10.93716070 </v>
     <v>      10.93716070       0.00000000      10.93716070 </v>
     <v>      10.93716070      10.93716070       0.00000000 </v>
    </varray>
    <i name="volume">   2616.63878844 </i>
    <varray name="rec_basis" >
     <v>      -0.04571570       0.04571570       0.04571570 </v>
     <v>       0.04571570      -0.04571570       0.04571570 </v>
     <v>       0.04571570       0.04571570      -0.04571570 </v>
    </varray>
   </crystal>
   <varray name="positions" >
    <v>       0.06204284       0.06295716       0.06204284 </v>
    <v>       0.31250000       0.06250000       0.06250000 </v>
    <v>       0.56250000       0.06250000       0.06250000 </v>
    <v>       0.81250000       0.06250000       0.06250000 </v>
    <v>       0.06250000       0.31250000       0.06250000 </v>
    <v>       0.31250000       0.31250000       0.06250000 </v>
    <v>       0.56250000       0.31250000       0.06250000 </v>
    <v>       0.81250000       0.31250000       0.06250000 </v>
    <v>       0.06250000       0.56250000       0.06250000 </v>
    <v>       0.31250000       0.56250000       0.06250000 </v>
    <v>       0.56250000       0.56250000       0.06250000 </v>
    <v>       0.81250000       0.56250000       0.06250000 </v>
    <v>       0.06250000       0.81250000       0.06250000 </v>
    <v>       0.31250000       0.81250000       0.06250000 </v>
    <v>       0.56250000       0.81250000       0.06250000 </v>
    <v>       0.81250000       0.81250000       0.06250000 </v>
    <v>       0.06250000       0.06250000       0.31250000 </v>
    <v>       0.31250000       0.06250000       0.31250000 </v>
    <v>       0.56250000       0.06250000       0.31250000 </v>
    <v>       0.81250000       0.06250000       0.31250000 </v>
    <v>       0.06250000       0.31250000       0.31250000 </v>
    <v>       0.31250000       0.31250000       0.31250000 </v>
    <v>       0.56250000       0.31250000       0.31250000 </v>
    <v>       0.81250000       0.31250000       0.31250000 </v>
    <v>       0.06250000       0.56250000       0.31250000 </v>
    <v>       0.31250000       0.56250000       0.31250000 </v>
    <v>       0.56250000       0.56250000       0.31250000 </v>
    <v>       0.81250000       0.56250000       0.31250000 </v>
    <v>       0.06250000       0.81250000       0.31250000 </v>
    <v>       0.31250000       0.81250000       0.31250000 </v>
    <v>       0.56250000       0.81250000       0.31250000 </v>
    <v>       0.81250000       0.81250000       0.31250000 </v>
    <v>       0.06250000       0.06250000       0.56250000 </v>
    <v>       0.31250000       0.06250000       0.56250000 </v>
    <v>       0.56250000       0.06250000       0.56250000 </v>
    <v>       0.81250000       0.06250000       0.56250000 </v>
    <v>       0.06250000       0.31250000       0.56250000 </v>
    <v>       0.31250000       0.31250000       0.56250000 </v>
    <v>       0.56250000       0.31250000       0.56250000 </v>
    <v>       0.81250000       0.31250000       0.56250000 </v>
    <v>       0.06250000       0.56250000       0.56250000 </v>
    <v>       0.31250000       0.56250000       0.56250000 </v>
    <v>       0.56250000       0.56250000       0.56250000 </v>
    <v>       0.81250000       0.56250000       0.56250000 </v>
    <v>       0.06250000       0.81250000       0.56250000 </v>
    <v>       0.31250000       0.81250000       0.56250000 </v>
    <v>       0.56250000       0.81250000       0.56250000 </v>
    <v>       0.81250000       0.81250000       0.56250000 </v>
    <v>       0.06250000       0.06250000       0.81250000 </v>
    <v>       0.31250000       0.06250000       0.81250000 </v>
    <v>       0.56250000       0.06250000       0.81250000 </v>
    <v>       0.81250000       0.06250000       0.81250000 </v>
    <v>       0.06250000       0.31250000       0.81250000 </v>
    <v>       0.31250000       0.31250000       0.81250000 </v>
    <v>       0.56250000       0.31250000       0.81250000 </v>
    <v>       0.81250000       0.31250000       0.81250000 </v>
    <v>       0.06250000       0.56250000       0.81250000 </v>
    <v>       0.31250000       0.56250000       0.81250000 </v>
    <v>       0.56250000       0.56250000       0.81250000 </v>
    <v>       0.81250000       0.56250000       0.81250000 </v>
    <v>       0.06250000       0.81250000       0.81250000 </v>
    <v>       0.31250000       0.81250000       0.81250000 </v>
    <v>       0.56250000       0.81250000       0.81250000 </v>
    <v>       0.81250000       0.81250000       0.81250000 </v>
    <v>       0.00000000       0.00000000       0.00000000 </v>
    <v>       0.25000000       0.00000000       0.00000000 </v>
    <v>       0.50045716       0.99954284       0.00045716 </v>
    <v>       0.75000000       0.00000000       0.00000000 </v>
    <v>       0.00000000       0.25000000       0.00000000 </v>
    <v>       0.25000000       0.25000000       0.00000000 </v>
    <v>       0.50000000       0.25000000       0.00000000 </v>
    <v>       0.75000000       0.25000000       0.00000000 </v>
    <v>       0.00000000       0.50000000       0.00000000 </v>
    <v>       0.25000000       0.50000000       0.00000000 </v>
    <v>       0.50000000       0.50000000       0.00000000 </v>
    <v>       0.75000000       0.50000000       0.00000000 </v>
    <v>       0.00000000       0.75000000       0.00000000 </v>
    <v>       0.25000000       0.75000000       0.00000000 </v>
    <v>       0.50000000       0.75000000       0.00000000 </v>
    <v>       0.75000000       0.75000000       0.00000000 </v>
    <v>       0.00000000       0.00000000       0.25000000 </v>
    <v>       0.25000000       0.00000000       0.25000000 </v>
    <v>       0.50000000       0.00000000       0.25000000 </v>
    <v>       0.75000000       0.00000000       0.25000000 </v>
    <v>       0.00000000       0.25000000       0.25000000 </v>
    <v>       0.25000000       0.25000000       0.25000000 </v>
    <v>       0.50000000       0.25000000       0.25000000 </v>
    <v>       0.75000000       0.25000000       0.25000000 </v>
    <v>       0.00000000       0.50000000       0.25000000 </v>
    <v>       0.25000000       0.50000000       0.25000000 </v>
    <v>       0.50000000       0.50000000       0.25000000 </v>
    <v>       0.75000000       0.50000000       0.25000000 </v>
    <v>       0.00000000       0.75000000       0.25000000 </v>
    <v>       0.25000000       0.75000000       0.25000000 </v>
    <v>       0.50000000       0.75000000       0.25000000 </v>
    <v>       0.75000000       0.75000000       0.25000000 </v>
    <v>       0.00000000       0.00000000       0.50000000 </v>
    <v>       0.25000000       0.00000000       0.50000000 </v>
    <v>       0.50000000       0.00000000       0.50000000 </v>
    <v>       0.75000000       0.00000000       0.50000000 </v>
    <v>       0.00000000       0.25000000       0.50000000 </v>
    <v>       0.25000000       0.25000000       0.50000000 </v>
    <v>       0.50000000       0.25000000       0.50000000 </v>
    <v>       0.75000000       0.25000000       0.50000000 </v>
    <v>       0.00000000       0.50000000       0.50000000 </v>
    <v>       0.25000000       0.50000000       0.50000000 </v>
    <v>       0.50000000       0.50000000       0.50000000 </v>
    <v>       0.75000000       0.50000000       0.50000000 </v>
    <v>       0.00000000       0.75000000       0.50000000 </v>
    <v>       0.25000000       0.75000000       0.50000000 </v>
    <v>       0.50000000       0.75000000       0.50000000 </v>
    <v>       0.75000000       0.75000000       0.50000000 </v>
    <v>       0.00000000       0.00000000       0.75000000 </v>
    <v>       0.25000000       0.00000000       0.75000000 </v>
    <v>       0.50000000       0.00000000       0.75000000 </v>
    <v>       0.75000000       0.00000000       0.75000000 </v>
    <v>       0.00000000       0.25000000       0.75000000 </v>
    <v>       0.25000000       0.25000000       0.75000000 </v>
    <v>       0.50000000       0.25000000       0.75000000 </v>
    <v>       0.75000000       0.25000000       0.75000000 </v>
    <v>       0.00000000       0.50000000       0.75000000 </v>
    <v>       0.25000000       0.50000000       0.75000000 </v>
    <v>       0.50000000       0.50000000       0.75000000 </v>
    <v>       0.75000000       0.50000000       0.75000000 </v>
    <v>       0.00000000       0.75000000       0.75000000 </v>
    <v>       0.25000000       0.75000000       0.75000000 </v>
    <v>       0.50000000       0.75000000       0.75000000 </v>
    <v>       0.75000000       0.75000000       0.75000000 </v>
   </varray>
  </structure>
  <varray name="forces" >
   <v>       0.00047704       0.13051165       0.00019373 </v>
   <v>      -0.01900148       0.03098501       0.01792874 </v>
   <v>       0.02051903       0.03271685       0.02015124 </v>
   <v>      -0.00143554      -0.00137523      -0.00183671 </v>
   <v>      -0.00116304       0.00512793      -0.00143852 </v>
   <v>       0.00061222      -0.00035365      -0.00049315 </v>
   <v>      -0.00026617       0.00200709      -0.00068259 </v>
   <v>       0.00241984      -0.00183733       0.00057467 </v>
   <v>       0.00008024       0.00173386      -0.00015976 </v>
   <v>       0.00030874      -0.00018250      -0.00043146 </v>
   <v>       0.00084494       0.00191250       0.00047467 </v>
   <v>       0.00001029       0.00010643       0.00020309 </v>
   <v>       0.00112331       0.00497506       0.00088513 </v>
   <v>       0.00236146      -0.00181996      -0.00128896 </v>
   <v>      -0.02037062       0.03280916      -0.02067081 </v>
   <v>       0.00061200      -0.00018065      -0.00054900 </v>
   <v>      -0.00154480       0.00046596       0.00047862 </v>
   <v>      -0.00055254      -0.00029761      -0.00054592 </v>
   <v>      -0.00007214       0.00010512      -0.00062456 </v>
   <v>       0.00056044       0.00466437      -0.00133534 </v>
   <v>      -0.00017163      -0.00025999       0.00027909 </v>
   <v>       0.00002210      -0.00025938       0.00000802 </v>
   <v>      -0.00023593      -0.00035452       0.00065542 </v>
   <v>       0.00038718      -0.00050293       0.00038689 </v>
   <v>      -0.00024849      -0.00021058       0.00012616 </v>
   <v>       0.00020036      -0.00020193       0.00018649 </v>
   <v>       0.00047605       0.00011584      -0.00018547 </v>
   <v>      -0.00001000      -0.00019144      -0.00003455 </v>
   <v>      -0.00095783      -0.00172698       0.00203960 </v>
   <v>       0.00033758      -0.00041721       0.00034403 </v>
   <v>      -0.00035297      -0.00017065       0.00033907 </v>
   <v>       0.00002219      -0.00031656       0.00002172 </v>
   <v>      -0.00052855      -0.00021959      -0.00015885 </v>
   <v>      -0.00022991      -0.00004891      -0.00042782 </v>
   <v>       0.00019534       0.00187657       0.00047445 </v>
   <v>      -0.00068193       0.00193288       0.00020297 </v>
   <v>      -0.00023263      -0.00015228       0.00018408 </v>
   <v>       0.00029177      -0.00016830       0.00012765 </v>
   <v>      -0.00048576       0.00008035      -0.00020864 </v>
   <v>       0.00000586      -0.00025042      -0.00000964 </v>
   <v>       0.00002551      -0.00024746       0.00039486 </v>
   <v>       0.00016986      -0.00003877       0.00008230 </v>
   <v>      -0.00015911      -0.00005814       0.00007979 </v>
   <v>      -0.00003612      -0.00020059       0.00002486 </v>
   <v>       0.00000776      -0.00012518       0.00030738 </v>
   <v>       0.00001675      -0.00019311      -0.00003069 </v>
   <v>      -0.00006756      -0.00007152       0.00017123 </v>
   <v>       0.00029238      -0.00026032       0.00020169 </v>
   <v>      -0.00219214      -0.00153041      -0.00104269 </v>
   <v>      -0.00129273       0.00483791       0.00060500 </v>
   <v>       0.01967964       0.03245804      -0.02015858 </v>
   <v>      -0.00048722      -0.00029696      -0.00049369 </v>
   <v>       0.00094041      -0.00164952       0.00205598 </v>
   <v>       0.00034330      -0.00032928       0.00034372 </v>
   <v>      -0.00033116      -0.00034400       0.00033893 </v>
   <v>       0.00000781      -0.00032242       0.00002206 </v>
   <v>      -0.00019097      -0.00004867       0.00036518 </v>
   <v>      -0.00003122      -0.00022549      -0.00000633 </v>
   <v>      -0.00015773      -0.00017272       0.00014645 </v>
   <v>       0.00012747      -0.00020074       0.00014169 </v>
   <v>      -0.00022626      -0.00020322       0.00029008 </v>
   <v>       0.00001838      -0.00035065       0.00001886 </v>
   <v>      -0.00013122      -0.00035400       0.00061401 </v>
   <v>       0.00034393      -0.00035524       0.00033755 </v>
   <v>      -0.02051903      -0.03271684      -0.02015119 </v>
   <v>       0.01900148      -0.03098503      -0.01792877 </v>
   <v>      -0.00047706      -0.13051167      -0.00019372 </v>
   <v>       0.00143551       0.00137528       0.00183677 </v>
   <v>       0.02037060      -0.03280913       0.02067078 </v>
   <v>      -0.00236147       0.00181993       0.00128896 </v>
   <v>      -0.00112332      -0.00497504      -0.00088510 </v>
   <v>      -0.00061198       0.00018066       0.00054902 </v>
   <v>      -0.00084496      -0.00191249      -0.00047471 </v>
   <v>      -0.00030875       0.00018251       0.00043147 </v>
   <v>      -0.00008022      -0.00173388       0.00015973 </v>
   <v>      -0.00001031      -0.00010642      -0.00020312 </v>
   <v>       0.00026614      -0.00200707       0.00068261 </v>
   <v>      -0.00061219       0.00035364       0.00049318 </v>
   <v>       0.00116303      -0.00512796       0.00143848 </v>
   <v>      -0.00241987       0.00183734      -0.00057471 </v>
   <v>      -0.01967965      -0.03245807       0.02015857 </v>
   <v>       0.00129276      -0.00483791      -0.00060503 </v>
   <v>       0.00219216       0.00153042       0.00104270 </v>
   <v>       0.00048721       0.00029697       0.00049371 </v>
   <v>       0.00013122       0.00035399      -0.00061407 </v>
   <v>      -0.00001837       0.00035065      -0.00001885 </v>
   <v>       0.00022630       0.00020324      -0.00029006 </v>
   <v>      -0.00034395       0.00035526      -0.00033757 </v>
   <v>       0.00015770       0.00017270      -0.00014647 </v>
   <v>       0.00003124       0.00022548       0.00000633 </v>
   <v>       0.00019096       0.00004868      -0.00036520 </v>
   <v>      -0.00012746       0.00020075      -0.00014169 </v>
   <v>       0.00033118       0.00034402      -0.00033895 </v>
   <v>      -0.00034330       0.00032927      -0.00034370 </v>
   <v>      -0.00094040       0.00164952      -0.00205601 </v>
   <v>      -0.00000778       0.00032243      -0.00002205 </v>
   <v>      -0.00019535      -0.00187658      -0.00047444 </v>
   <v>       0.00022988       0.00004894       0.00042781 </v>
   <v>       0.00052854       0.00021959       0.00015885 </v>
   <v>       0.00068192      -0.00193292      -0.00020297 </v>
   <v>       0.00006752       0.00007151      -0.00017124 </v>
   <v>      -0.00001672       0.00019310       0.00003073 </v>
   <v>      -0.00000775       0.00012516      -0.00030737 </v>
   <v>      -0.00029237       0.00026031      -0.00020170 </v>
   <v>       0.00015910       0.00005816      -0.00007982 </v>
   <v>      -0.00016986       0.00003876      -0.00008230 </v>
   <v>      -0.00002552       0.00024746      -0.00039487 </v>
   <v>       0.00003611       0.00020062      -0.00002488 </v>
   <v>       0.00048577      -0.00008036       0.00020862 </v>
   <v>      -0.00029178       0.00016829      -0.00012764 </v>
   <v>       0.00023266       0.00015229      -0.00018407 </v>
   <v>      -0.00000585       0.00025042       0.00000961 </v>
   <v>       0.00007211      -0.00010510       0.00062460 </v>
   <v>       0.00055256       0.00029760       0.00054592 </v>
   <v>       0.00154481      -0.00046598      -0.00047859 </v>
   <v>      -0.00056042      -0.00466437       0.00133537 </v>
   <v>       0.00035298       0.00017068      -0.00033907 </v>
   <v>      -0.00033756       0.00041722      -0.00034402 </v>
   <v>       0.00095782       0.00172694      -0.00203959 </v>
   <v>      -0.00002220       0.00031658      -0.00002170 </v>
   <v>      -0.00047606      -0.00011582       0.00018545 </v>
   <v>      -0.00020035       0.00020193      -0.00018647 </v>
   <v>       0.00024851       0.00021057      -0.00012614 </v>
   <v>       0.00000998       0.00019144       0.00003454 </v>
   <v>       0.00023593       0.00035452      -0.00065541 </v>
   <v>      -0.00002206       0.00025937      -0.00000798 </v>
   <v>       0.00017166       0.00025996      -0.00027909 </v>
   <v>      -0.00038720       0.00050293      -0.00038690 </v>
  </varray>
  <varray name="stress" >
   <v>       5.73278325      -0.00000610       0.10674309 </v>
   <v>      -0.00000610       5.73070427       0.00001328 </v>
   <v>       0.10674309       0.00001327       5.73278680 </v>
  </varray>
  <energy>
   <i name="e_fr_energy">   -682.56819444 </i>
   <i name="e_wo_entrp">   -682.56819444 </i>
   <i name="e_0_energy">     -0.00000000 </i>
  </energy>
  <time name="totalsc">  121.77  122.13</time>
  <eigenvalues>
   <array>
    <dimension dim="1">band</dimension>
    <dimension dim="2">kpoint</dimension>
    <dimension dim="3">spin</dimension>
    <field>eigene</field>
    <field>occ</field>
    <set>
     <set comment="spin 1">
      <set comment="kpoint 1">
       <r>   -6.1630    1.0000 </r>
       <r>   -5.3789    1.0000 </r>
       <r>   -5.3784    1.0000 </r>
       <r>   -5.3777    1.0000 </r>
       <r>   -5.3777    1.0000 </r>
       <r>   -5.3775    1.0000 </r>
       <r>   -5.3772    1.0000 </r>
       <r>   -5.3767    1.0000 </r>
       <r>   -5.3758    1.0000 </r>
       <r>   -5.1005    1.0000 </r>
       <r>   -5.1002    1.0000 </r>
       <r>   -5.0998    1.0000 </r>
       <r>   -5.0997    1.0000 </r>
       <r>   -5.0993    1.0000 </r>
       <r>   -5.0982    1.0000 </r>
       <r>   -4.1593    1.0000 </r>
       <r>   -4.1584    1.0000 </r>
       <r>   -4.1575    1.0000 </r>
       <r>   -4.1575    1.0000 </r>
       <r>   -4.1570    1.0000 </r>
       <r>   -4.1570    1.0000 </r>
       <r>   -4.1570    1.0000 </r>
       <r>   -4.1569    1.0000 </r>
       <r>   -4.1567    1.0000 </r>
       <r>   -4.1564    1.0000 </r>
       <r>   -4.1549    1.0000 </r>
       <r>   -4.1549    1.0000 </r>
       <r>   -3.8824    1.0000 </r>
       <r>   -3.8808    1.0000 </r>
       <r>   -3.8808    1.0000 </r>
       <r>   -3.8807    1.0000 </r>
       <r>   -3.5007    1.0000 </r>
       <r>   -3.4995    1.0000 </r>
       <r>   -3.4979    1.0000 </r>
       <r>   -3.4976    1.0000 </r>
       <r>   -3.4967    1.0000 </r>
       <r>   -3.4966    1.0000 </r>
       <r>   -3.4965    1.0000 </r>
       <r>   -3.4965    1.0000 </r>
       <r>   -3.4965    1.0000 </r>
       <r>   -3.4964    1.0000 </r>
       <r>   -3.4963    1.0000 </r>
       <r>   -3.4963    1.0000 </r>
       <r>   -3.4962    1.0000 </r>
       <r>   -3.4962    1.0000 </r>
       <r>   -3.4961    1.0000 </r>
       <r>   -3.4961    1.0000 </r>
       <r>   -3.4961    1.0000 </r>
       <r>   -3.4960    1.0000 </r>
       <r>   -3.4958    1.0000 </r>
       <r>   -3.4957    1.0000 </r>
       <r>   -3.4952    1.0000 </r>
       <r>   -3.4940    1.0000 </r>
       <r>   -3.4924    1.0000 </r>
       <r>   -3.4923    1.0000 </r>
       <r>   -2.0926    1.0000 </r>
       <r>   -2.0918    1.0000 </r>
       <r>   -2.0908    1.0000 </r>
       <r>   -2.0904    1.0000 </r>
       <r>   -2.0904    1.0000 </r>
       <r>   -2.0896    1.0000 </r>
       <r>   -1.9374    1.0000 </r>
       <r>   -1.9374    1.0000 </r>
       <r>   -1.9362    1.0000 </r>
       <r>   -1.9361    1.0000 </r>
       <r>   -1.9355    1.0000 </r>
       <r>   -1.9355    1.0000 </r>
       <r>   -1.9354    1.0000 </r>
       <r>   -1.9354    1.0000 </r>
       <r>   -1.9346    1.0000 </r>
       <r>   -1.9346    1.0000 </r>
       <r>   -1.9333    1.0000 </r>
       <r>   -1.9333    1.0000 </r>
       <r>   -1.2192    1.0000 </r>
       <r>   -1.2192    1.0000 </r>
       <r>   -1.2182    1.0000 </r>
       <r>   -1.2171    1.0000 </r>
       <r>   -0.6728    1.0000 </r>
       <r>   -0.6718    1.0000 </r>
       <r>   -0.6712    1.0000 </r>
       <r>   -0.6705    1.0000 </r>
       <r>   -0.6691    1.0000 </r>
       <r>   -0.6690    1.0000 </r>
       <r>   -0.6689    1.0000 </r>
       <r>   -0.6689    1.0000 </r>
       <r>   -0.6688    1.0000 </r>
       <r>   -0.6687    1.0000 </r>
       <r>   -0.6687    1.0000 </r>
       <r>   -0.6686    1.0000 </r>
       <r>   -0.6686    1.0000 </r>
       <r>   -0.6686    1.0000 </r>
       <r>   -0.6685    1.0000 </r>
       <r>   -0.6685    1.0000 </r>
       <r>   -0.6684    1.0000 </r>
       <r>   -0.6683    1.0000 </r>
       <r>   -0.6683    1.0000 </r>
       <r>   -0.6681    1.0000 </r>
       <r>   -0.6673    1.0000 </r>
       <r>   -0.6657    1.0000 </r>
       <r>   -0.6654    1.0000 </r>
       <r>   -0.6643    1.0000 </r>
       <r>    0.2148    1.0000 </r>
       <r>    0.2149    1.0000 </r>
       <r>    0.2158    1.0000 </r>
       <r>    0.2160    1.0000 </r>
       <r>    0.2166    1.0000 </r>
       <r>    0.2166    1.0000 </r>
       <r>    0.2167    1.0000 </r>
       <r>    0.2168    1.0000 </r>
       <r>    0.2174    1.0000 </r>
       <r>    0.2174    1.0000 </r>
       <r>    0.2187    1.0000 </r>
       <r>    0.2190    1.0000 </r>
       <r>    1.7667    1.0000 </r>
       <r>    1.7669    1.0000 </r>
       <r>    1.7674    1.0000 </r>
       <r>    1.7677    1.0000 </r>
       <r>    1.7680    1.0000 </r>
       <r>    1.7683    1.0000 </r>
       <r>    1.7688    1.0000 </r>
       <r>    1.7688    1.0000 </r>
       <r>    1.8849    1.0000 </r>
       <r>    1.8849    1.0000 </r>
       <r>    1.8855    1.0000 </r>
       <r>    1.8856    1.0000 </r>
       <r>    1.8859    1.0000 </r>
       <r>    1.8859    1.0000 </r>
       <r>    1.8860    1.0000 </r>
       <r>    1.8861    1.0000 </r>
       <r>    1.8862    1.0000 </r>
       <r>    1.8864    1.0000 </r>
       <r>    1.8872    1.0000 </r>
       <r>    1.8872    1.0000 </r>
       <r>    1.9778    1.0000 </r>
       <r>    1.9780    1.0000 </r>
       <r>    1.9783    1.0000 </r>
       <r>    1.9783    1.0000 </r>
       <r>    1.9785    1.0000 </r>
       <r>    1.9787    1.0000 </r>
       <r>    1.9789    1.0000 </r>
       <r>    1.9793    1.0000 </r>
       <r>    1.9794    1.0000 </r>
       <r>    1.9796    1.0000 </r>
       <r>    1.9798    1.0000 </r>
       <r>    1.9799    1.0000 </r>
       <r>    2.1403    1.0000 </r>
       <r>    2.1404    1.0000 </r>
       <r>    2.1407    1.0000 </r>
       <r>    2.1413    1.0000 </r>
       <r>    2.1418    1.0000 </r>
       <r>    2.1420    1.0000 </r>
       <r>    2.1841    1.0000 </r>
       <r>    2.1847    1.0000 </r>
       <r>    2.1851    1.0000 </r>
       <r>    2.1857    1.0000 </r>
       <r>    2.1861    1.0000 </r>
       <r>    2.1862    1.0000 </r>
       <r>    2.1866    1.0000 </r>
       <r>    2.1866    1.0000 </r>
       <r>    2.1867    1.0000 </r>
       <r>    2.1868    1.0000 </r>
       <r>    2.1868    1.0000 </r>
       <r>    2.1869    1.0000 </r>
       <r>    2.1870    1.0000 </r>
       <r>    2.1871    1.0000 </r>
       <r>    2.1871    1.0000 </r>
       <r>    2.1871    1.0000 </r>
       <r>    2.1872    1.0000 </r>
       <r>    2.1873    1.0000 </r>
       <r>    2.1874    1.0000 </r>
       <r>    2.1875    1.0000 </r>
       <r>    2.1885    1.0000 </r>
       <r>    2.1887    1.0000 </r>
       <r>    2.1895    1.0000 </r>
       <r>    2.1896    1.0000 </r>
       <r>    2.8559    1.0000 </r>
       <r>    2.8564    1.0000 </r>
       <r>    2.8565    1.0000 </r>
       <r>    2.8567    1.0000 </r>
       <r>    2.8568    1.0000 </r>
       <r>    2.8573    1.0000 </r>
       <r>    3.4899    1.0000 </r>
       <r>    3.4900    1.0000 </r>
       <r>    3.4912    1.0000 </r>
       <r>    3.4913    1.0000 </r>
       <r>    3.4920    1.0000 </r>
       <r>    3.4922    1.0000 </r>
       <r>    3.4922    1.0000 </r>
       <r>    3.4922    1.0000 </r>
       <r>    3.4923    1.0000 </r>
       <r>    3.4924    1.0000 </r>
       <r>    3.4924    1.0000 </r>
       <r>    3.4924    1.0000 </r>
       <r>    3.4926    1.0000 </r>
       <r>    3.4926    1.0000 </r>
       <r>    3.4926    1.0000 </r>
       <r>    3.4927    1.0000 </r>
       <r>    3.4928    1.0000 </r>
       <r>    3.4928    1.0000 </r>
       <r>    3.4931    1.0000 </r>
       <r>    3.4931    1.0000 </r>
       <r>    3.4936    1.0000 </r>
       <r>    3.4937    1.0000 </r>
       <r>    3.4943    1.0000 </r>
       <r>    3.4960    1.0000 </r>
       <r>    3.8014    1.0000 </r>
       <r>    3.8031    1.0000 </r>
       <r>    3.8035    1.0000 </r>
       <r>    3.8037    1.0000 </r>
       <r>    3.8038    1.0000 </r>
       <r>    3.8038    1.0000 </r>
       <r>    3.8039    1.0000 </r>
       <r>    3.8039    1.0000 </r>
       <r>    3.8039    1.0000 </r>
       <r>    3.8044    1.0000 </r>
       <r>    3.8048    1.0000 </r>
       <r>    3.8057    1.0000 </r>
       <r>    4.3501    1.0000 </r>
       <r>    4.3520    1.0000 </r>
       <r>    4.3521    1.0000 </r>
       <r>    4.3523    1.0000 </r>
       <r>    4.3527    1.0000 </r>
       <r>    4.3528    1.0000 </r>
       <r>    4.3528    1.0000 </r>
       <r>    4.3531    1.0000 </r>
       <r>    4.3537    1.0000 </r>
       <r>    4.3537    1.0000 </r>
       <r>    4.3542    1.0000 </r>
       <r>    4.3543    1.0000 </r>
       <r>    4.4753    1.0000 </r>
       <r>    4.4771    1.0000 </r>
       <r>    4.4773    1.0000 </r>
       <r>    4.4778    1.0000 </r>
       <r>    4.4780    1.0000 </r>
       <r>    4.4784    1.0000 </r>
       <r>    4.4787    1.0000 </r>
       <r>    4.4791    1.0000 </r>
       <r>    4.9086    1.0000 </r>
       <r>    4.9088    1.0000 </r>
       <r>    4.9111    1.0000 </r>
       <r>    4.9114    1.0000 </r>
       <r>    4.9114    1.0000 </r>
       <r>    4.9115    1.0000 </r>
       <r>    4.9117    1.0000 </r>
       <r>    4.9117    1.0000 </r>
       <r>    4.9119    1.0000 </r>
       <r>    4.9119    1.0000 </r>
       <r>    4.9121    1.0000 </r>
       <r>    4.9122    1.0000 </r>
       <r>    4.9122    1.0000 </r>
       <r>    4.9122    1.0000 </r>
       <r>    4.9138    1.0000 </r>
       <r>    4.9160    1.0000 </r>
       <r>    5.6589    1.0000 </r>
       <r>    5.6604    1.0000 </r>
       <r>    5.6619    1.0000 </r>
       <r>    6.3943    0.0000 </r>
       <r>    6.3944    0.0000 </r>
       <r>    6.3944    0.0000 </r>
       <r>    6.3956    0.0000 </r>
       <r>    6.3959    0.0000 </r>
       <r>    6.3961    0.0000 </r>
       <r>    6.7952    0.0000 </r>
       <r>    6.7957    0.0000 </r>
       <r>    6.7963    0.0000 </r>
       <r>    6.7966    0.0000 </r>
       <r>    6.7968    0.0000 </r>
       <r>    6.7969    0.0000 </r>
       <r>    7.1205    0.0000 </r>
       <r>    7.1207    0.0000 </r>
       <r>    7.1211    0.0000 </r>
       <r>    7.1211    0.0000 </r>
       <r>    7.1827    0.0000 </r>
       <r>    7.1835    0.0000 </r>
       <r>    7.1838    0.0000 </r>
       <r>    7.1844    0.0000 </r>
       <r>    7.1857    0.0000 </r>
       <r>    7.1857    0.0000 </r>
       <r>    7.1858    0.0000 </r>
       <r>    7.1858    0.0000 </r>
       <r>    7.1858    0.0000 </r>
       <r>    7.1859    0.0000 </r>
       <r>    7.1859    0.0000 </r>
       <r>    7.1860    0.0000 </r>
       <r>    7.1860    0.0000 </r>
       <r>    7.1861    0.0000 </r>
       <r>    7.1862    0.0000 </r>
       <r>    7.1862    0.0000 </r>
       <r>    7.1862    0.0000 </r>
       <r>    7.1863    0.0000 </r>
       <r>    7.1863    0.0000 </r>
       <r>    7.1864    0.0000 </r>
       <r>    7.1872    0.0000 </r>
       <r>    7.1875    0.0000 </r>
       <r>    7.1891    0.0000 </r>
       <r>    7.1894    0.0000 </r>
       <r>    7.6113    0.0000 </r>
       <r>    7.6113    0.0000 </r>
       <r>    7.6120    0.0000 </r>
       <r>    7.6121    0.0000 </r>
       <r>    7.6125    0.0000 </r>
       <r>    7.6126    0.0000 </r>
       <r>    7.6128    0.0000 </r>
       <r>    7.6132    0.0000 </r>
       <r>    8.0807    0.0000 </r>
       <r>    8.0817    0.0000 </r>
       <r>    8.0821    0.0000 </r>
       <r>    8.0828    0.0000 </r>
       <r>    8.0828    0.0000 </r>
       <r>    8.0829    0.0000 </r>
       <r>    8.0830    0.0000 </r>
       <r>    8.0831    0.0000 </r>
       <r>    8.0837    0.0000 </r>
       <r>    8.0838    0.0000 </r>
       <r>    8.0842    0.0000 </r>
       <r>    8.0843    0.0000 </r>
       <r>    8.1984    0.0000 </r>
       <r>    8.1993    0.0000 </r>
       <r>    8.2002    0.0000 </r>
       <r>    8.7790    0.0000 </r>
       <r>    8.7792    0.0000 </r>
       <r>    8.7870    0.0000 </r>
      </set>
     </set>
    </set>
   </array>
  </eigenvalues>
  <separator name="orbital magnetization" >
   <v name="MAGDIPOLOUT">      0.00000000      0.00000000      0.00000000</v>
  </separator>
  <dos>
   <i name="efermi">      5.92001441 </i>
   <total>
    <array>
     <dimension dim="1">gridpoints</dimension>
     <dimension dim="2">spin</dimension>
     <field>energy</field>
     <field>total</field>
     <field>integrated</field>
     <set>
      <set comment="spin 1">
       <r>    -6.9105     0.0000     0.0000 </r>
       <r>    -6.8557     0.0000     0.0000 </r>
       <r>    -6.8009     0.0000     0.0000 </r>
       <r>    -6.7461     0.0000     0.0000 </r>
       <r>    -6.6913     0.0000     0.0000 </r>
       <r>    -6.6364     0.0000     0.0000 </r>
       <r>    -6.5816     0.0000     0.0000 </r>
       <r>    -6.5268     0.0000     0.0000 </r>
       <r>    -6.4720     0.0000     0.0000 </r>
       <r>    -6.4172     0.0000     0.0000 </r>
       <r>    -6.3624     0.0000     0.0000 </r>
       <r>    -6.3075     0.0008     0.0000 </r>
       <r>    -6.2527     0.2031     0.0112 </r>
       <r>    -6.1979     5.7033     0.3238 </r>
       <r>    -6.1431    20.1270     1.4271 </r>
       <r>    -6.0883     9.8218     1.9655 </r>
       <r>    -6.0335     0.6247     1.9998 </r>
       <r>    -5.9786     0.0045     2.0000 </r>
       <r>    -5.9238     0.0000     2.0000 </r>
       <r>    -5.8690     0.0000     2.0000 </r>
       <r>    -5.8142     0.0000     2.0000 </r>
       <r>    -5.7594     0.0000     2.0000 </r>
       <r>    -5.7046     0.0000     2.0000 </r>
       <r>    -5.6497     0.0000     2.0000 </r>
       <r>    -5.5949     0.0000     2.0000 </r>
       <r>    -5.5401     0.0006     2.0000 </r>
       <r>    -5.4853     0.3353     2.0184 </r>
       <r>    -5.4305    19.2287     3.0725 </r>
       <r>    -5.3757   132.3873    10.3295 </r>
       <r>    -5.3208   123.9858    17.1260 </r>
       <r>    -5.2660    15.7073    17.9870 </r>
       <r>    -5.2112     0.4122    18.0096 </r>
       <r>    -5.1564    11.7077    18.6514 </r>
       <r>    -5.1016    92.8095    23.7389 </r>
       <r>    -5.0468    99.4668    29.1914 </r>
       <r>    -4.9919    14.4977    29.9861 </r>
       <r>    -4.9371     0.2537    30.0000 </r>
       <r>    -4.8823     0.0005    30.0000 </r>
       <r>    -4.8275     0.0000    30.0000 </r>
       <r>    -4.7727     0.0000    30.0000 </r>
       <r>    -4.7179     0.0000    30.0000 </r>
       <r>    -4.6630     0.0000    30.0000 </r>
       <r>    -4.6082     0.0000    30.0000 </r>
       <r>    -4.5534     0.0000    30.0000 </r>
       <r>    -4.4986     0.0000    30.0000 </r>
       <r>    -4.4438     0.0000    30.0000 </r>
       <r>    -4.3890     0.0000    30.0000 </r>
       <r>    -4.3341     0.0001    30.0000 </r>
       <r>    -4.2793     0.1186    30.0065 </r>
       <r>    -4.2245    12.1908    30.6748 </r>
       <r>    -4.1697   145.1122    38.6293 </r>
       <r>    -4.1149   229.1611    51.1912 </r>
       <r>    -4.0601    49.8931    53.9262 </r>
       <r>    -4.0052     1.3758    54.0016 </r>
       <r>    -3.9504     3.6351    54.2009 </r>
       <r>    -3.8956    46.1951    56.7331 </r>
       <r>    -3.8408    77.5921    60.9865 </r>
       <r>    -3.7860    17.9719    61.9716 </r>
       <r>    -3.7312     0.5161    61.9999 </r>
       <r>    -3.6763     0.0018    62.0000 </r>
       <r>    -3.6215     0.1755    62.0096 </r>
       <r>    -3.5667    20.1847    63.1161 </r>
       <r>    -3.5119   267.8675    77.7997 </r>
       <r>    -3.4571   469.8264   103.5540 </r>
       <r>    -3.4023   114.1180   109.8096 </r>
       <r>    -3.3474     3.4619   109.9994 </r>
       <r>    -3.2926     0.0115   110.0000 </r>
       <r>    -3.2378     0.0000   110.0000 </r>
       <r>    -3.1830     0.0000   110.0000 </r>
       <r>    -3.1282     0.0000   110.0000 </r>
       <r>    -3.0733     0.0000   110.0000 </r>
       <r>    -3.0185     0.0000   110.0000 </r>
       <r>    -2.9637     0.0000   110.0000 </r>
       <r>    -2.9089     0.0000   110.0000 </r>
       <r>    -2.8541     0.0000   110.0000 </r>
       <r>    -2.7993     0.0000   110.0000 </r>
       <r>    -2.7444     0.0000   110.0000 </r>
       <r>    -2.6896     0.0000   110.0000 </r>
       <r>    -2.6348     0.0000   110.0000 </r>
       <r>    -2.5800     0.0000   110.0000 </r>
       <r>    -2.5252     0.0000   110.0000 </r>
       <r>    -2.4704     0.0000   110.0000 </r>
       <r>    -2.4155     0.0000   110.0000 </r>
       <r>    -2.3607     0.0000   110.0000 </r>
       <r>    -2.3059     0.0000   110.0000 </r>
       <r>    -2.2511     0.0007   110.0000 </r>
       <r>    -2.1963     0.3166   110.0174 </r>
       <r>    -2.1415    16.4473   110.9190 </r>
       <r>    -2.0866   103.2708   116.5799 </r>
       <r>    -2.0318    89.9165   121.5089 </r>
       <r>    -1.9770    61.2194   124.8647 </r>
       <r>    -1.9222   230.3039   137.4892 </r>
       <r>    -1.8674   143.3149   145.3453 </r>
       <r>    -1.8126    11.8310   145.9938 </r>
       <r>    -1.7577     0.1131   146.0000 </r>
       <r>    -1.7029     0.0001   146.0000 </r>
       <r>    -1.6481     0.0000   146.0000 </r>
       <r>    -1.5933     0.0000   146.0000 </r>
       <r>    -1.5385     0.0000   146.0000 </r>
       <r>    -1.4837     0.0000   146.0000 </r>
       <r>    -1.4288     0.0000   146.0000 </r>
       <r>    -1.3740     0.0008   146.0000 </r>
       <r>    -1.3192     0.3179   146.0175 </r>
       <r>    -1.2644    13.7995   146.7739 </r>
       <r>    -1.2096    73.2372   150.7885 </r>
       <r>    -1.1548    53.3376   153.7123 </r>
       <r>    -1.0999     5.1889   153.9968 </r>
       <r>    -1.0451     0.0590   154.0000 </r>
       <r>    -0.9903     0.0001   154.0000 </r>
       <r>    -0.9355     0.0000   154.0000 </r>
       <r>    -0.8807     0.0000   154.0000 </r>
       <r>    -0.8259     0.0039   154.0002 </r>
       <r>    -0.7710     1.6656   154.0915 </r>
       <r>    -0.7162    76.5691   158.2888 </r>
       <r>    -0.6614   430.2442   181.8733 </r>
       <r>    -0.6066   332.2435   200.0858 </r>
       <r>    -0.5518    34.4968   201.9768 </r>
       <r>    -0.4970     0.4220   202.0000 </r>
       <r>    -0.4421     0.0005   202.0000 </r>
       <r>    -0.3873     0.0000   202.0000 </r>
       <r>    -0.3325     0.0000   202.0000 </r>
       <r>    -0.2777     0.0000   202.0000 </r>
       <r>    -0.2229     0.0000   202.0000 </r>
       <r>    -0.1681     0.0000   202.0000 </r>
       <r>    -0.1132     0.0000   202.0000 </r>
       <r>    -0.0584     0.0000   202.0000 </r>
       <r>    -0.0036     0.0000   202.0000 </r>
       <r>     0.0512     0.0006   202.0000 </r>
       <r>     0.1060     0.3825   202.0210 </r>
       <r>     0.1608    24.5910   203.3690 </r>
       <r>     0.2157   188.5949   213.7072 </r>
       <r>     0.2705   196.0614   224.4546 </r>
       <r>     0.3253    27.7213   225.9742 </r>
       <r>     0.3801     0.4703   226.0000 </r>
       <r>     0.4349     0.0008   226.0000 </r>
       <r>     0.4897     0.0000   226.0000 </r>
       <r>     0.5446     0.0000   226.0000 </r>
       <r>     0.5994     0.0000   226.0000 </r>
       <r>     0.6542     0.0000   226.0000 </r>
       <r>     0.7090     0.0000   226.0000 </r>
       <r>     0.7638     0.0000   226.0000 </r>
       <r>     0.8186     0.0000   226.0000 </r>
       <r>     0.8735     0.0000   226.0000 </r>
       <r>     0.9283     0.0000   226.0000 </r>
       <r>     0.9831     0.0000   226.0000 </r>
       <r>     1.0379     0.0000   226.0000 </r>
       <r>     1.0927     0.0000   226.0000 </r>
       <r>     1.1475     0.0000   226.0000 </r>
       <r>     1.2024     0.0000   226.0000 </r>
       <r>     1.2572     0.0000   226.0000 </r>
       <r>     1.3120     0.0000   226.0000 </r>
       <r>     1.3668     0.0000   226.0000 </r>
       <r>     1.4216     0.0000   226.0000 </r>
       <r>     1.4764     0.0000   226.0000 </r>
       <r>     1.5313     0.0000   226.0000 </r>
       <r>     1.5861     0.0000   226.0000 </r>
       <r>     1.6409     0.0483   226.0026 </r>
       <r>     1.6957     5.9930   226.3312 </r>
       <r>     1.7505    85.1324   230.9978 </r>
       <r>     1.8053   163.4936   239.9600 </r>
       <r>     1.8602   137.8473   247.5164 </r>
       <r>     1.9150   262.3528   261.8977 </r>
       <r>     1.9698   245.4286   275.3513 </r>
       <r>     2.0246   224.4153   287.6530 </r>
       <r>     2.0794    51.7662   290.4906 </r>
       <r>     2.1342   143.4190   298.3524 </r>
       <r>     2.1891   506.1997   326.1006 </r>
       <r>     2.2439   388.5221   347.3981 </r>
       <r>     2.2987    46.7721   349.9619 </r>
       <r>     2.3535     0.6930   349.9999 </r>
       <r>     2.4083     0.0011   350.0000 </r>
       <r>     2.4631     0.0000   350.0000 </r>
       <r>     2.5180     0.0000   350.0000 </r>
       <r>     2.5728     0.0000   350.0000 </r>
       <r>     2.6276     0.0000   350.0000 </r>
       <r>     2.6824     0.0001   350.0000 </r>
       <r>     2.7372     0.0802   350.0044 </r>
       <r>     2.7920     7.3425   350.4069 </r>
       <r>     2.8469    78.2409   354.6958 </r>
       <r>     2.9017   111.0824   360.7850 </r>
       <r>     2.9565    21.6474   361.9716 </r>
       <r>     3.0113     0.5165   361.9999 </r>
       <r>     3.0661     0.0013   362.0000 </r>
       <r>     3.1209     0.0000   362.0000 </r>
       <r>     3.1758     0.0000   362.0000 </r>
       <r>     3.2306     0.0000   362.0000 </r>
       <r>     3.2854     0.0000   362.0000 </r>
       <r>     3.3402     0.0073   362.0004 </r>
       <r>     3.3950     2.5546   362.1404 </r>
       <r>     3.4498    97.1044   367.4634 </r>
       <r>     3.5047   455.6922   392.4429 </r>
       <r>     3.5595   294.7129   408.5981 </r>
       <r>     3.6143    25.3216   409.9861 </r>
       <r>     3.6691     0.2829   410.0017 </r>
       <r>     3.7239     5.1916   410.2862 </r>
       <r>     3.7787    99.4031   415.7352 </r>
       <r>     3.8336   245.4623   429.1906 </r>
       <r>     3.8884    84.0483   433.7979 </r>
       <r>     3.9432     3.6695   433.9990 </r>
       <r>     3.9980     0.0178   434.0000 </r>
       <r>     4.0528     0.0000   434.0000 </r>
       <r>     4.1076     0.0000   434.0000 </r>
       <r>     4.1625     0.0000   434.0000 </r>
       <r>     4.2173     0.0278   434.0015 </r>
       <r>     4.2721     4.8926   434.2697 </r>
       <r>     4.3269    96.6241   439.5663 </r>
       <r>     4.3817   246.6594   453.0874 </r>
       <r>     4.4365   121.3769   459.7409 </r>
       <r>     4.4914   158.0074   468.4023 </r>
       <r>     4.5462    94.3935   473.5767 </r>
       <r>     4.6010     7.6512   473.9961 </r>
       <r>     4.6558     0.0717   474.0000 </r>
       <r>     4.7106     0.0001   474.0000 </r>
       <r>     4.7654     0.0104   474.0006 </r>
       <r>     4.8203     2.8222   474.1553 </r>
       <r>     4.8751    84.6080   478.7932 </r>
       <r>     4.9299   318.5607   496.2557 </r>
       <r>     4.9847   166.2698   505.3700 </r>
       <r>     5.0395    11.4029   505.9951 </r>
       <r>     5.0943     0.0896   506.0000 </r>
       <r>     5.1492     0.0001   506.0000 </r>
       <r>     5.2040     0.0000   506.0000 </r>
       <r>     5.2588     0.0000   506.0000 </r>
       <r>     5.3136     0.0000   506.0000 </r>
       <r>     5.3684     0.0000   506.0000 </r>
       <r>     5.4232     0.0000   506.0000 </r>
       <r>     5.4781     0.0000   506.0000 </r>
       <r>     5.5329     0.0170   506.0009 </r>
       <r>     5.5877     2.1582   506.1192 </r>
       <r>     5.6425    31.3323   507.8368 </r>
       <r>     5.6973    59.6884   511.1087 </r>
       <r>     5.7521    15.7378   511.9714 </r>
       <r>     5.8070     0.5200   511.9999 </r>
       <r>     5.8618     0.0019   512.0000 </r>
       <r>     5.9166     0.0000   512.0000 </r>
       <r>     5.9714     0.0000   512.0000 </r>
       <r>     6.0262     0.0000   512.0000 </r>
       <r>     6.0810     0.0000   512.0000 </r>
       <r>     6.1359     0.0000   512.0000 </r>
       <r>     6.1907     0.0000   512.0000 </r>
       <r>     6.2455     0.0025   512.0001 </r>
       <r>     6.3003     0.8003   512.0440 </r>
       <r>     6.3551    27.4363   513.5480 </r>
       <r>     6.4099   116.7623   519.9485 </r>
       <r>     6.4648    68.5523   523.7063 </r>
       <r>     6.5196     5.3102   523.9974 </r>
       <r>     6.5744     0.0473   524.0000 </r>
       <r>     6.6292     0.0003   524.0000 </r>
       <r>     6.6840     0.1644   524.0090 </r>
       <r>     6.7388    11.2662   524.6266 </r>
       <r>     6.7937    91.6100   529.6484 </r>
       <r>     6.8485   100.5733   535.1615 </r>
       <r>     6.9033    15.0268   535.9852 </r>
       <r>     6.9581     0.2702   536.0000 </r>
       <r>     7.0129     0.1664   536.0091 </r>
       <r>     7.0677     9.9119   536.5524 </r>
       <r>     7.1226    97.6722   541.9065 </r>
       <r>     7.1774   383.6952   562.9394 </r>
       <r>     7.2322   446.0736   587.3917 </r>
       <r>     7.2870    82.1808   591.8966 </r>
       <r>     7.3418     1.8821   591.9997 </r>
       <r>     7.3966     0.0047   592.0000 </r>
       <r>     7.4515     0.0008   592.0000 </r>
       <r>     7.5063     0.3978   592.0219 </r>
       <r>     7.5611    21.2148   593.1848 </r>
       <r>     7.6159   136.4040   600.6620 </r>
       <r>     7.6707   119.5460   607.2151 </r>
       <r>     7.7255    14.1208   607.9892 </r>
       <r>     7.7804     0.1973   608.0000 </r>
       <r>     7.8352     0.0003   608.0000 </r>
       <r>     7.8900     0.0000   608.0000 </r>
       <r>     7.9448     0.0206   608.0011 </r>
       <r>     7.9996     4.0293   608.2220 </r>
       <r>     8.0544    87.9962   613.0457 </r>
       <r>     8.1093   246.3844   626.5516 </r>
       <r>     8.1641   112.0642   632.6946 </r>
       <r>     8.2189    64.9996   636.2577 </r>
       <r>     8.2737    29.8437   637.8936 </r>
       <r>     8.3285     1.9264   637.9992 </r>
       <r>     8.3833     0.0142   638.0000 </r>
       <r>     8.4382     0.0000   638.0000 </r>
       <r>     8.4930     0.0000   638.0000 </r>
       <r>     8.5478     0.0000   638.0000 </r>
       <r>     8.6026     0.0000   638.0000 </r>
       <r>     8.6574     0.0256   638.0014 </r>
       <r>     8.7122     2.7426   638.1517 </r>
       <r>     8.7671    34.4429   640.0398 </r>
       <r>     8.8219    58.0802   643.2236 </r>
       <r>     8.8767    13.7498   643.9773 </r>
       <r>     8.9315     0.4132   643.9999 </r>
       <r>     8.9863     0.0014   644.0000 </r>
       <r>     9.0411     0.0000   644.0000 </r>
       <r>     9.0960     0.0000   644.0000 </r>
       <r>     9.1508     0.0000   644.0000 </r>
       <r>     9.2056     0.0000   644.0000 </r>
       <r>     9.2604     0.0000   644.0000 </r>
       <r>     9.3152     0.0000   644.0000 </r>
       <r>     9.3700     0.0000   644.0000 </r>
       <r>     9.4249     0.0000   644.0000 </r>
       <r>     9.4797     0.0000   644.0000 </r>
       <r>     9.5345     0.0000   644.0000 </r>
      </set>
     </set>
    </array>
   </total>
  </dos>
 </calculation>
 <structure name="finalpos" >
  <crystal>
   <varray name="basis" >
    <v>       0.00000000      10.93716070      10.93716070 </v>
    <v>      10.93716070       0.00000000      10.93716070 </v>
    <v>      10.93716070      10.93716070       0.00000000 </v>
   </varray>
   <i name="volume">   2616.63878844 </i>
   <varray name="rec_basis" >
    <v>      -0.04571570       0.04571570       0.04571570 </v>
    <v>       0.04571570      -0.04571570       0.04571570 </v>
    <v>       0.04571570       0.04571570      -0.04571570 </v>
   </varray>
  </crystal>
  <varray name="positions" >
   <v>       0.06204284       0.06295716       0.06204284 </v>
   <v>       0.31250000       0.06250000       0.06250000 </v>
   <v>       0.56250000       0.06250000       0.06250000 </v>
   <v>       0.81250000       0.06250000       0.06250000 </v>
   <v>       0.06250000       0.31250000       0.06250000 </v>
   <v>       0.31250000       0.31250000       0.06250000 </v>
   <v>       0.56250000       0.31250000       0.06250000 </v>
   <v>       0.81250000       0.31250000       0.06250000 </v>
   <v>       0.06250000       0.56250000       0.06250000 </v>
   <v>       0.31250000       0.56250000       0.06250000 </v>
   <v>       0.56250000       0.56250000       0.06250000 </v>
   <v>       0.81250000       0.56250000       0.06250000 </v>
   <v>       0.06250000       0.81250000       0.06250000 </v>
   <v>       0.31250000       0.81250000       0.06250000 </v>
   <v>       0.56250000       0.81250000       0.06250000 </v>
   <v>       0.81250000       0.81250000       0.06250000 </v>
   <v>       0.06250000       0.06250000       0.31250000 </v>
   <v>       0.31250000       0.06250000       0.31250000 </v>
   <v>       0.56250000       0.06250000       0.31250000 </v>
   <v>       0.81250000       0.06250000       0.31250000 </v>
   <v>       0.06250000       0.31250000       0.31250000 </v>
   <v>       0.31250000       0.31250000       0.31250000 </v>
   <v>       0.56250000       0.31250000       0.31250000 </v>
   <v>       0.81250000       0.31250000       0.31250000 </v>
   <v>       0.06250000       0.56250000       0.31250000 </v>
   <v>       0.31250000       0.56250000       0.31250000 </v>
   <v>       0.56250000       0.56250000       0.31250000 </v>
   <v>       0.81250000       0.56250000       0.31250000 </v>
   <v>       0.06250000       0.81250000       0.31250000 </v>
   <v>       0.31250000       0.81250000       0.31250000 </v>
   <v>       0.56250000       0.81250000       0.31250000 </v>
   <v>       0.81250000       0.81250000       0.31250000 </v>
   <v>       0.06250000       0.06250000       0.56250000 </v>
   <v>       0.31250000       0.06250000       0.56250000 </v>
   <v>       0.56250000       0.06250000       0.56250000 </v>
   <v>       0.81250000       0.06250000       0.56250000 </v>
   <v>       0.06250000       0.31250000       0.56250000 </v>
   <v>       0.31250000       0.31250000       0.56250000 </v>
   <v>       0.56250000       0.31250000       0.56250000 </v>
   <v>       0.81250000       0.31250000       0.56250000 </v>
   <v>       0.06250000       0.56250000       0.56250000 </v>
   <v>       0.31250000       0.56250000       0.56250000 </v>
   <v>       0.56250000       0.56250000       0.56250000 </v>
   <v>       0.81250000       0.56250000       0.56250000 </v>
   <v>       0.06250000       0.81250000       0.56250000 </v>
   <v>       0.31250000       0.81250000       0.56250000 </v>
   <v>       0.56250000       0.81250000       0.56250000 </v>
   <v>       0.81250000       0.81250000       0.56250000 </v>
   <v>       0.06250000       0.06250000       0.81250000 </v>
   <v>       0.31250000       0.06250000       0.81250000 </v>
   <v>       0.56250000       0.06250000       0.81250000 </v>
   <v>       0.81250000       0.06250000       0.81250000 </v>
   <v>       0.06250000       0.31250000       0.81250000 </v>
   <v>       0.31250000       0.31250000       0.81250000 </v>
   <v>       0.56250000       0.31250000       0.81250000 </v>
   <v>       0.81250000       0.31250000       0.81250000 </v>
   <v>       0.06250000       0.56250000       0.81250000 </v>
   <v>       0.31250000       0.56250000       0.81250000 </v>
   <v>       0.56250000       0.56250000       0.81250000 </v>
   <v>       0.81250000       0.56250000       0.81250000 </v>
   <v>       0.06250000       0.81250000       0.81250000 </v>
   <v>       0.31250000       0.81250000       0.81250000 </v>
   <v>       0.56250000       0.81250000       0.81250000 </v>
   <v>       0.81250000       0.81250000       0.81250000 </v>
   <v>       0.00000000       0.00000000       0.00000000 </v>
   <v>       0.25000000       0.00000000       0.00000000 </v>
   <v>       0.50045716       0.99954284       0.00045716 </v>
   <v>       0.75000000       0.00000000       0.00000000 </v>
   <v>       0.00000000       0.25000000       0.00000000 </v>
   <v>       0.25000000       0.25000000       0.00000000 </v>
   <v>       0.50000000       0.25000000       0.00000000 </v>
   <v>       0.75000000       0.25000000       0.00000000 </v>
   <v>       0.00000000       0.50000000       0.00000000 </v>
   <v>       0.25000000       0.50000000       0.00000000 </v>
   <v>       0.50000000       0.50000000       0.00000000 </v>
   <v>       0.75000000       0.50000000       0.00000000 </v>
   <v>       0.00000000       0.75000000       0.00000000 </v>
   <v>       0.25000000       0.75000000       0.00000000 </v>
   <v>       0.50000000       0.75000000       0.00000000 </v>
   <v>       0.75000000       0.75000000       0.00000000 </v>
   <v>       0.00000000       0.00000000       0.25000000 </v>
   <v>       0.25000000       0.00000000       0.25000000 </v>
   <v>       0.50000000       0.00000000       0.25000000 </v>
   <v>       0.75000000       0.00000000       0.25000000 </v>
   <v>       0.00000000       0.25000000       0.25000000 </v>
   <v>       0.25000000       0.25000000       0.25000000 </v>
   <v>       0.50000000       0.25000000       0.25000000 </v>
   <v>       0.75000000       0.25000000       0.25000000 </v>
   <v>       0.00000000       0.50000000       0.25000000 </v>
   <v>       0.25000000       0.50000000       0.25000000 </v>
   <v>       0.50000000       0.50000000       0.25000000 </v>
   <v>       0.75000000       0.50000000       0.25000000 </v>
   <v>       0.00000000       0.75000000       0.25000000 </v>
   <v>       0.25000000       0.75000000       0.25000000 </v>
   <v>       0.50000000       0.75000000       0.25000000 </v>
   <v>       0.75000000       0.75000000       0.25000000 </v>
   <v>       0.00000000       0.00000000       0.50000000 </v>
   <v>       0.25000000       0.00000000       0.50000000 </v>
   <v>       0.50000000       0.00000000       0.50000000 </v>
   <v>       0.75000000       0.00000000       0.50000000 </v>
   <v>       0.00000000       0.25000000       0.50000000 </v>
   <v>       0.25000000       0.25000000       0.50000000 </v>
   <v>       0.50000000       0.25000000       0.50000000 </v>
   <v>       0.75000000       0.25000000       0.50000000 </v>
   <v>       0.00000000       0.50000000       0.50000000 </v>
   <v>       0.25000000       0.50000000       0.50000000 </v>
   <v>       0.50000000       0.50000000       0.50000000 </v>
   <v>       0.75000000       0.50000000       0.50000000 </v>
   <v>       0.00000000       0.75000000       0.50000000 </v>
   <v>       0.25000000       0.75000000       0.50000000 </v>
   <v>       0.50000000       0.75000000       0.50000000 </v>
   <v>       0.75000000       0.75000000       0.50000000 </v>
   <v>       0.00000000       0.00000000       0.75000000 </v>
   <v>       0.25000000       0.00000000       0.75000000 </v>
   <v>       0.50000000       0.00000000       0.75000000 </v>
   <v>       0.75000000       0.00000000       0.75000000 </v>
   <v>       0.00000000       0.25000000       0.75000000 </v>
   <v>       0.25000000       0.25000000       0.75000000 </v>
   <v>       0.50000000       0.25000000       0.75000000 </v>
   <v>       0.75000000       0.25000000       0.75000000 </v>
   <v>       0.00000000       0.50000000       0.75000000 </v>
   <v>       0.25000000       0.50000000       0.75000000 </v>
   <v>       0.50000000       0.50000000       0.75000000 </v>
   <v>       0.75000000       0.50000000       0.75000000 </v>
   <v>       0.00000000       0.75000000       0.75000000 </v>
   <v>       0.25000000       0.75000000       0.75000000 </v>
   <v>       0.50000000       0.75000000       0.75000000 </v>
   <v>       0.75000000       0.75000000       0.75000000 </v>
  </varray>
 </structure>
</modeling>
