<?xml version="1.0" encoding="ISO-8859-1"?>
<modeling>
 <generator>
  <i name="program" type="string">vasp </i>
  <i name="version" type="string">5.4.4.18Apr17-6-g9f103f2a35  </i>
  <i name="subversion" type="string">(build Aug 16 2020 16:33:06) complex            parallel </i>
  <i name="platform" type="string">LinuxIFC </i>
  <i name="date" type="string">2026 08 15 </i>
  <i name="time" type="string">15:21:27 </i>
 </generator>
 <incar>
  <i type="string" name="PREC">accurate</i>
  <i type="logical" name="ADDGRID"> T  </i>
  <i type="int" name="IBRION">    -1</i>
  <i name="EDIFF">      0.00000001</i>
  <i type="int" name="ISYM">     0</i>
  <i name="ENCUT">    500.00000000</i>
  <i type="logical" name="LREAL"> F  </i>
  <i type="int" name="ISMEAR">     0</i>
  <i name="SIGMA">      0.05000000</i>
  <i type="logical" name="LWAVE"> F  </i>
  <i type="logical" name="LCHARG"> F  </i>
  <v type="int" name="KPOINT_BSE">    -1     0     0     0</v>
 </incar>
 <structure name="primitive_cell" >
  <crystal>
   <varray name="basis" >
    <v>       0.00000000      10.93716070      10.93716070 </v>
    <v>      10.93716070       0.00000000      10.93716070 </v>
    <v>      10.93716070      10.93716070       0.00000000 </v>
   </varray>
   <i name="volume">   2616.63878844 </i>
   <varray name="rec_basis" >
    <v>      -0.04571570       0.04571570       0.04571570 </v>
    <v>       0.04571570      -0.04571570       0.04571570 </v>
    <v>       0.04571570       0.04571570      -0.04571570 </v>
   </varray>
  </crystal>
  <varray name="positions" >
   <v>       0.06158569       0.06341431       0.06341431 </v>
   <v>       0.00000000       0.25000000       0.00000000 </v>
   <v>       0.00000000       0.00000000       0.25000000 </v>
   <v>       0.00000000       0.00000000       0.00000000 </v>
   <v>       0.25000000       0.00000000       0.00000000 </v>
   <v>       0.06250000       0.31250000       0.06250000 </v>
   <v>      -0.18750000       0.31250000       0.06250000 </v>
   <v>       0.06250000       0.06250000       0.31250000 </v>
   <v>      -0.18750000       0.06250000       0.31250000 </v>
   <v>       0.31250000       0.06250000       0.06250000 </v>
   <v>      -0.18750000       0.06250000       0.06250000 </v>
   <v>       0.06250000      -0.18750000       0.31250000 </v>
   <v>       0.06250000       0.31250000      -0.18750000 </v>
   <v>       0.06250000      -0.18750000       0.06250000 </v>
   <v>       0.31250000      -0.18750000       0.06250000 </v>
   <v>       0.06250000       0.06250000      -0.18750000 </v>
   <v>       0.31250000       0.06250000      -0.18750000 </v>
   <v>       0.00000000       0.25000000       0.25000000 </v>
   <v>      -0.25000000       0.25000000       0.25000000 </v>
   <v>      -0.25000000       0.25000000       0.00000000 </v>
   <v>      -0.25000000       0.00000000       0.25000000 </v>
   <v>       0.25000000       0.25000000       0.00000000 </v>
   <v>       0.25000000       0.00000000       0.25000000 </v>
   <v>       0.00000000      -0.25000000       0.25000000 </v>
   <v>       0.00000000       0.25000000      -0.25000000 </v>
   <v>       0.25000000      -0.25000000       0.25000000 </v>
   <v>       0.25000000       0.25000000      -0.25000000 </v>
   <v>       0.25000000      -0.25000000       0.00000000 </v>
   <v>       0.25000000       0.00000000      -0.25000000 </v>
   <v>      -0.18750000       0.31250000       0.31250000 </v>
   <v>       0.31250000      -0.18750000       0.31250000 </v>
   <v>      -0.18750000      -0.18750000       0.31250000 </v>
   <v>       0.31250000       0.31250000      -0.18750000 </v>
   <v>      -0.18750000       0.31250000      -0.18750000 </v>
   <v>       0.31250000      -0.18750000      -0.18750000 </v>
   <v>       0.00000000      -0.50000000       0.00000000 </v>
   <v>      -0.25000000      -0.50000000       0.00000000 </v>
   <v>       0.00000000       0.00000000      -0.50000000 </v>
   <v>      -0.25000000       0.00000000      -0.50000000 </v>
   <v>       0.00000000      -0.25000000      -0.50000000 </v>
   <v>       0.00000000      -0.50000000      -0.25000000 </v>
   <v>      -0.50000000       0.00000000       0.00000000 </v>
   <v>      -0.25000000       0.00000000       0.00000000 </v>
   <v>       0.00000000      -0.25000000       0.00000000 </v>
   <v>      -0.50000000      -0.25000000       0.00000000 </v>
   <v>       0.00000000       0.00000000      -0.25000000 </v>
   <v>      -0.50000000       0.00000000      -0.25000000 </v>
   <v>      -0.18750000      -0.43750000       0.06250000 </v>
   <v>       0.06250000       0.31250000       0.31250000 </v>
   <v>      -0.43750000       0.31250000       0.31250000 </v>
   <v>      -0.18750000       0.06250000      -0.43750000 </v>
   <v>      -0.43750000       0.31250000       0.06250000 </v>
   <v>       0.31250000       0.06250000       0.31250000 </v>
   <v>       0.06250000      -0.18750000      -0.43750000 </v>
   <v>      -0.18750000      -0.43750000      -0.18750000 </v>
   <v>       0.31250000       0.31250000       0.06250000 </v>
   <v>      -0.43750000       0.06250000       0.31250000 </v>
   <v>      -0.18750000      -0.18750000      -0.43750000 </v>
   <v>       0.06250000      -0.43750000      -0.18750000 </v>
   <v>      -0.43750000      -0.18750000       0.06250000 </v>
   <v>      -0.18750000      -0.18750000       0.06250000 </v>
   <v>       0.06250000      -0.43750000       0.31250000 </v>
   <v>       0.31250000      -0.43750000       0.31250000 </v>
   <v>       0.06250000       0.31250000      -0.43750000 </v>
   <v>       0.31250000       0.31250000      -0.43750000 </v>
   <v>      -0.43750000       0.06250000      -0.18750000 </v>
   <v>      -0.18750000       0.06250000      -0.18750000 </v>
   <v>       0.31250000      -0.43750000       0.06250000 </v>
   <v>       0.31250000       0.06250000      -0.43750000 </v>
   <v>       0.06250000      -0.18750000      -0.18750000 </v>
   <v>      -0.43750000      -0.18750000      -0.18750000 </v>
   <v>      -0.25000000      -0.50000000       0.25000000 </v>
   <v>      -0.25000000       0.25000000      -0.50000000 </v>
   <v>      -0.50000000       0.25000000       0.25000000 </v>
   <v>       0.25000000       0.25000000       0.25000000 </v>
   <v>      -0.25000000      -0.25000000      -0.50000000 </v>
   <v>       0.25000000      -0.50000000      -0.25000000 </v>
   <v>       0.25000000      -0.25000000      -0.50000000 </v>
   <v>      -0.25000000      -0.50000000      -0.25000000 </v>
   <v>      -0.25000000      -0.25000000       0.25000000 </v>
   <v>      -0.25000000       0.25000000      -0.25000000 </v>
   <v>      -0.50000000      -0.25000000       0.25000000 </v>
   <v>      -0.50000000       0.25000000      -0.25000000 </v>
   <v>       0.25000000      -0.50000000       0.25000000 </v>
   <v>       0.25000000       0.25000000      -0.50000000 </v>
   <v>       0.25000000      -0.25000000      -0.25000000 </v>
   <v>      -0.50000000      -0.25000000      -0.25000000 </v>
   <v>       0.06250000      -0.43750000       0.06250000 </v>
   <v>      -0.43750000      -0.43750000       0.06250000 </v>
   <v>       0.06250000       0.06250000      -0.43750000 </v>
   <v>      -0.43750000       0.06250000      -0.43750000 </v>
   <v>      -0.43750000       0.06250000       0.06250000 </v>
   <v>       0.06250000      -0.43750000      -0.43750000 </v>
   <v>      -0.50000000      -0.50000000       0.25000000 </v>
   <v>       0.00000000       0.25000000      -0.50000000 </v>
   <v>       0.00000000      -0.50000000       0.25000000 </v>
   <v>      -0.50000000       0.25000000      -0.50000000 </v>
   <v>       0.25000000      -0.50000000       0.00000000 </v>
   <v>      -0.50000000      -0.50000000       0.00000000 </v>
   <v>       0.25000000       0.00000000      -0.50000000 </v>
   <v>      -0.50000000       0.00000000      -0.50000000 </v>
   <v>      -0.50000000       0.25000000       0.00000000 </v>
   <v>      -0.50000000       0.00000000       0.25000000 </v>
   <v>       0.00000000      -0.50000000      -0.50000000 </v>
   <v>       0.25000000      -0.50000000      -0.50000000 </v>
   <v>      -0.43750000      -0.43750000       0.31250000 </v>
   <v>      -0.18750000      -0.43750000       0.31250000 </v>
   <v>      -0.43750000       0.31250000      -0.43750000 </v>
   <v>      -0.18750000       0.31250000      -0.43750000 </v>
   <v>       0.31250000      -0.18750000      -0.43750000 </v>
   <v>      -0.43750000      -0.18750000      -0.43750000 </v>
   <v>       0.31250000      -0.43750000      -0.18750000 </v>
   <v>      -0.43750000      -0.43750000      -0.18750000 </v>
   <v>      -0.43750000      -0.18750000       0.31250000 </v>
   <v>       0.31250000      -0.43750000      -0.43750000 </v>
   <v>      -0.18750000      -0.43750000      -0.43750000 </v>
   <v>      -0.43750000       0.31250000      -0.18750000 </v>
   <v>      -0.25000000      -0.25000000       0.00000000 </v>
   <v>      -0.25000000       0.00000000      -0.25000000 </v>
   <v>       0.00000000      -0.25000000      -0.25000000 </v>
   <v>      -0.25000000      -0.25000000      -0.25000000 </v>
   <v>       0.31250000       0.31250000       0.31250000 </v>
   <v>      -0.18750000      -0.18750000      -0.18750000 </v>
   <v>      -0.50000000      -0.50000000      -0.50000000 </v>
   <v>      -0.25000000      -0.50000000      -0.50000000 </v>
   <v>      -0.50000000      -0.25000000      -0.50000000 </v>
   <v>      -0.50000000      -0.50000000      -0.25000000 </v>
   <v>      -0.43750000      -0.43750000      -0.43750000 </v>
  </varray>
 </structure>
 <varray name="primitive_index" >
  <v type="int" >        1 </v>
  <v type="int" >       69 </v>
  <v type="int" >       81 </v>
  <v type="int" >       65 </v>
  <v type="int" >       66 </v>
  <v type="int" >        5 </v>
  <v type="int" >        8 </v>
  <v type="int" >       17 </v>
  <v type="int" >       20 </v>
  <v type="int" >        2 </v>
  <v type="int" >        4 </v>
  <v type="int" >       29 </v>
  <v type="int" >       53 </v>
  <v type="int" >       13 </v>
  <v type="int" >       14 </v>
  <v type="int" >       49 </v>
  <v type="int" >       50 </v>
  <v type="int" >       85 </v>
  <v type="int" >       88 </v>
  <v type="int" >       72 </v>
  <v type="int" >       84 </v>
  <v type="int" >       70 </v>
  <v type="int" >       82 </v>
  <v type="int" >       93 </v>
  <v type="int" >      117 </v>
  <v type="int" >       94 </v>
  <v type="int" >      118 </v>
  <v type="int" >       78 </v>
  <v type="int" >      114 </v>
  <v type="int" >       24 </v>
  <v type="int" >       30 </v>
  <v type="int" >       32 </v>
  <v type="int" >       54 </v>
  <v type="int" >       56 </v>
  <v type="int" >       62 </v>
  <v type="int" >       73 </v>
  <v type="int" >       76 </v>
  <v type="int" >       97 </v>
  <v type="int" >      100 </v>
  <v type="int" >      109 </v>
  <v type="int" >      121 </v>
  <v type="int" >       67 </v>
  <v type="int" >       68 </v>
  <v type="int" >       77 </v>
  <v type="int" >       79 </v>
  <v type="int" >      113 </v>
  <v type="int" >      115 </v>
  <v type="int" >       12 </v>
  <v type="int" >       21 </v>
  <v type="int" >       23 </v>
  <v type="int" >       36 </v>
  <v type="int" >        7 </v>
  <v type="int" >       18 </v>
  <v type="int" >       45 </v>
  <v type="int" >       60 </v>
  <v type="int" >        6 </v>
  <v type="int" >       19 </v>
  <v type="int" >       48 </v>
  <v type="int" >       57 </v>
  <v type="int" >       15 </v>
  <v type="int" >       16 </v>
  <v type="int" >       25 </v>
  <v type="int" >       26 </v>
  <v type="int" >       37 </v>
  <v type="int" >       38 </v>
  <v type="int" >       51 </v>
  <v type="int" >       52 </v>
  <v type="int" >       10 </v>
  <v type="int" >       34 </v>
  <v type="int" >       61 </v>
  <v type="int" >       63 </v>
  <v type="int" >       92 </v>
  <v type="int" >      104 </v>
  <v type="int" >       87 </v>
  <v type="int" >       86 </v>
  <v type="int" >      112 </v>
  <v type="int" >      122 </v>
  <v type="int" >      110 </v>
  <v type="int" >      124 </v>
  <v type="int" >       96 </v>
  <v type="int" >      120 </v>
  <v type="int" >       95 </v>
  <v type="int" >      119 </v>
  <v type="int" >       90 </v>
  <v type="int" >      102 </v>
  <v type="int" >      126 </v>
  <v type="int" >      127 </v>
  <v type="int" >        9 </v>
  <v type="int" >       11 </v>
  <v type="int" >       33 </v>
  <v type="int" >       35 </v>
  <v type="int" >        3 </v>
  <v type="int" >       41 </v>
  <v type="int" >       91 </v>
  <v type="int" >      101 </v>
  <v type="int" >       89 </v>
  <v type="int" >      103 </v>
  <v type="int" >       74 </v>
  <v type="int" >       75 </v>
  <v type="int" >       98 </v>
  <v type="int" >       99 </v>
  <v type="int" >       71 </v>
  <v type="int" >       83 </v>
  <v type="int" >      105 </v>
  <v type="int" >      106 </v>
  <v type="int" >       27 </v>
  <v type="int" >       28 </v>
  <v type="int" >       39 </v>
  <v type="int" >       40 </v>
  <v type="int" >       46 </v>
  <v type="int" >       47 </v>
  <v type="int" >       58 </v>
  <v type="int" >       59 </v>
  <v type="int" >       31 </v>
  <v type="int" >       42 </v>
  <v type="int" >       44 </v>
  <v type="int" >       55 </v>
  <v type="int" >       80 </v>
  <v type="int" >      116 </v>
  <v type="int" >      125 </v>
  <v type="int" >      128 </v>
  <v type="int" >       22 </v>
  <v type="int" >       64 </v>
  <v type="int" >      107 </v>
  <v type="int" >      108 </v>
  <v type="int" >      111 </v>
  <v type="int" >      123 </v>
  <v type="int" >       43 </v>
 </varray>
 <kpoints>
  <generation param="Gamma">
   <v type="int" name="divisions">       1        1        1 </v>
   <v name="usershift">      0.00000000       0.00000000       0.00000000 </v>
   <v name="genvec1">      1.00000000       0.00000000       0.00000000 </v>
   <v name="genvec2">      0.00000000       1.00000000       0.00000000 </v>
   <v name="genvec3">      0.00000000       0.00000000       1.00000000 </v>
   <v name="shift">      0.00000000       0.00000000       0.00000000 </v>
  </generation>
  <varray name="kpointlist" >
   <v>       0.00000000       0.00000000       0.00000000 </v>
  </varray>
  <varray name="weights" >
   <v>       1.00000000 </v>
  </varray>
 </kpoints>
 <parameters>
  <separator name="general" >
   <i type="string" name="SYSTEM">unknown system</i>
   <i type="logical" name="LCOMPAT"> F  </i>
  </separator>
  <separator name="electronic" >
   <i type="string" name="PREC">accura</i>
   <i name="ENMAX">    500.00000000</i>
   <i name="ENAUG">    322.06900000</i>
   <i name="EDIFF">      0.00000001</i>
   <i type="int" name="IALGO">    38</i>
   <i type="int" name="IWAVPR">    10</i>
   <i type="int" name="NBANDS">   322</i>
   <i name="NELECT">    512.00000000</i>
   <i type="int" name="TURBO">     0</i>
   <i type="int" name="IRESTART">     0</i>
   <i type="int" name="NREBOOT">     0</i>
   <i type="int" name="NMIN">     0</i>
   <i name="EREF">      0.00000000</i>
   <separator name="electronic smearing" >
    <i type="int" name="ISMEAR">     0</i>
    <i name="SIGMA">      0.05000000</i>
    <i name="KSPACING">      0.50000000</i>
    <i type="logical" name="KGAMMA"> T  </i>
   </separator>
   <separator name="electronic projectors" >
    <i type="logical" name="LREAL"> F  </i>
    <v name="ROPT">      0.00000000</v>
    <i type="int" name="LMAXPAW">  -100</i>
    <i type="int" name="LMAXMIX">     2</i>
    <i type="logical" name="NLSPLINE"> F  </i>
   </separator>
   <separator name="electronic startup" >
    <i type="int" name="ISTART">     0</i>
    <i type="int" name="ICHARG">     2</i>
    <i type="int" name="INIWAV">     1</i>
   </separator>
   <separator name="electronic spin" >
    <i type="int" name="ISPIN">     1</i>
    <i type="logical" name="LNONCOLLINEAR"> F  </i>
    <v name="MAGMOM">      1.00000000      1.00000000      1.00000000      1.00000000      1.00000000      1.00000000      1.00000000      1.00000000      1.00000000      1.00000000      1.00000000      1.00000000      1.00000000      1.00000000      1.00000000      1.00000000      1.00000000      1.00000000      1.00000000      1.00000000
      1.00000000      1.00000000      1.00000000      1.00000000      1.00000000      1.00000000      1.00000000      1.00000000      1.00000000      1.00000000      1.00000000      1.00000000      1.00000000      1.00000000      1.00000000      1.00000000      1.00000000      1.00000000      1.00000000      1.00000000
      1.00000000      1.00000000      1.00000000      1.00000000      1.00000000      1.00000000      1.00000000      1.00000000      1.00000000      1.00000000      1.00000000      1.00000000      1.00000000      1.00000000      1.00000000      1.00000000      1.00000000      1.00000000      1.00000000      1.00000000
      1.00000000      1.00000000      1.00000000      1.00000000      1.00000000      1.00000000      1.00000000      1.00000000      1.00000000      1.00000000      1.00000000      1.00000000      1.00000000      1.00000000      1.00000000      1.00000000      1.00000000      1.00000000      1.00000000      1.00000000
      1.00000000      1.00000000      1.00000000      1.00000000      1.00000000      1.00000000      1.00000000      1.00000000      1.00000000      1.00000000      1.00000000      1.00000000      1.00000000      1.00000000      1.00000000      1.00000000      1.00000000      1.00000000      1.00000000      1.00000000
      1.00000000      1.00000000      1.00000000      1.00000000      1.00000000      1.00000000      1.00000000      1.00000000      1.00000000      1.00000000      1.00000000      1.00000000      1.00000000      1.00000000      1.00000000      1.00000000      1.00000000      1.00000000      1.00000000      1.00000000
      1.00000000      1.00000000      1.00000000      1.00000000      1.00000000      1.00000000      1.00000000      1.00000000</v>
    <i name="NUPDOWN">     -1.00000000</i>
    <i type="logical" name="LSORBIT"> F  </i>
    <v name="SAXIS">      0.00000000      0.00000000      1.00000000</v>
    <i type="logical" name="LSPIRAL"> F  </i>
    <v name="QSPIRAL">      0.00000000      0.00000000      0.00000000</v>
    <i type="logical" name="LZEROZ"> F  </i>
   </separator>
   <separator name="electronic exchange-correlation" >
    <i type="logical" name="LASPH"> F  </i>
    <i type="logical" name="LMETAGGA"> F  </i>
   </separator>
   <separator name="electronic convergence" >
    <i type="int" name="NELM">    60</i>
    <i type="int" name="NELMDL">    -5</i>
    <i type="int" name="NELMIN">     2</i>
    <i name="ENINI">    500.00000000</i>
    <separator name="electronic convergence detail" >
     <i type="logical" name="LDIAG"> T  </i>
     <i type="logical" name="LSUBROT"> F  </i>
     <i name="WEIMIN">      0.00000000</i>
     <i name="EBREAK">      0.00000000</i>
     <i name="DEPER">      0.30000000</i>
     <i type="int" name="NRMM">     4</i>
     <i name="TIME">      0.40000000</i>
    </separator>
   </separator>
   <separator name="electronic mixer" >
    <i name="AMIX">      0.40000000</i>
    <i name="BMIX">      1.00000000</i>
    <i name="AMIN">      0.10000000</i>
    <i name="AMIX_MAG">      1.60000000</i>
    <i name="BMIX_MAG">      1.00000000</i>
    <separator name="electronic mixer details" >
     <i type="int" name="IMIX">     4</i>
     <i type="logical" name="MIXFIRST"> F  </i>
     <i type="int" name="MAXMIX">   -45</i>
     <i name="WC">    100.00000000</i>
     <i type="int" name="INIMIX">     1</i>
     <i type="int" name="MIXPRE">     1</i>
     <i type="int" name="MREMOVE">     5</i>
    </separator>
   </separator>
   <separator name="electronic dipolcorrection" >
    <i type="logical" name="LDIPOL"> F  </i>
    <i type="logical" name="LMONO"> F  </i>
    <i type="int" name="IDIPOL">     0</i>
    <i name="EPSILON">      1.00000000</i>
    <v name="DIPOL">   -100.00000000   -100.00000000   -100.00000000</v>
    <i name="EFIELD">      0.00000000</i>
   </separator>
  </separator>
  <separator name="grids" >
   <i type="int" name="NGX">   120</i>
   <i type="int" name="NGY">   120</i>
   <i type="int" name="NGZ">   120</i>
   <i type="int" name="NGXF">   240</i>
   <i type="int" name="NGYF">   240</i>
   <i type="int" name="NGZF">   240</i>
   <i type="logical" name="ADDGRID"> T  </i>
  </separator>
  <separator name="ionic" >
   <i type="int" name="NSW">     0</i>
   <i type="int" name="IBRION">    -1</i>
   <i type="int" name="MDALGO">     0</i>
   <i type="int" name="ISIF">     2</i>
   <i name="PSTRESS">      0.00000000</i>
   <i name="EDIFFG">      0.00000010</i>
   <i type="int" name="NFREE">     0</i>
   <i name="POTIM">      0.50000000</i>
   <i name="SMASS">     -3.00000000</i>
   <i name="SCALEE">      1.00000000</i>
  </separator>
  <separator name="ionic md" >
   <i name="TEBEG">      0.00010000</i>
   <i name="TEEND">      0.00010000</i>
   <i type="int" name="NBLOCK">     1</i>
   <i type="int" name="KBLOCK">     1</i>
   <i type="int" name="NPACO">   256</i>
   <i name="APACO">     16.00000000</i>
  </separator>
  <separator name="symmetry" >
   <i type="int" name="ISYM">     0</i>
   <i name="SYMPREC">      0.00001000</i>
  </separator>
  <separator name="dos" >
   <i type="int" name="LORBIT">     0</i>
   <v name="RWIGS">     -1.00000000</v>
   <i type="int" name="NEDOS">   301</i>
   <i name="EMIN">     10.00000000</i>
   <i name="EMAX">    -10.00000000</i>
   <i name="EFERMI">      0.00000000</i>
  </separator>
  <separator name="writing" >
   <i type="int" name="NWRITE">     2</i>
   <i type="logical" name="LWAVE"> F  </i>
   <i type="logical" name="LDOWNSAMPLE"> F  </i>
   <i type="logical" name="LCHARG"> F  </i>
   <i type="logical" name="LPARD"> F  </i>
   <i type="logical" name="LVTOT"> F  </i>
   <i type="logical" name="LVHAR"> F  </i>
   <i type="logical" name="LELF"> F  </i>
   <i type="logical" name="LOPTICS"> F  </i>
   <v name="STM">      0.00000000      0.00000000      0.00000000      0.00000000      0.00000000      0.00000000      0.00000000</v>
  </separator>
  <separator name="performance" >
   <i type="int" name="NPAR">     2</i>
   <i type="int" name="NSIM">     4</i>
   <i type="int" name="NBLK">    -1</i>
   <i type="logical" name="LPLANE"> T  </i>
   <i type="logical" name="LSCALAPACK"> T  </i>
   <i type="logical" name="LSCAAWARE"> F  </i>
   <i type="logical" name="LSCALU"> F  </i>
   <i type="logical" name="LASYNC"> F  </i>
   <i type="logical" name="LORBITALREAL"> F  </i>
  </separator>
  <separator name="miscellaneous" >
   <i type="int" name="IDIOT">     3</i>
   <i type="int" name="ISPECIAL">     0</i>
   <i type="logical" name="LMUSIC"> F  </i>
   <v name="POMASS">     28.08500000</v>
   <v name="DARWINR">      0.00000000</v>
   <v name="DARWINV">      1.00000000</v>
   <i type="logical" name="LCORR"> T  </i>
  </separator>
  <i type="logical" name="GGA_COMPAT"> T  </i>
  <i type="logical" name="LBERRY"> F  </i>
  <i type="int" name="ICORELEVEL">     0</i>
  <i type="logical" name="LDAU"> F  </i>
  <i type="int" name="I_CONSTRAINED_M">     0</i>
  <separator name="electronic exchange-correlation" >
   <i type="string" name="GGA">--</i>
   <i type="int" name="VOSKOWN">     0</i>
   <i type="logical" name="LHFCALC"> F  </i>
   <i type="string" name="PRECFOCK"></i>
   <i type="logical" name="LSYMGRAD"> F  </i>
   <i type="logical" name="LHFONE"> F  </i>
   <i type="logical" name="LRHFCALC"> F  </i>
   <i type="logical" name="LTHOMAS"> F  </i>
   <i type="logical" name="LMODELHF"> F  </i>
   <i name="ENCUT4O">     -1.00000000</i>
   <i type="int" name="EXXOEP">     0</i>
   <i type="int" name="FOURORBIT">     0</i>
   <i name="AEXX">      0.00000000</i>
   <i name="HFALPHA">      0.00000000</i>
   <i name="MCALPHA">      0.00000000</i>
   <i name="ALDAX">      1.00000000</i>
   <i name="AGGAX">      1.00000000</i>
   <i name="ALDAC">      1.00000000</i>
   <i name="AGGAC">      1.00000000</i>
   <i type="int" name="NKREDX">     1</i>
   <i type="int" name="NKREDY">     1</i>
   <i type="int" name="NKREDZ">     1</i>
   <i type="logical" name="SHIFTRED"> F  </i>
   <i type="logical" name="ODDONLY"> F  </i>
   <i type="logical" name="EVENONLY"> F  </i>
   <i type="int" name="LMAXFOCK">     0</i>
   <i type="int" name="NMAXFOCKAE">     0</i>
   <i type="logical" name="LFOCKAEDFT"> F  </i>
   <i name="HFSCREEN">      0.00000000</i>
   <i name="HFSCREENC">      0.00000000</i>
   <i type="int" name="NBANDSGWLOW">     0</i>
  </separator>
  <separator name="vdW DFT" >
   <i type="logical" name="LUSE_VDW"> F  </i>
   <i name="Zab_VDW">     -0.84910000</i>
   <i name="PARAM1">      0.12340000</i>
   <i name="PARAM2">      1.00000000</i>
   <i name="PARAM3">      0.00000000</i>
  </separator>
  <separator name="model GW" >
   <i type="int" name="MODEL_GW">     0</i>
   <i name="MODEL_EPS0">     12.26549432</i>
   <i name="MODEL_ALPHA">      1.00000000</i>
  </separator>
  <separator name="linear response parameters" >
   <i type="logical" name="LEPSILON"> F  </i>
   <i type="logical" name="LRPA"> F  </i>
   <i type="logical" name="LNABLA"> F  </i>
   <i type="logical" name="LVEL"> F  </i>
   <i type="int" name="KINTER">     0</i>
   <i name="CSHIFT">      0.10000000</i>
   <i name="OMEGAMAX">     -1.00000000</i>
   <i name="DEG_THRESHOLD">      0.00200000</i>
   <i name="RTIME">     -0.10000000</i>
   <i name="WPLASMAI">      0.00000000</i>
   <v name="DFIELD">      0.00000000      0.00000000      0.00000000</v>
   <v name="WPLASMA">      0.00000000      0.00000000      0.00000000      0.00000000      0.00000000      0.00000000      0.00000000      0.00000000      0.00000000</v>
  </separator>
  <separator name="orbital magnetization" >
   <i type="logical" name="NUCIND"> F  </i>
   <v name="MAGPOS">      0.00000000      0.00000000      0.00000000</v>
   <i type="logical" name="LNICSALL"> T  </i>
   <i type="logical" name="ORBITALMAG"> F  </i>
   <i type="logical" name="LMAGBLOCH"> F  </i>
   <i type="logical" name="LCHIMAG"> F  </i>
   <i type="logical" name="LGAUGE"> T  </i>
   <i type="int" name="MAGATOM">     0</i>
   <v name="MAGDIPOL">      0.00000000      0.00000000      0.00000000</v>
   <v name="AVECCONST">      0.00000000      0.00000000      0.00000000</v>
  </separator>
  <separator name="response functions" >
   <i type="logical" name="LADDER"> F  </i>
   <i type="logical" name="LRPAFORCE"> F  </i>
   <i type="logical" name="LFXC"> F  </i>
   <i type="logical" name="LHARTREE"> T  </i>
   <i type="int" name="IBSE">     0</i>
   <v type="int" name="KPOINT">    -1     0     0     0</v>
   <i type="logical" name="LTCTE"> F  </i>
   <i type="logical" name="LTETE"> F  </i>
   <i type="logical" name="LTRIPLET"> F  </i>
   <i type="logical" name="LFXCEPS"> F  </i>
   <i type="logical" name="LFXHEG"> F  </i>
   <i type="int" name="NATURALO">     2</i>
   <i type="logical" name="L2ORDER"> F  </i>
   <i type="logical" name="LMP2LT"> F  </i>
   <i type="logical" name="LUSEW"> F  </i>
   <i name="ENCUTGW">     -2.00000000</i>
   <i name="ENCUTGWSOFT">     -2.00000000</i>
   <i name="ENCUTLF">     -1.00000000</i>
   <i type="int" name="LMAXMP2">    -1</i>
   <i name="SCISSOR">      0.00000000</i>
   <i type="int" name="NOMEGA">     0</i>
   <i type="int" name="NOMEGAR">     0</i>
   <i type="int" name="NBANDSGW">    -1</i>
   <i type="int" name="NBANDSO">    -1</i>
   <i type="int" name="NBANDSV">    -1</i>
   <i type="int" name="NELM">     1</i>
   <i type="int" name="NELMHF">     1</i>
   <i type="int" name="DIM">     3</i>
   <i type="int" name="ANTIRES">     0</i>
   <i name="OMEGAMAX">    -30.00000000</i>
   <i name="OMEGAMIN">    -30.00000000</i>
   <i name="OMEGATL">   -200.00000000</i>
   <i type="int" name="OMEGAGRID">   140</i>
   <i name="CSHIFT">     -0.10000000</i>
   <i type="logical" name="SELFENERGY"> F  </i>
   <i type="logical" name="LSPECTRAL"> F  </i>
   <i type="logical" name="LSPECTRALGW"> F  </i>
   <i type="logical" name="LSINGLES"> F  </i>
   <i type="logical" name="LFERMIGW"> F  </i>
   <i type="logical" name="ODDONLYGW"> F  </i>
   <i type="logical" name="EVENONLYGW"> F  </i>
   <i type="int" name="NKREDLFX">     1</i>
   <i type="int" name="NKREDLFY">     1</i>
   <i type="int" name="NKREDLFZ">     1</i>
   <i type="int" name="MAXMEM">  2800</i>
   <i type="int" name="TELESCOPE">     0</i>
   <i type="int" name="TAUPAR">     1</i>
   <i type="int" name="OMEGAPAR">    -1</i>
   <i name="LAMBDA">      1.00000000</i>
  </separator>
  <separator name="External order field" >
   <i name="OFIELD_KAPPA">      0.00000000</i>
   <v name="OFIELD_K">      0.00000000      0.00000000      0.00000000</v>
   <i name="OFIELD_Q6_NEAR">      0.00000000</i>
   <i name="OFIELD_Q6_FAR">      0.00000000</i>
   <i name="OFIELD_A">      0.00000000</i>
  </separator>
 </parameters>
 <atominfo>
  <atoms>     128 </atoms>
  <types>       1 </types>
  <array name="atoms" >
   <dimension dim="1">ion</dimension>
   <field type="string">element</field>
   <field type="int">atomtype</field>
   <set>
    <rc><c>Si</c><c>   1</c></rc>
    <rc><c>Si</c><c>   1</c></rc>
    <rc><c>Si</c><c>   1</c></rc>
    <rc><c>Si</c><c>   1</c></rc>
    <rc><c>Si</c><c>   1</c></rc>
    <rc><c>Si</c><c>   1</c></rc>
    <rc><c>Si</c><c>   1</c></rc>
    <rc><c>Si</c><c>   1</c></rc>
    <rc><c>Si</c><c>   1</c></rc>
    <rc><c>Si</c><c>   1</c></rc>
    <rc><c>Si</c><c>   1</c></rc>
    <rc><c>Si</c><c>   1</c></rc>
    <rc><c>Si</c><c>   1</c></rc>
    <rc><c>Si</c><c>   1</c></rc>
    <rc><c>Si</c><c>   1</c></rc>
    <rc><c>Si</c><c>   1</c></rc>
    <rc><c>Si</c><c>   1</c></rc>
    <rc><c>Si</c><c>   1</c></rc>
    <rc><c>Si</c><c>   1</c></rc>
    <rc><c>Si</c><c>   1</c></rc>
    <rc><c>Si</c><c>   1</c></rc>
    <rc><c>Si</c><c>   1</c></rc>
    <rc><c>Si</c><c>   1</c></rc>
    <rc><c>Si</c><c>   1</c></rc>
    <rc><c>Si</c><c>   1</c></rc>
    <rc><c>Si</c><c>   1</c></rc>
    <rc><c>Si</c><c>   1</c></rc>
    <rc><c>Si</c><c>   1</c></rc>
    <rc><c>Si</c><c>   1</c></rc>
    <rc><c>Si</c><c>   1</c></rc>
    <rc><c>Si</c><c>   1</c></rc>
    <rc><c>Si</c><c>   1</c></rc>
    <rc><c>Si</c><c>   1</c></rc>
    <rc><c>Si</c><c>   1</c></rc>
    <rc><c>Si</c><c>   1</c></rc>
    <rc><c>Si</c><c>   1</c></rc>
    <rc><c>Si</c><c>   1</c></rc>
    <rc><c>Si</c><c>   1</c></rc>
    <rc><c>Si</c><c>   1</c></rc>
    <rc><c>Si</c><c>   1</c></rc>
    <rc><c>Si</c><c>   1</c></rc>
    <rc><c>Si</c><c>   1</c></rc>
    <rc><c>Si</c><c>   1</c></rc>
    <rc><c>Si</c><c>   1</c></rc>
    <rc><c>Si</c><c>   1</c></rc>
    <rc><c>Si</c><c>   1</c></rc>
    <rc><c>Si</c><c>   1</c></rc>
    <rc><c>Si</c><c>   1</c></rc>
    <rc><c>Si</c><c>   1</c></rc>
    <rc><c>Si</c><c>   1</c></rc>
    <rc><c>Si</c><c>   1</c></rc>
    <rc><c>Si</c><c>   1</c></rc>
    <rc><c>Si</c><c>   1</c></rc>
    <rc><c>Si</c><c>   1</c></rc>
    <rc><c>Si</c><c>   1</c></rc>
    <rc><c>Si</c><c>   1</c></rc>
    <rc><c>Si</c><c>   1</c></rc>
    <rc><c>Si</c><c>   1</c></rc>
    <rc><c>Si</c><c>   1</c></rc>
    <rc><c>Si</c><c>   1</c></rc>
    <rc><c>Si</c><c>   1</c></rc>
    <rc><c>Si</c><c>   1</c></rc>
    <rc><c>Si</c><c>   1</c></rc>
    <rc><c>Si</c><c>   1</c></rc>
    <rc><c>Si</c><c>   1</c></rc>
    <rc><c>Si</c><c>   1</c></rc>
    <rc><c>Si</c><c>   1</c></rc>
    <rc><c>Si</c><c>   1</c></rc>
    <rc><c>Si</c><c>   1</c></rc>
    <rc><c>Si</c><c>   1</c></rc>
    <rc><c>Si</c><c>   1</c></rc>
    <rc><c>Si</c><c>   1</c></rc>
    <rc><c>Si</c><c>   1</c></rc>
    <rc><c>Si</c><c>   1</c></rc>
    <rc><c>Si</c><c>   1</c></rc>
    <rc><c>Si</c><c>   1</c></rc>
    <rc><c>Si</c><c>   1</c></rc>
    <rc><c>Si</c><c>   1</c></rc>
    <rc><c>Si</c><c>   1</c></rc>
    <rc><c>Si</c><c>   1</c></rc>
    <rc><c>Si</c><c>   1</c></rc>
    <rc><c>Si</c><c>   1</c></rc>
    <rc><c>Si</c><c>   1</c></rc>
    <rc><c>Si</c><c>   1</c></rc>
    <rc><c>Si</c><c>   1</c></rc>
    <rc><c>Si</c><c>   1</c></rc>
    <rc><c>Si</c><c>   1</c></rc>
    <rc><c>Si</c><c>   1</c></rc>
    <rc><c>Si</c><c>   1</c></rc>
    <rc><c>Si</c><c>   1</c></rc>
    <rc><c>Si</c><c>   1</c></rc>
    <rc><c>Si</c><c>   1</c></rc>
    <rc><c>Si</c><c>   1</c></rc>
    <rc><c>Si</c><c>   1</c></rc>
    <rc><c>Si</c><c>   1</c></rc>
    <rc><c>Si</c><c>   1</c></rc>
    <rc><c>Si</c><c>   1</c></rc>
    <rc><c>Si</c><c>   1</c></rc>
    <rc><c>Si</c><c>   1</c></rc>
    <rc><c>Si</c><c>   1</c></rc>
    <rc><c>Si</c><c>   1</c></rc>
    <rc><c>Si</c><c>   1</c></rc>
    <rc><c>Si</c><c>   1</c></rc>
    <rc><c>Si</c><c>   1</c></rc>
    <rc><c>Si</c><c>   1</c></rc>
    <rc><c>Si</c><c>   1</c></rc>
    <rc><c>Si</c><c>   1</c></rc>
    <rc><c>Si</c><c>   1</c></rc>
    <rc><c>Si</c><c>   1</c></rc>
    <rc><c>Si</c><c>   1</c></rc>
    <rc><c>Si</c><c>   1</c></rc>
    <rc><c>Si</c><c>   1</c></rc>
    <rc><c>Si</c><c>   1</c></rc>
    <rc><c>Si</c><c>   1</c></rc>
    <rc><c>Si</c><c>   1</c></rc>
    <rc><c>Si</c><c>   1</c></rc>
    <rc><c>Si</c><c>   1</c></rc>
    <rc><c>Si</c><c>   1</c></rc>
    <rc><c>Si</c><c>   1</c></rc>
    <rc><c>Si</c><c>   1</c></rc>
    <rc><c>Si</c><c>   1</c></rc>
    <rc><c>Si</c><c>   1</c></rc>
    <rc><c>Si</c><c>   1</c></rc>
    <rc><c>Si</c><c>   1</c></rc>
    <rc><c>Si</c><c>   1</c></rc>
    <rc><c>Si</c><c>   1</c></rc>
    <rc><c>Si</c><c>   1</c></rc>
    <rc><c>Si</c><c>   1</c></rc>
   </set>
  </array>
  <array name="atomtypes" >
   <dimension dim="1">type</dimension>
   <field type="int">atomspertype</field>
   <field type="string">element</field>
   <field>mass</field>
   <field>valence</field>
   <field type="string">pseudopotential</field>
   <set>
    <rc><c> 128</c><c>Si</c><c>     28.08500000</c><c>      4.00000000</c><c> PAW_PBE Si 05Jan2001                   </c></rc>
   </set>
  </array>
 </atominfo>
 <structure name="initialpos" >
  <crystal>
   <varray name="basis" >
    <v>       0.00000000      10.93716070      10.93716070 </v>
    <v>      10.93716070       0.00000000      10.93716070 </v>
    <v>      10.93716070      10.93716070       0.00000000 </v>
   </varray>
   <i name="volume">   2616.63878844 </i>
   <varray name="rec_basis" >
    <v>      -0.04571570       0.04571570       0.04571570 </v>
    <v>       0.04571570      -0.04571570       0.04571570 </v>
    <v>       0.04571570       0.04571570      -0.04571570 </v>
   </varray>
  </crystal>
  <varray name="positions" >
   <v>       0.06158569       0.06341431       0.06341431 </v>
   <v>       0.31250000       0.06250000       0.06250000 </v>
   <v>       0.56250000       0.06250000       0.06250000 </v>
   <v>       0.81250000       0.06250000       0.06250000 </v>
   <v>       0.06250000       0.31250000       0.06250000 </v>
   <v>       0.31250000       0.31250000       0.06250000 </v>
   <v>       0.56250000       0.31250000       0.06250000 </v>
   <v>       0.81250000       0.31250000       0.06250000 </v>
   <v>       0.06250000       0.56250000       0.06250000 </v>
   <v>       0.31250000       0.56250000       0.06250000 </v>
   <v>       0.56250000       0.56250000       0.06250000 </v>
   <v>       0.81250000       0.56250000       0.06250000 </v>
   <v>       0.06250000       0.81250000       0.06250000 </v>
   <v>       0.31250000       0.81250000       0.06250000 </v>
   <v>       0.56250000       0.81250000       0.06250000 </v>
   <v>       0.81250000       0.81250000       0.06250000 </v>
   <v>       0.06250000       0.06250000       0.31250000 </v>
   <v>       0.31250000       0.06250000       0.31250000 </v>
   <v>       0.56250000       0.06250000       0.31250000 </v>
   <v>       0.81250000       0.06250000       0.31250000 </v>
   <v>       0.06250000       0.31250000       0.31250000 </v>
   <v>       0.31250000       0.31250000       0.31250000 </v>
   <v>       0.56250000       0.31250000       0.31250000 </v>
   <v>       0.81250000       0.31250000       0.31250000 </v>
   <v>       0.06250000       0.56250000       0.31250000 </v>
   <v>       0.31250000       0.56250000       0.31250000 </v>
   <v>       0.56250000       0.56250000       0.31250000 </v>
   <v>       0.81250000       0.56250000       0.31250000 </v>
   <v>       0.06250000       0.81250000       0.31250000 </v>
   <v>       0.31250000       0.81250000       0.31250000 </v>
   <v>       0.56250000       0.81250000       0.31250000 </v>
   <v>       0.81250000       0.81250000       0.31250000 </v>
   <v>       0.06250000       0.06250000       0.56250000 </v>
   <v>       0.31250000       0.06250000       0.56250000 </v>
   <v>       0.56250000       0.06250000       0.56250000 </v>
   <v>       0.81250000       0.06250000       0.56250000 </v>
   <v>       0.06250000       0.31250000       0.56250000 </v>
   <v>       0.31250000       0.31250000       0.56250000 </v>
   <v>       0.56250000       0.31250000       0.56250000 </v>
   <v>       0.81250000       0.31250000       0.56250000 </v>
   <v>       0.06250000       0.56250000       0.56250000 </v>
   <v>       0.31250000       0.56250000       0.56250000 </v>
   <v>       0.56250000       0.56250000       0.56250000 </v>
   <v>       0.81250000       0.56250000       0.56250000 </v>
   <v>       0.06250000       0.81250000       0.56250000 </v>
   <v>       0.31250000       0.81250000       0.56250000 </v>
   <v>       0.56250000       0.81250000       0.56250000 </v>
   <v>       0.81250000       0.81250000       0.56250000 </v>
   <v>       0.06250000       0.06250000       0.81250000 </v>
   <v>       0.31250000       0.06250000       0.81250000 </v>
   <v>       0.56250000       0.06250000       0.81250000 </v>
   <v>       0.81250000       0.06250000       0.81250000 </v>
   <v>       0.06250000       0.31250000       0.81250000 </v>
   <v>       0.31250000       0.31250000       0.81250000 </v>
   <v>       0.56250000       0.31250000       0.81250000 </v>
   <v>       0.81250000       0.31250000       0.81250000 </v>
   <v>       0.06250000       0.56250000       0.81250000 </v>
   <v>       0.31250000       0.56250000       0.81250000 </v>
   <v>       0.56250000       0.56250000       0.81250000 </v>
   <v>       0.81250000       0.56250000       0.81250000 </v>
   <v>       0.06250000       0.81250000       0.81250000 </v>
   <v>       0.31250000       0.81250000       0.81250000 </v>
   <v>       0.56250000       0.81250000       0.81250000 </v>
   <v>       0.81250000       0.81250000       0.81250000 </v>
   <v>       0.00000000       0.00000000       0.00000000 </v>
   <v>       0.25000000       0.00000000       0.00000000 </v>
   <v>       0.50000000       0.00000000       0.00000000 </v>
   <v>       0.75000000       0.00000000       0.00000000 </v>
   <v>       0.00000000       0.25000000       0.00000000 </v>
   <v>       0.25000000       0.25000000       0.00000000 </v>
   <v>       0.50000000       0.25000000       0.00000000 </v>
   <v>       0.75000000       0.25000000       0.00000000 </v>
   <v>       0.00000000       0.50000000       0.00000000 </v>
   <v>       0.25000000       0.50000000       0.00000000 </v>
   <v>       0.50000000       0.50000000       0.00000000 </v>
   <v>       0.75000000       0.50000000       0.00000000 </v>
   <v>       0.00000000       0.75000000       0.00000000 </v>
   <v>       0.25000000       0.75000000       0.00000000 </v>
   <v>       0.50000000       0.75000000       0.00000000 </v>
   <v>       0.75000000       0.75000000       0.00000000 </v>
   <v>       0.00000000       0.00000000       0.25000000 </v>
   <v>       0.25000000       0.00000000       0.25000000 </v>
   <v>       0.50000000       0.00000000       0.25000000 </v>
   <v>       0.75000000       0.00000000       0.25000000 </v>
   <v>       0.00000000       0.25000000       0.25000000 </v>
   <v>       0.25000000       0.25000000       0.25000000 </v>
   <v>       0.50000000       0.25000000       0.25000000 </v>
   <v>       0.75000000       0.25000000       0.25000000 </v>
   <v>       0.00000000       0.50000000       0.25000000 </v>
   <v>       0.25000000       0.50000000       0.25000000 </v>
   <v>       0.50000000       0.50000000       0.25000000 </v>
   <v>       0.75000000       0.50000000       0.25000000 </v>
   <v>       0.00000000       0.75000000       0.25000000 </v>
   <v>       0.25000000       0.75000000       0.25000000 </v>
   <v>       0.50000000       0.75000000       0.25000000 </v>
   <v>       0.75000000       0.75000000       0.25000000 </v>
   <v>       0.00000000       0.00000000       0.50000000 </v>
   <v>       0.25000000       0.00000000       0.50000000 </v>
   <v>       0.50000000       0.00000000       0.50000000 </v>
   <v>       0.75000000       0.00000000       0.50000000 </v>
   <v>       0.00000000       0.25000000       0.50000000 </v>
   <v>       0.25000000       0.25000000       0.50000000 </v>
   <v>       0.50000000       0.25000000       0.50000000 </v>
   <v>       0.75000000       0.25000000       0.50000000 </v>
   <v>       0.00000000       0.50000000       0.50000000 </v>
   <v>       0.25000000       0.50000000       0.50000000 </v>
   <v>       0.50000000       0.50000000       0.50000000 </v>
   <v>       0.75000000       0.50000000       0.50000000 </v>
   <v>       0.00000000       0.75000000       0.50000000 </v>
   <v>       0.25000000       0.75000000       0.50000000 </v>
   <v>       0.50000000       0.75000000       0.50000000 </v>
   <v>       0.75000000       0.75000000       0.50000000 </v>
   <v>       0.00000000       0.00000000       0.75000000 </v>
   <v>       0.25000000       0.00000000       0.75000000 </v>
   <v>       0.50000000       0.00000000       0.75000000 </v>
   <v>       0.75000000       0.00000000       0.75000000 </v>
   <v>       0.00000000       0.25000000       0.75000000 </v>
   <v>       0.25000000       0.25000000       0.75000000 </v>
   <v>       0.50000000       0.25000000       0.75000000 </v>
   <v>       0.75000000       0.25000000       0.75000000 </v>
   <v>       0.00000000       0.50000000       0.75000000 </v>
   <v>       0.25000000       0.50000000       0.75000000 </v>
   <v>       0.50000000       0.50000000       0.75000000 </v>
   <v>       0.75000000       0.50000000       0.75000000 </v>
   <v>       0.00000000       0.75000000       0.75000000 </v>
   <v>       0.25000000       0.75000000       0.75000000 </v>
   <v>       0.50000000       0.75000000       0.75000000 </v>
   <v>       0.75000000       0.75000000       0.75000000 </v>
  </varray>
 </structure>
 <calculation>
  <scstep>
   <time name="dav">    4.82    4.83</time>
   <time name="total">    5.35    5.37</time>
   <energy>
    <i name="alphaZ">    210.78028765 </i>
    <i name="ewald"> -14524.86053653 </i>
    <i name="hartreedc">   -724.62308806 </i>
    <i name="XCdc">  -1195.83142818 </i>
    <i name="pawpsdc">   4221.13331941 </i>
    <i name="pawaedc">  -1969.18571412 </i>
    <i name="eentropy">     -0.01564991 </i>
    <i name="bandstr">   2165.00741517 </i>
    <i name="atom">  13192.48085998 </i>
    <i name="e_fr_energy">   1374.88546541 </i>
    <i name="e_wo_entrp">   1374.90111533 </i>
    <i name="e_0_energy">   1374.89329037 </i>
   </energy>
  </scstep>
  <scstep>
   <time name="dav">    5.44    5.46</time>
   <time name="total">    5.44    5.46</time>
   <energy>
    <i name="e_fr_energy">   -537.01987630 </i>
    <i name="e_wo_entrp">   -537.01987462 </i>
    <i name="e_0_energy">   -537.01987546 </i>
   </energy>
  </scstep>
  <scstep>
   <time name="dav">    5.48    5.50</time>
   <time name="total">    5.48    5.50</time>
   <energy>
    <i name="e_fr_energy">   -690.02273180 </i>
    <i name="e_wo_entrp">   -690.02273180 </i>
    <i name="e_0_energy">   -690.02273180 </i>
   </energy>
  </scstep>
  <scstep>
   <time name="dav">    5.38    5.40</time>
   <time name="total">    5.38    5.40</time>
   <energy>
    <i name="e_fr_energy">   -694.53202818 </i>
    <i name="e_wo_entrp">   -694.53202818 </i>
    <i name="e_0_energy">   -694.53202818 </i>
   </energy>
  </scstep>
  <scstep>
   <time name="dav">    5.48    5.49</time>
   <time name="total">    6.00    6.01</time>
   <energy>
    <i name="e_fr_energy">   -694.69852398 </i>
    <i name="e_wo_entrp">   -694.69852398 </i>
    <i name="e_0_energy">   -694.69852398 </i>
   </energy>
  </scstep>
  <scstep>
   <time name="dav">    5.08    5.10</time>
   <time name="total">    6.09    6.11</time>
   <energy>
    <i name="e_fr_energy">   -686.29734739 </i>
    <i name="e_wo_entrp">   -686.29734739 </i>
    <i name="e_0_energy">   -686.29734739 </i>
   </energy>
  </scstep>
  <scstep>
   <time name="dav">    4.90    4.91</time>
   <time name="total">    5.90    5.92</time>
   <energy>
    <i name="e_fr_energy">   -682.42553623 </i>
    <i name="e_wo_entrp">   -682.42553623 </i>
    <i name="e_0_energy">   -682.42553623 </i>
   </energy>
  </scstep>
  <scstep>
   <time name="dav">    4.99    5.01</time>
   <time name="total">    6.02    6.03</time>
   <energy>
    <i name="e_fr_energy">   -682.55742194 </i>
    <i name="e_wo_entrp">   -682.55742194 </i>
    <i name="e_0_energy">   -682.55742194 </i>
   </energy>
  </scstep>
  <scstep>
   <time name="dav">    5.49    5.51</time>
   <time name="total">    6.50    6.52</time>
   <energy>
    <i name="e_fr_energy">   -682.56422608 </i>
    <i name="e_wo_entrp">   -682.56422608 </i>
    <i name="e_0_energy">   -682.56422608 </i>
   </energy>
  </scstep>
  <scstep>
   <time name="dav">    4.99    5.00</time>
   <time name="total">    6.00    6.02</time>
   <energy>
    <i name="e_fr_energy">   -682.56688037 </i>
    <i name="e_wo_entrp">   -682.56688037 </i>
    <i name="e_0_energy">   -682.56688037 </i>
   </energy>
  </scstep>
  <scstep>
   <time name="dav">    5.46    5.47</time>
   <time name="total">    6.47    6.49</time>
   <energy>
    <i name="e_fr_energy">   -682.56689494 </i>
    <i name="e_wo_entrp">   -682.56689494 </i>
    <i name="e_0_energy">   -682.56689494 </i>
   </energy>
  </scstep>
  <scstep>
   <time name="dav">    5.25    5.26</time>
   <time name="total">    6.26    6.27</time>
   <energy>
    <i name="e_fr_energy">   -682.56689626 </i>
    <i name="e_wo_entrp">   -682.56689626 </i>
    <i name="e_0_energy">   -682.56689626 </i>
   </energy>
  </scstep>
  <scstep>
   <time name="dav">    5.30    5.31</time>
   <time name="total">    6.31    6.33</time>
   <energy>
    <i name="e_fr_energy">   -682.56689407 </i>
    <i name="e_wo_entrp">   -682.56689407 </i>
    <i name="e_0_energy">   -682.56689407 </i>
   </energy>
  </scstep>
  <scstep>
   <time name="dav">    5.41    5.43</time>
   <time name="total">    6.43    6.45</time>
   <energy>
    <i name="e_fr_energy">   -682.56689476 </i>
    <i name="e_wo_entrp">   -682.56689476 </i>
    <i name="e_0_energy">   -682.56689476 </i>
   </energy>
  </scstep>
  <scstep>
   <time name="dav">    4.36    4.37</time>
   <time name="total">    5.37    5.39</time>
   <energy>
    <i name="e_fr_energy">   -682.56689357 </i>
    <i name="e_wo_entrp">   -682.56689357 </i>
    <i name="e_0_energy">   -682.56689357 </i>
   </energy>
  </scstep>
  <scstep>
   <time name="dav">    3.35    3.35</time>
   <time name="total">    4.36    4.37</time>
   <energy>
    <i name="e_fr_energy">   -682.56689366 </i>
    <i name="e_wo_entrp">   -682.56689366 </i>
    <i name="e_0_energy">   -682.56689366 </i>
   </energy>
  </scstep>
  <scstep>
   <time name="dav">    3.36    3.37</time>
   <time name="total">    4.38    4.39</time>
   <energy>
    <i name="e_fr_energy">   -682.56689367 </i>
    <i name="e_wo_entrp">   -682.56689367 </i>
    <i name="e_0_energy">   -682.56689367 </i>
   </energy>
  </scstep>
  <scstep>
   <time name="dav">    3.26    3.27</time>
   <time name="total">    4.27    4.28</time>
   <energy>
    <i name="e_fr_energy">   -682.56689365 </i>
    <i name="e_wo_entrp">   -682.56689365 </i>
    <i name="e_0_energy">   -682.56689365 </i>
   </energy>
  </scstep>
  <scstep>
   <time name="dav">    3.25    3.26</time>
   <time name="total">    3.75    3.76</time>
   <energy>
    <i name="alphaZ">    210.78028765 </i>
    <i name="ewald"> -14524.86053653 </i>
    <i name="hartreedc">   -991.73572526 </i>
    <i name="XCdc">  -1153.28597377 </i>
    <i name="pawpsdc">   4723.40974237 </i>
    <i name="pawaedc">  -2485.14792214 </i>
    <i name="eentropy">     -0.00000000 </i>
    <i name="bandstr">    345.79237403 </i>
    <i name="atom">  13192.48085998 </i>
    <i name="e_fr_energy">   -682.56689365 </i>
    <i name="e_wo_entrp">   -682.56689365 </i>
    <i name="e_0_energy">   -682.56689365 </i>
   </energy>
  </scstep>
  <structure>
   <crystal>
    <varray name="basis" >
     <v>       0.00000000      10.93716070      10.93716070 </v>
     <v>      10.93716070       0.00000000      10.93716070 </v>
     <v>      10.93716070      10.93716070       0.00000000 </v>
    </varray>
    <i name="volume">   2616.63878844 </i>
    <varray name="rec_basis" >
     <v>      -0.04571570       0.04571570       0.04571570 </v>
     <v>       0.04571570      -0.04571570       0.04571570 </v>
     <v>       0.04571570       0.04571570      -0.04571570 </v>
    </varray>
   </crystal>
   <varray name="positions" >
    <v>       0.06158569       0.06341431       0.06341431 </v>
    <v>       0.31250000       0.06250000       0.06250000 </v>
    <v>       0.56250000       0.06250000       0.06250000 </v>
    <v>       0.81250000       0.06250000       0.06250000 </v>
    <v>       0.06250000       0.31250000       0.06250000 </v>
    <v>       0.31250000       0.31250000       0.06250000 </v>
    <v>       0.56250000       0.31250000       0.06250000 </v>
    <v>       0.81250000       0.31250000       0.06250000 </v>
    <v>       0.06250000       0.56250000       0.06250000 </v>
    <v>       0.31250000       0.56250000       0.06250000 </v>
    <v>       0.56250000       0.56250000       0.06250000 </v>
    <v>       0.81250000       0.56250000       0.06250000 </v>
    <v>       0.06250000       0.81250000       0.06250000 </v>
    <v>       0.31250000       0.81250000       0.06250000 </v>
    <v>       0.56250000       0.81250000       0.06250000 </v>
    <v>       0.81250000       0.81250000       0.06250000 </v>
    <v>       0.06250000       0.06250000       0.31250000 </v>
    <v>       0.31250000       0.06250000       0.31250000 </v>
    <v>       0.56250000       0.06250000       0.31250000 </v>
    <v>       0.81250000       0.06250000       0.31250000 </v>
    <v>       0.06250000       0.31250000       0.31250000 </v>
    <v>       0.31250000       0.31250000       0.31250000 </v>
    <v>       0.56250000       0.31250000       0.31250000 </v>
    <v>       0.81250000       0.31250000       0.31250000 </v>
    <v>       0.06250000       0.56250000       0.31250000 </v>
    <v>       0.31250000       0.56250000       0.31250000 </v>
    <v>       0.56250000       0.56250000       0.31250000 </v>
    <v>       0.81250000       0.56250000       0.31250000 </v>
    <v>       0.06250000       0.81250000       0.31250000 </v>
    <v>       0.31250000       0.81250000       0.31250000 </v>
    <v>       0.56250000       0.81250000       0.31250000 </v>
    <v>       0.81250000       0.81250000       0.31250000 </v>
    <v>       0.06250000       0.06250000       0.56250000 </v>
    <v>       0.31250000       0.06250000       0.56250000 </v>
    <v>       0.56250000       0.06250000       0.56250000 </v>
    <v>       0.81250000       0.06250000       0.56250000 </v>
    <v>       0.06250000       0.31250000       0.56250000 </v>
    <v>       0.31250000       0.31250000       0.56250000 </v>
    <v>       0.56250000       0.31250000       0.56250000 </v>
    <v>       0.81250000       0.31250000       0.56250000 </v>
    <v>       0.06250000       0.56250000       0.56250000 </v>
    <v>       0.31250000       0.56250000       0.56250000 </v>
    <v>       0.56250000       0.56250000       0.56250000 </v>
    <v>       0.81250000       0.56250000       0.56250000 </v>
    <v>       0.06250000       0.81250000       0.56250000 </v>
    <v>       0.31250000       0.81250000       0.56250000 </v>
    <v>       0.56250000       0.81250000       0.56250000 </v>
    <v>       0.81250000       0.81250000       0.56250000 </v>
    <v>       0.06250000       0.06250000       0.81250000 </v>
    <v>       0.31250000       0.06250000       0.81250000 </v>
    <v>       0.56250000       0.06250000       0.81250000 </v>
    <v>       0.81250000       0.06250000       0.81250000 </v>
    <v>       0.06250000       0.31250000       0.81250000 </v>
    <v>       0.31250000       0.31250000       0.81250000 </v>
    <v>       0.56250000       0.31250000       0.81250000 </v>
    <v>       0.81250000       0.31250000       0.81250000 </v>
    <v>       0.06250000       0.56250000       0.81250000 </v>
    <v>       0.31250000       0.56250000       0.81250000 </v>
    <v>       0.56250000       0.56250000       0.81250000 </v>
    <v>       0.81250000       0.56250000       0.81250000 </v>
    <v>       0.06250000       0.81250000       0.81250000 </v>
    <v>       0.31250000       0.81250000       0.81250000 </v>
    <v>       0.56250000       0.81250000       0.81250000 </v>
    <v>       0.81250000       0.81250000       0.81250000 </v>
    <v>       0.00000000       0.00000000       0.00000000 </v>
    <v>       0.25000000       0.00000000       0.00000000 </v>
    <v>       0.50000000       0.00000000       0.00000000 </v>
    <v>       0.75000000       0.00000000       0.00000000 </v>
    <v>       0.00000000       0.25000000       0.00000000 </v>
    <v>       0.25000000       0.25000000       0.00000000 </v>
    <v>       0.50000000       0.25000000       0.00000000 </v>
    <v>       0.75000000       0.25000000       0.00000000 </v>
    <v>       0.00000000       0.50000000       0.00000000 </v>
    <v>       0.25000000       0.50000000       0.00000000 </v>
    <v>       0.50000000       0.50000000       0.00000000 </v>
    <v>       0.75000000       0.50000000       0.00000000 </v>
    <v>       0.00000000       0.75000000       0.00000000 </v>
    <v>       0.25000000       0.75000000       0.00000000 </v>
    <v>       0.50000000       0.75000000       0.00000000 </v>
    <v>       0.75000000       0.75000000       0.00000000 </v>
    <v>       0.00000000       0.00000000       0.25000000 </v>
    <v>       0.25000000       0.00000000       0.25000000 </v>
    <v>       0.50000000       0.00000000       0.25000000 </v>
    <v>       0.75000000       0.00000000       0.25000000 </v>
    <v>       0.00000000       0.25000000       0.25000000 </v>
    <v>       0.25000000       0.25000000       0.25000000 </v>
    <v>       0.50000000       0.25000000       0.25000000 </v>
    <v>       0.75000000       0.25000000       0.25000000 </v>
    <v>       0.00000000       0.50000000       0.25000000 </v>
    <v>       0.25000000       0.50000000       0.25000000 </v>
    <v>       0.50000000       0.50000000       0.25000000 </v>
    <v>       0.75000000       0.50000000       0.25000000 </v>
    <v>       0.00000000       0.75000000       0.25000000 </v>
    <v>       0.25000000       0.75000000       0.25000000 </v>
    <v>       0.50000000       0.75000000       0.25000000 </v>
    <v>       0.75000000       0.75000000       0.25000000 </v>
    <v>       0.00000000       0.00000000       0.50000000 </v>
    <v>       0.25000000       0.00000000       0.50000000 </v>
    <v>       0.50000000       0.00000000       0.50000000 </v>
    <v>       0.75000000       0.00000000       0.50000000 </v>
    <v>       0.00000000       0.25000000       0.50000000 </v>
    <v>       0.25000000       0.25000000       0.50000000 </v>
    <v>       0.50000000       0.25000000       0.50000000 </v>
    <v>       0.75000000       0.25000000       0.50000000 </v>
    <v>       0.00000000       0.50000000       0.50000000 </v>
    <v>       0.25000000       0.50000000       0.50000000 </v>
    <v>       0.50000000       0.50000000       0.50000000 </v>
    <v>       0.75000000       0.50000000       0.50000000 </v>
    <v>       0.00000000       0.75000000       0.50000000 </v>
    <v>       0.25000000       0.75000000       0.50000000 </v>
    <v>       0.50000000       0.75000000       0.50000000 </v>
    <v>       0.75000000       0.75000000       0.50000000 </v>
    <v>       0.00000000       0.00000000       0.75000000 </v>
    <v>       0.25000000       0.00000000       0.75000000 </v>
    <v>       0.50000000       0.00000000       0.75000000 </v>
    <v>       0.75000000       0.00000000       0.75000000 </v>
    <v>       0.00000000       0.25000000       0.75000000 </v>
    <v>       0.25000000       0.25000000       0.75000000 </v>
    <v>       0.50000000       0.25000000       0.75000000 </v>
    <v>       0.75000000       0.25000000       0.75000000 </v>
    <v>       0.00000000       0.50000000       0.75000000 </v>
    <v>       0.25000000       0.50000000       0.75000000 </v>
    <v>       0.50000000       0.50000000       0.75000000 </v>
    <v>       0.75000000       0.50000000       0.75000000 </v>
    <v>       0.00000000       0.75000000       0.75000000 </v>
    <v>       0.25000000       0.75000000       0.75000000 </v>
    <v>       0.50000000       0.75000000       0.75000000 </v>
    <v>       0.75000000       0.75000000       0.75000000 </v>
   </varray>
  </structure>
  <varray name="forces" >
   <v>      -0.26057473      -0.00000003      -0.00000004 </v>
   <v>      -0.00982274       0.00187800       0.00187801 </v>
   <v>      -0.00332922      -0.00000002      -0.00000003 </v>
   <v>      -0.00982277      -0.00187802      -0.00187804 </v>
   <v>       0.00318369      -0.00193412       0.00408446 </v>
   <v>       0.00020780      -0.00053795       0.00029796 </v>
   <v>       0.00020777      -0.00029798       0.00053791 </v>
   <v>       0.00318365      -0.00408448       0.00193406 </v>
   <v>       0.00028411      -0.00000483       0.00074134 </v>
   <v>       0.00009170      -0.00041664       0.00041658 </v>
   <v>       0.00028409      -0.00074140       0.00000473 </v>
   <v>       0.00008802      -0.00029878       0.00029874 </v>
   <v>       0.00312820       0.00189110       0.00401986 </v>
   <v>       0.00312819      -0.00401993      -0.00189116 </v>
   <v>       0.00020867      -0.00041868       0.00053996 </v>
   <v>       0.00020867      -0.00054002       0.00041864 </v>
   <v>       0.00318368       0.00408446      -0.00193412 </v>
   <v>       0.00020779       0.00029793      -0.00053795 </v>
   <v>       0.00020778       0.00053791      -0.00029797 </v>
   <v>       0.00318369       0.00193405      -0.00408445 </v>
   <v>       0.00009417       0.00041642       0.00041642 </v>
   <v>       0.00020773      -0.00000002      -0.00000002 </v>
   <v>       0.00009418      -0.00041645      -0.00041645 </v>
   <v>       0.00033527      -0.00000001      -0.00000001 </v>
   <v>       0.00020870       0.00054624       0.00030025 </v>
   <v>       0.00020870      -0.00030030      -0.00054630 </v>
   <v>       0.00018919      -0.00000173      -0.00002499 </v>
   <v>       0.00018918       0.00002492       0.00000168 </v>
   <v>      -0.00984485      -0.00194515       0.00194508 </v>
   <v>       0.00050395       0.00000135       0.00000000 </v>
   <v>       0.00025256      -0.00002453       0.00002449 </v>
   <v>       0.00050396      -0.00000004      -0.00000139 </v>
   <v>       0.00028409       0.00074135      -0.00000480 </v>
   <v>       0.00009168       0.00041661      -0.00041664 </v>
   <v>       0.00028409       0.00000473      -0.00074138 </v>
   <v>       0.00008804       0.00029874      -0.00029878 </v>
   <v>       0.00020869       0.00030026       0.00054622 </v>
   <v>       0.00020870      -0.00054631      -0.00030031 </v>
   <v>       0.00018918      -0.00002497      -0.00000175 </v>
   <v>       0.00018917       0.00000170       0.00002491 </v>
   <v>      -0.00336775      -0.00000002      -0.00000007 </v>
   <v>       0.00025341       0.00002475       0.00002477 </v>
   <v>       0.00022613      -0.00000001      -0.00000004 </v>
   <v>       0.00025341      -0.00002482      -0.00002483 </v>
   <v>       0.00020792       0.00041440       0.00054406 </v>
   <v>       0.00018758       0.00000387      -0.00002429 </v>
   <v>       0.00018755       0.00002427      -0.00000393 </v>
   <v>       0.00020792      -0.00054414      -0.00041447 </v>
   <v>       0.00312820       0.00401989       0.00189109 </v>
   <v>       0.00312820      -0.00189116      -0.00401992 </v>
   <v>       0.00020867       0.00053995      -0.00041872 </v>
   <v>       0.00020866       0.00041865      -0.00054003 </v>
   <v>      -0.00984481       0.00194508      -0.00194516 </v>
   <v>       0.00050396      -0.00000001       0.00000137 </v>
   <v>       0.00025255       0.00002451      -0.00002454 </v>
   <v>       0.00050395      -0.00000142      -0.00000005 </v>
   <v>       0.00020792       0.00054405       0.00041438 </v>
   <v>       0.00018757      -0.00002433       0.00000388 </v>
   <v>       0.00018755      -0.00000394       0.00002426 </v>
   <v>       0.00020792      -0.00041447      -0.00054411 </v>
   <v>       0.00009799       0.00029962       0.00029962 </v>
   <v>       0.00032968      -0.00000003      -0.00000001 </v>
   <v>       0.00009798      -0.00029970      -0.00029969 </v>
   <v>       0.00020771      -0.00000001      -0.00000004 </v>
   <v>       0.06481428       0.03933140       0.03933142 </v>
   <v>       0.06481428      -0.03933135      -0.03933136 </v>
   <v>       0.00405562       0.00094560       0.00094560 </v>
   <v>       0.00405560      -0.00094553      -0.00094555 </v>
   <v>       0.06600326      -0.04161836       0.04161841 </v>
   <v>      -0.00050560       0.00066923      -0.00069191 </v>
   <v>      -0.00015403       0.00031399      -0.00031389 </v>
   <v>      -0.00050557       0.00069197      -0.00066917 </v>
   <v>       0.00042302       0.00094938       0.00039668 </v>
   <v>       0.00011108       0.00031353      -0.00016186 </v>
   <v>       0.00011110       0.00016192      -0.00031349 </v>
   <v>       0.00042304      -0.00039664      -0.00094934 </v>
   <v>       0.00040996      -0.00094615       0.00039151 </v>
   <v>      -0.00015503       0.00068934      -0.00068927 </v>
   <v>       0.00040997      -0.00039149       0.00094617 </v>
   <v>      -0.00050262       0.00077566      -0.00077563 </v>
   <v>       0.06600326       0.04161843      -0.04161835 </v>
   <v>      -0.00050557      -0.00069193       0.00066923 </v>
   <v>      -0.00015403      -0.00031393       0.00031396 </v>
   <v>      -0.00050559      -0.00066919       0.00069200 </v>
   <v>      -0.00015296      -0.00067886      -0.00067888 </v>
   <v>      -0.00019839       0.00003680       0.00003679 </v>
   <v>      -0.00019837      -0.00003673      -0.00003673 </v>
   <v>      -0.00015295       0.00067892       0.00067892 </v>
   <v>       0.00010960      -0.00031949      -0.00015872 </v>
   <v>      -0.00019704      -0.00003778       0.00003782 </v>
   <v>       0.00010962       0.00015877       0.00031955 </v>
   <v>      -0.00013005      -0.00004468       0.00004474 </v>
   <v>      -0.00049721      -0.00069270      -0.00067639 </v>
   <v>      -0.00049719       0.00067643       0.00069277 </v>
   <v>      -0.00031198      -0.00004379      -0.00001353 </v>
   <v>      -0.00031197       0.00001358       0.00004385 </v>
   <v>       0.00042302       0.00039668       0.00094939 </v>
   <v>       0.00011106      -0.00016187       0.00031353 </v>
   <v>       0.00011108      -0.00031348       0.00016192 </v>
   <v>       0.00042305      -0.00094936      -0.00039665 </v>
   <v>       0.00010959      -0.00015870      -0.00031949 </v>
   <v>      -0.00019703       0.00003783      -0.00003777 </v>
   <v>       0.00010961       0.00031954       0.00015877 </v>
   <v>      -0.00013003       0.00004476      -0.00004470 </v>
   <v>      -0.00015744      -0.00031894      -0.00031895 </v>
   <v>      -0.00015744       0.00031900       0.00031899 </v>
   <v>      -0.00021282       0.00004709       0.00004711 </v>
   <v>      -0.00021281      -0.00004703      -0.00004703 </v>
   <v>       0.00412331      -0.00094999       0.00095003 </v>
   <v>      -0.00031082       0.00004401      -0.00001643 </v>
   <v>      -0.00021055      -0.00004871       0.00004878 </v>
   <v>      -0.00031080       0.00001648      -0.00004397 </v>
   <v>       0.00040994       0.00039151      -0.00094615 </v>
   <v>      -0.00015504      -0.00068925       0.00068932 </v>
   <v>       0.00040998       0.00094618      -0.00039144 </v>
   <v>      -0.00050263      -0.00077561       0.00077565 </v>
   <v>      -0.00049720      -0.00067638      -0.00069269 </v>
   <v>      -0.00049717       0.00069276       0.00067645 </v>
   <v>      -0.00031199      -0.00001356      -0.00004380 </v>
   <v>      -0.00031200       0.00004386       0.00001359 </v>
   <v>       0.00412330       0.00095006      -0.00095000 </v>
   <v>      -0.00031080      -0.00001643       0.00004403 </v>
   <v>      -0.00021056       0.00004876      -0.00004869 </v>
   <v>      -0.00031081      -0.00004397       0.00001650 </v>
   <v>      -0.00050090      -0.00076924      -0.00076925 </v>
   <v>      -0.00012803       0.00004299       0.00004302 </v>
   <v>      -0.00012803      -0.00004296      -0.00004294 </v>
   <v>      -0.00050089       0.00076927       0.00076926 </v>
  </varray>
  <varray name="stress" >
   <v>       5.73050038       0.00000763       0.00000757 </v>
   <v>       0.00000762       5.73467702      -0.10677407 </v>
   <v>       0.00000758      -0.10677407       5.73467701 </v>
  </varray>
  <energy>
   <i name="e_fr_energy">   -682.56689365 </i>
   <i name="e_wo_entrp">   -682.56689365 </i>
   <i name="e_0_energy">     -0.00000000 </i>
  </energy>
  <time name="totalsc">  122.40  122.75</time>
  <eigenvalues>
   <array>
    <dimension dim="1">band</dimension>
    <dimension dim="2">kpoint</dimension>
    <dimension dim="3">spin</dimension>
    <field>eigene</field>
    <field>occ</field>
    <set>
     <set comment="spin 1">
      <set comment="kpoint 1">
       <r>   -6.1630    1.0000 </r>
       <r>   -5.3798    1.0000 </r>
       <r>   -5.3780    1.0000 </r>
       <r>   -5.3776    1.0000 </r>
       <r>   -5.3775    1.0000 </r>
       <r>   -5.3774    1.0000 </r>
       <r>   -5.3773    1.0000 </r>
       <r>   -5.3769    1.0000 </r>
       <r>   -5.3753    1.0000 </r>
       <r>   -5.1015    1.0000 </r>
       <r>   -5.1002    1.0000 </r>
       <r>   -5.0996    1.0000 </r>
       <r>   -5.0996    1.0000 </r>
       <r>   -5.0991    1.0000 </r>
       <r>   -5.0979    1.0000 </r>
       <r>   -4.1610    1.0000 </r>
       <r>   -4.1583    1.0000 </r>
       <r>   -4.1572    1.0000 </r>
       <r>   -4.1570    1.0000 </r>
       <r>   -4.1570    1.0000 </r>
       <r>   -4.1570    1.0000 </r>
       <r>   -4.1569    1.0000 </r>
       <r>   -4.1569    1.0000 </r>
       <r>   -4.1569    1.0000 </r>
       <r>   -4.1567    1.0000 </r>
       <r>   -4.1556    1.0000 </r>
       <r>   -4.1531    1.0000 </r>
       <r>   -3.8824    1.0000 </r>
       <r>   -3.8816    1.0000 </r>
       <r>   -3.8807    1.0000 </r>
       <r>   -3.8800    1.0000 </r>
       <r>   -3.5041    1.0000 </r>
       <r>   -3.4994    1.0000 </r>
       <r>   -3.4970    1.0000 </r>
       <r>   -3.4968    1.0000 </r>
       <r>   -3.4966    1.0000 </r>
       <r>   -3.4965    1.0000 </r>
       <r>   -3.4965    1.0000 </r>
       <r>   -3.4963    1.0000 </r>
       <r>   -3.4963    1.0000 </r>
       <r>   -3.4963    1.0000 </r>
       <r>   -3.4963    1.0000 </r>
       <r>   -3.4962    1.0000 </r>
       <r>   -3.4962    1.0000 </r>
       <r>   -3.4962    1.0000 </r>
       <r>   -3.4962    1.0000 </r>
       <r>   -3.4961    1.0000 </r>
       <r>   -3.4961    1.0000 </r>
       <r>   -3.4960    1.0000 </r>
       <r>   -3.4960    1.0000 </r>
       <r>   -3.4959    1.0000 </r>
       <r>   -3.4956    1.0000 </r>
       <r>   -3.4955    1.0000 </r>
       <r>   -3.4931    1.0000 </r>
       <r>   -3.4883    1.0000 </r>
       <r>   -2.0930    1.0000 </r>
       <r>   -2.0919    1.0000 </r>
       <r>   -2.0909    1.0000 </r>
       <r>   -2.0909    1.0000 </r>
       <r>   -2.0900    1.0000 </r>
       <r>   -2.0890    1.0000 </r>
       <r>   -1.9392    1.0000 </r>
       <r>   -1.9376    1.0000 </r>
       <r>   -1.9358    1.0000 </r>
       <r>   -1.9356    1.0000 </r>
       <r>   -1.9355    1.0000 </r>
       <r>   -1.9354    1.0000 </r>
       <r>   -1.9354    1.0000 </r>
       <r>   -1.9353    1.0000 </r>
       <r>   -1.9352    1.0000 </r>
       <r>   -1.9350    1.0000 </r>
       <r>   -1.9332    1.0000 </r>
       <r>   -1.9315    1.0000 </r>
       <r>   -1.2197    1.0000 </r>
       <r>   -1.2186    1.0000 </r>
       <r>   -1.2182    1.0000 </r>
       <r>   -1.2171    1.0000 </r>
       <r>   -0.6758    1.0000 </r>
       <r>   -0.6733    1.0000 </r>
       <r>   -0.6693    1.0000 </r>
       <r>   -0.6693    1.0000 </r>
       <r>   -0.6691    1.0000 </r>
       <r>   -0.6689    1.0000 </r>
       <r>   -0.6688    1.0000 </r>
       <r>   -0.6688    1.0000 </r>
       <r>   -0.6688    1.0000 </r>
       <r>   -0.6688    1.0000 </r>
       <r>   -0.6687    1.0000 </r>
       <r>   -0.6687    1.0000 </r>
       <r>   -0.6686    1.0000 </r>
       <r>   -0.6685    1.0000 </r>
       <r>   -0.6685    1.0000 </r>
       <r>   -0.6685    1.0000 </r>
       <r>   -0.6684    1.0000 </r>
       <r>   -0.6684    1.0000 </r>
       <r>   -0.6683    1.0000 </r>
       <r>   -0.6682    1.0000 </r>
       <r>   -0.6680    1.0000 </r>
       <r>   -0.6680    1.0000 </r>
       <r>   -0.6640    1.0000 </r>
       <r>   -0.6613    1.0000 </r>
       <r>    0.2138    1.0000 </r>
       <r>    0.2140    1.0000 </r>
       <r>    0.2164    1.0000 </r>
       <r>    0.2166    1.0000 </r>
       <r>    0.2166    1.0000 </r>
       <r>    0.2167    1.0000 </r>
       <r>    0.2168    1.0000 </r>
       <r>    0.2168    1.0000 </r>
       <r>    0.2169    1.0000 </r>
       <r>    0.2170    1.0000 </r>
       <r>    0.2194    1.0000 </r>
       <r>    0.2198    1.0000 </r>
       <r>    1.7658    1.0000 </r>
       <r>    1.7664    1.0000 </r>
       <r>    1.7673    1.0000 </r>
       <r>    1.7677    1.0000 </r>
       <r>    1.7680    1.0000 </r>
       <r>    1.7683    1.0000 </r>
       <r>    1.7692    1.0000 </r>
       <r>    1.7697    1.0000 </r>
       <r>    1.8837    1.0000 </r>
       <r>    1.8853    1.0000 </r>
       <r>    1.8856    1.0000 </r>
       <r>    1.8856    1.0000 </r>
       <r>    1.8859    1.0000 </r>
       <r>    1.8860    1.0000 </r>
       <r>    1.8860    1.0000 </r>
       <r>    1.8861    1.0000 </r>
       <r>    1.8864    1.0000 </r>
       <r>    1.8864    1.0000 </r>
       <r>    1.8867    1.0000 </r>
       <r>    1.8882    1.0000 </r>
       <r>    1.9771    1.0000 </r>
       <r>    1.9772    1.0000 </r>
       <r>    1.9776    1.0000 </r>
       <r>    1.9787    1.0000 </r>
       <r>    1.9788    1.0000 </r>
       <r>    1.9789    1.0000 </r>
       <r>    1.9789    1.0000 </r>
       <r>    1.9789    1.0000 </r>
       <r>    1.9790    1.0000 </r>
       <r>    1.9801    1.0000 </r>
       <r>    1.9805    1.0000 </r>
       <r>    1.9806    1.0000 </r>
       <r>    2.1391    1.0000 </r>
       <r>    2.1401    1.0000 </r>
       <r>    2.1411    1.0000 </r>
       <r>    2.1411    1.0000 </r>
       <r>    2.1420    1.0000 </r>
       <r>    2.1429    1.0000 </r>
       <r>    2.1826    1.0000 </r>
       <r>    2.1837    1.0000 </r>
       <r>    2.1854    1.0000 </r>
       <r>    2.1863    1.0000 </r>
       <r>    2.1864    1.0000 </r>
       <r>    2.1866    1.0000 </r>
       <r>    2.1866    1.0000 </r>
       <r>    2.1866    1.0000 </r>
       <r>    2.1867    1.0000 </r>
       <r>    2.1868    1.0000 </r>
       <r>    2.1868    1.0000 </r>
       <r>    2.1868    1.0000 </r>
       <r>    2.1870    1.0000 </r>
       <r>    2.1870    1.0000 </r>
       <r>    2.1870    1.0000 </r>
       <r>    2.1871    1.0000 </r>
       <r>    2.1872    1.0000 </r>
       <r>    2.1872    1.0000 </r>
       <r>    2.1873    1.0000 </r>
       <r>    2.1875    1.0000 </r>
       <r>    2.1875    1.0000 </r>
       <r>    2.1885    1.0000 </r>
       <r>    2.1905    1.0000 </r>
       <r>    2.1917    1.0000 </r>
       <r>    2.8557    1.0000 </r>
       <r>    2.8565    1.0000 </r>
       <r>    2.8566    1.0000 </r>
       <r>    2.8566    1.0000 </r>
       <r>    2.8567    1.0000 </r>
       <r>    2.8575    1.0000 </r>
       <r>    3.4872    1.0000 </r>
       <r>    3.4900    1.0000 </r>
       <r>    3.4917    1.0000 </r>
       <r>    3.4918    1.0000 </r>
       <r>    3.4918    1.0000 </r>
       <r>    3.4922    1.0000 </r>
       <r>    3.4922    1.0000 </r>
       <r>    3.4924    1.0000 </r>
       <r>    3.4924    1.0000 </r>
       <r>    3.4924    1.0000 </r>
       <r>    3.4925    1.0000 </r>
       <r>    3.4925    1.0000 </r>
       <r>    3.4926    1.0000 </r>
       <r>    3.4926    1.0000 </r>
       <r>    3.4926    1.0000 </r>
       <r>    3.4927    1.0000 </r>
       <r>    3.4927    1.0000 </r>
       <r>    3.4928    1.0000 </r>
       <r>    3.4928    1.0000 </r>
       <r>    3.4932    1.0000 </r>
       <r>    3.4933    1.0000 </r>
       <r>    3.4933    1.0000 </r>
       <r>    3.4951    1.0000 </r>
       <r>    3.4977    1.0000 </r>
       <r>    3.8006    1.0000 </r>
       <r>    3.8030    1.0000 </r>
       <r>    3.8036    1.0000 </r>
       <r>    3.8037    1.0000 </r>
       <r>    3.8038    1.0000 </r>
       <r>    3.8038    1.0000 </r>
       <r>    3.8038    1.0000 </r>
       <r>    3.8039    1.0000 </r>
       <r>    3.8040    1.0000 </r>
       <r>    3.8041    1.0000 </r>
       <r>    3.8047    1.0000 </r>
       <r>    3.8071    1.0000 </r>
       <r>    4.3493    1.0000 </r>
       <r>    4.3513    1.0000 </r>
       <r>    4.3524    1.0000 </r>
       <r>    4.3525    1.0000 </r>
       <r>    4.3527    1.0000 </r>
       <r>    4.3528    1.0000 </r>
       <r>    4.3529    1.0000 </r>
       <r>    4.3530    1.0000 </r>
       <r>    4.3531    1.0000 </r>
       <r>    4.3532    1.0000 </r>
       <r>    4.3544    1.0000 </r>
       <r>    4.3562    1.0000 </r>
       <r>    4.4752    1.0000 </r>
       <r>    4.4770    1.0000 </r>
       <r>    4.4774    1.0000 </r>
       <r>    4.4776    1.0000 </r>
       <r>    4.4778    1.0000 </r>
       <r>    4.4780    1.0000 </r>
       <r>    4.4785    1.0000 </r>
       <r>    4.4803    1.0000 </r>
       <r>    4.9056    1.0000 </r>
       <r>    4.9110    1.0000 </r>
       <r>    4.9112    1.0000 </r>
       <r>    4.9114    1.0000 </r>
       <r>    4.9115    1.0000 </r>
       <r>    4.9117    1.0000 </r>
       <r>    4.9117    1.0000 </r>
       <r>    4.9117    1.0000 </r>
       <r>    4.9118    1.0000 </r>
       <r>    4.9118    1.0000 </r>
       <r>    4.9119    1.0000 </r>
       <r>    4.9121    1.0000 </r>
       <r>    4.9122    1.0000 </r>
       <r>    4.9123    1.0000 </r>
       <r>    4.9126    1.0000 </r>
       <r>    4.9182    1.0000 </r>
       <r>    5.6590    1.0000 </r>
       <r>    5.6604    1.0000 </r>
       <r>    5.6620    1.0000 </r>
       <r>    6.3937    0.0000 </r>
       <r>    6.3942    0.0000 </r>
       <r>    6.3951    0.0000 </r>
       <r>    6.3951    0.0000 </r>
       <r>    6.3960    0.0000 </r>
       <r>    6.3965    0.0000 </r>
       <r>    6.7948    0.0000 </r>
       <r>    6.7951    0.0000 </r>
       <r>    6.7963    0.0000 </r>
       <r>    6.7963    0.0000 </r>
       <r>    6.7973    0.0000 </r>
       <r>    6.7977    0.0000 </r>
       <r>    7.1205    0.0000 </r>
       <r>    7.1207    0.0000 </r>
       <r>    7.1209    0.0000 </r>
       <r>    7.1212    0.0000 </r>
       <r>    7.1806    0.0000 </r>
       <r>    7.1813    0.0000 </r>
       <r>    7.1855    0.0000 </r>
       <r>    7.1856    0.0000 </r>
       <r>    7.1856    0.0000 </r>
       <r>    7.1857    0.0000 </r>
       <r>    7.1857    0.0000 </r>
       <r>    7.1858    0.0000 </r>
       <r>    7.1858    0.0000 </r>
       <r>    7.1859    0.0000 </r>
       <r>    7.1860    0.0000 </r>
       <r>    7.1860    0.0000 </r>
       <r>    7.1860    0.0000 </r>
       <r>    7.1860    0.0000 </r>
       <r>    7.1861    0.0000 </r>
       <r>    7.1862    0.0000 </r>
       <r>    7.1862    0.0000 </r>
       <r>    7.1863    0.0000 </r>
       <r>    7.1863    0.0000 </r>
       <r>    7.1864    0.0000 </r>
       <r>    7.1864    0.0000 </r>
       <r>    7.1865    0.0000 </r>
       <r>    7.1907    0.0000 </r>
       <r>    7.1913    0.0000 </r>
       <r>    7.6110    0.0000 </r>
       <r>    7.6113    0.0000 </r>
       <r>    7.6118    0.0000 </r>
       <r>    7.6122    0.0000 </r>
       <r>    7.6122    0.0000 </r>
       <r>    7.6126    0.0000 </r>
       <r>    7.6132    0.0000 </r>
       <r>    7.6135    0.0000 </r>
       <r>    8.0804    0.0000 </r>
       <r>    8.0806    0.0000 </r>
       <r>    8.0827    0.0000 </r>
       <r>    8.0828    0.0000 </r>
       <r>    8.0828    0.0000 </r>
       <r>    8.0829    0.0000 </r>
       <r>    8.0829    0.0000 </r>
       <r>    8.0830    0.0000 </r>
       <r>    8.0831    0.0000 </r>
       <r>    8.0832    0.0000 </r>
       <r>    8.0852    0.0000 </r>
       <r>    8.0854    0.0000 </r>
       <r>    8.1985    0.0000 </r>
       <r>    8.1993    0.0000 </r>
       <r>    8.2002    0.0000 </r>
       <r>    8.7787    0.0000 </r>
       <r>    8.7798    0.0000 </r>
       <r>    8.7867    0.0000 </r>
      </set>
     </set>
    </set>
   </array>
  </eigenvalues>
  <separator name="orbital magnetization" >
   <v name="MAGDIPOLOUT">      0.00000000      0.00000000      0.00000000</v>
  </separator>
  <dos>
   <i name="efermi">      5.91978809 </i>
   <total>
    <array>
     <dimension dim="1">gridpoints</dimension>
     <dimension dim="2">spin</dimension>
     <field>energy</field>
     <field>total</field>
     <field>integrated</field>
     <set>
      <set comment="spin 1">
       <r>    -6.9105     0.0000     0.0000 </r>
       <r>    -6.8557     0.0000     0.0000 </r>
       <r>    -6.8009     0.0000     0.0000 </r>
       <r>    -6.7461     0.0000     0.0000 </r>
       <r>    -6.6913     0.0000     0.0000 </r>
       <r>    -6.6364     0.0000     0.0000 </r>
       <r>    -6.5816     0.0000     0.0000 </r>
       <r>    -6.5268     0.0000     0.0000 </r>
       <r>    -6.4720     0.0000     0.0000 </r>
       <r>    -6.4172     0.0000     0.0000 </r>
       <r>    -6.3624     0.0000     0.0000 </r>
       <r>    -6.3075     0.0008     0.0000 </r>
       <r>    -6.2527     0.2031     0.0112 </r>
       <r>    -6.1979     5.7035     0.3238 </r>
       <r>    -6.1431    20.1271     1.4271 </r>
       <r>    -6.0883     9.8220     1.9655 </r>
       <r>    -6.0335     0.6248     1.9998 </r>
       <r>    -5.9786     0.0045     2.0000 </r>
       <r>    -5.9238     0.0000     2.0000 </r>
       <r>    -5.8690     0.0000     2.0000 </r>
       <r>    -5.8142     0.0000     2.0000 </r>
       <r>    -5.7594     0.0000     2.0000 </r>
       <r>    -5.7046     0.0000     2.0000 </r>
       <r>    -5.6498     0.0000     2.0000 </r>
       <r>    -5.5949     0.0000     2.0000 </r>
       <r>    -5.5401     0.0006     2.0000 </r>
       <r>    -5.4853     0.3358     2.0184 </r>
       <r>    -5.4305    19.2290     3.0725 </r>
       <r>    -5.3757   132.3485    10.3273 </r>
       <r>    -5.3209   124.0061    17.1247 </r>
       <r>    -5.2660    15.7295    17.9870 </r>
       <r>    -5.2112     0.4132    18.0096 </r>
       <r>    -5.1564    11.7042    18.6512 </r>
       <r>    -5.1016    92.7667    23.7363 </r>
       <r>    -5.0468    99.4896    29.1899 </r>
       <r>    -4.9920    14.5239    29.9860 </r>
       <r>    -4.9371     0.2548    30.0000 </r>
       <r>    -4.8823     0.0005    30.0000 </r>
       <r>    -4.8275     0.0000    30.0000 </r>
       <r>    -4.7727     0.0000    30.0000 </r>
       <r>    -4.7179     0.0000    30.0000 </r>
       <r>    -4.6631     0.0000    30.0000 </r>
       <r>    -4.6083     0.0000    30.0000 </r>
       <r>    -4.5534     0.0000    30.0000 </r>
       <r>    -4.4986     0.0000    30.0000 </r>
       <r>    -4.4438     0.0000    30.0000 </r>
       <r>    -4.3890     0.0000    30.0000 </r>
       <r>    -4.3342     0.0001    30.0000 </r>
       <r>    -4.2794     0.1192    30.0065 </r>
       <r>    -4.2245    12.1985    30.6752 </r>
       <r>    -4.1697   144.9913    38.6230 </r>
       <r>    -4.1149   229.1359    51.1833 </r>
       <r>    -4.0601    50.0279    53.9256 </r>
       <r>    -4.0053     1.3866    54.0016 </r>
       <r>    -3.9505     3.6278    54.2004 </r>
       <r>    -3.8956    46.1439    56.7299 </r>
       <r>    -3.8408    77.6120    60.9842 </r>
       <r>    -3.7860    18.0107    61.9715 </r>
       <r>    -3.7312     0.5186    61.9999 </r>
       <r>    -3.6764     0.0018    62.0000 </r>
       <r>    -3.6216     0.1775    62.0097 </r>
       <r>    -3.5668    20.2313    63.1187 </r>
       <r>    -3.5119   267.5208    77.7831 </r>
       <r>    -3.4571   469.5903   103.5240 </r>
       <r>    -3.4023   114.6171   109.8068 </r>
       <r>    -3.3475     3.5124   109.9993 </r>
       <r>    -3.2927     0.0119   110.0000 </r>
       <r>    -3.2379     0.0000   110.0000 </r>
       <r>    -3.1830     0.0000   110.0000 </r>
       <r>    -3.1282     0.0000   110.0000 </r>
       <r>    -3.0734     0.0000   110.0000 </r>
       <r>    -3.0186     0.0000   110.0000 </r>
       <r>    -2.9638     0.0000   110.0000 </r>
       <r>    -2.9090     0.0000   110.0000 </r>
       <r>    -2.8542     0.0000   110.0000 </r>
       <r>    -2.7993     0.0000   110.0000 </r>
       <r>    -2.7445     0.0000   110.0000 </r>
       <r>    -2.6897     0.0000   110.0000 </r>
       <r>    -2.6349     0.0000   110.0000 </r>
       <r>    -2.5801     0.0000   110.0000 </r>
       <r>    -2.5253     0.0000   110.0000 </r>
       <r>    -2.4704     0.0000   110.0000 </r>
       <r>    -2.4156     0.0000   110.0000 </r>
       <r>    -2.3608     0.0000   110.0000 </r>
       <r>    -2.3060     0.0000   110.0000 </r>
       <r>    -2.2512     0.0006   110.0000 </r>
       <r>    -2.1964     0.3155   110.0173 </r>
       <r>    -2.1415    16.4004   110.9163 </r>
       <r>    -2.0867   103.1508   116.5706 </r>
       <r>    -2.0319    90.0342   121.5059 </r>
       <r>    -1.9771    61.1340   124.8570 </r>
       <r>    -1.9223   230.0165   137.4655 </r>
       <r>    -1.8675   143.6471   145.3396 </r>
       <r>    -1.8127    11.9317   145.9937 </r>
       <r>    -1.7578     0.1151   146.0000 </r>
       <r>    -1.7030     0.0001   146.0000 </r>
       <r>    -1.6482     0.0000   146.0000 </r>
       <r>    -1.5934     0.0000   146.0000 </r>
       <r>    -1.5386     0.0000   146.0000 </r>
       <r>    -1.4838     0.0000   146.0000 </r>
       <r>    -1.4289     0.0000   146.0000 </r>
       <r>    -1.3741     0.0008   146.0000 </r>
       <r>    -1.3193     0.3155   146.0173 </r>
       <r>    -1.2645    13.7387   146.7704 </r>
       <r>    -1.2097    73.1516   150.7803 </r>
       <r>    -1.1549    53.4568   153.7106 </r>
       <r>    -1.1000     5.2205   153.9967 </r>
       <r>    -1.0452     0.0596   154.0000 </r>
       <r>    -0.9904     0.0001   154.0000 </r>
       <r>    -0.9356     0.0000   154.0000 </r>
       <r>    -0.8808     0.0000   154.0000 </r>
       <r>    -0.8260     0.0040   154.0002 </r>
       <r>    -0.7712     1.6685   154.0917 </r>
       <r>    -0.7163    76.3731   158.2781 </r>
       <r>    -0.6615   429.3385   181.8126 </r>
       <r>    -0.6067   332.9715   200.0647 </r>
       <r>    -0.5519    34.8726   201.9762 </r>
       <r>    -0.4971     0.4327   202.0000 </r>
       <r>    -0.4423     0.0006   202.0000 </r>
       <r>    -0.3874     0.0000   202.0000 </r>
       <r>    -0.3326     0.0000   202.0000 </r>
       <r>    -0.2778     0.0000   202.0000 </r>
       <r>    -0.2230     0.0000   202.0000 </r>
       <r>    -0.1682     0.0000   202.0000 </r>
       <r>    -0.1134     0.0000   202.0000 </r>
       <r>    -0.0585     0.0000   202.0000 </r>
       <r>    -0.0037     0.0000   202.0000 </r>
       <r>     0.0511     0.0006   202.0000 </r>
       <r>     0.1059     0.3801   202.0209 </r>
       <r>     0.1607    24.4595   203.3616 </r>
       <r>     0.2155   188.1258   213.6739 </r>
       <r>     0.2703   196.4363   224.4417 </r>
       <r>     0.3252    27.9493   225.9737 </r>
       <r>     0.3800     0.4782   226.0000 </r>
       <r>     0.4348     0.0009   226.0000 </r>
       <r>     0.4896     0.0000   226.0000 </r>
       <r>     0.5444     0.0000   226.0000 </r>
       <r>     0.5992     0.0000   226.0000 </r>
       <r>     0.6541     0.0000   226.0000 </r>
       <r>     0.7089     0.0000   226.0000 </r>
       <r>     0.7637     0.0000   226.0000 </r>
       <r>     0.8185     0.0000   226.0000 </r>
       <r>     0.8733     0.0000   226.0000 </r>
       <r>     0.9281     0.0000   226.0000 </r>
       <r>     0.9829     0.0000   226.0000 </r>
       <r>     1.0378     0.0000   226.0000 </r>
       <r>     1.0926     0.0000   226.0000 </r>
       <r>     1.1474     0.0000   226.0000 </r>
       <r>     1.2022     0.0000   226.0000 </r>
       <r>     1.2570     0.0000   226.0000 </r>
       <r>     1.3118     0.0000   226.0000 </r>
       <r>     1.3667     0.0000   226.0000 </r>
       <r>     1.4215     0.0000   226.0000 </r>
       <r>     1.4763     0.0000   226.0000 </r>
       <r>     1.5311     0.0000   226.0000 </r>
       <r>     1.5859     0.0000   226.0000 </r>
       <r>     1.6407     0.0479   226.0026 </r>
       <r>     1.6956     5.9517   226.3289 </r>
       <r>     1.7504    84.8154   230.9781 </r>
       <r>     1.8052   163.5388   239.9426 </r>
       <r>     1.8600   137.6260   247.4867 </r>
       <r>     1.9148   262.2422   261.8616 </r>
       <r>     1.9696   245.3359   275.3099 </r>
       <r>     2.0244   224.8181   287.6335 </r>
       <r>     2.0793    52.0472   290.4865 </r>
       <r>     2.1341   142.7380   298.3108 </r>
       <r>     2.1889   505.0725   325.9967 </r>
       <r>     2.2437   389.8520   347.3667 </r>
       <r>     2.2985    47.3291   349.9611 </r>
       <r>     2.3533     0.7093   349.9999 </r>
       <r>     2.4082     0.0011   350.0000 </r>
       <r>     2.4630     0.0000   350.0000 </r>
       <r>     2.5178     0.0000   350.0000 </r>
       <r>     2.5726     0.0000   350.0000 </r>
       <r>     2.6274     0.0000   350.0000 </r>
       <r>     2.6822     0.0001   350.0000 </r>
       <r>     2.7371     0.0789   350.0043 </r>
       <r>     2.7919     7.2665   350.4026 </r>
       <r>     2.8467    77.9158   354.6737 </r>
       <r>     2.9015   111.2982   360.7745 </r>
       <r>     2.9563    21.8300   361.9712 </r>
       <r>     3.0111     0.5246   361.9999 </r>
       <r>     3.0659     0.0014   362.0000 </r>
       <r>     3.1208     0.0000   362.0000 </r>
       <r>     3.1756     0.0000   362.0000 </r>
       <r>     3.2304     0.0000   362.0000 </r>
       <r>     3.2852     0.0000   362.0000 </r>
       <r>     3.3400     0.0072   362.0004 </r>
       <r>     3.3948     2.5287   362.1390 </r>
       <r>     3.4497    96.4059   367.4236 </r>
       <r>     3.5045   454.6903   392.3477 </r>
       <r>     3.5593   296.0908   408.5782 </r>
       <r>     3.6141    25.6791   409.9858 </r>
       <r>     3.6689     0.2892   410.0016 </r>
       <r>     3.7237     5.1315   410.2829 </r>
       <r>     3.7785    98.7748   415.6973 </r>
       <r>     3.8334   245.4537   429.1520 </r>
       <r>     3.8882    84.6892   433.7943 </r>
       <r>     3.9430     3.7334   433.9990 </r>
       <r>     3.9978     0.0184   434.0000 </r>
       <r>     4.0526     0.0000   434.0000 </r>
       <r>     4.1074     0.0000   434.0000 </r>
       <r>     4.1623     0.0000   434.0000 </r>
       <r>     4.2171     0.0274   434.0015 </r>
       <r>     4.2719     4.8382   434.2667 </r>
       <r>     4.3267    96.0076   439.5294 </r>
       <r>     4.3815   246.5887   453.0464 </r>
       <r>     4.4363   121.7188   459.7185 </r>
       <r>     4.4912   157.7581   468.3661 </r>
       <r>     4.5460    94.9389   473.5702 </r>
       <r>     4.6008     7.7666   473.9960 </r>
       <r>     4.6556     0.0736   474.0000 </r>
       <r>     4.7104     0.0001   474.0000 </r>
       <r>     4.7652     0.0103   474.0006 </r>
       <r>     4.8200     2.7931   474.1537 </r>
       <r>     4.8749    83.9435   478.7551 </r>
       <r>     4.9297   317.9022   496.1811 </r>
       <r>     4.9845   167.4024   505.3574 </r>
       <r>     5.0393    11.6297   505.9949 </r>
       <r>     5.0941     0.0931   506.0000 </r>
       <r>     5.1489     0.0001   506.0000 </r>
       <r>     5.2038     0.0000   506.0000 </r>
       <r>     5.2586     0.0000   506.0000 </r>
       <r>     5.3134     0.0000   506.0000 </r>
       <r>     5.3682     0.0000   506.0000 </r>
       <r>     5.4230     0.0000   506.0000 </r>
       <r>     5.4778     0.0000   506.0000 </r>
       <r>     5.5327     0.0166   506.0009 </r>
       <r>     5.5875     2.1244   506.1174 </r>
       <r>     5.6423    31.1150   507.8230 </r>
       <r>     5.6971    59.7736   511.0995 </r>
       <r>     5.7519    15.8960   511.9708 </r>
       <r>     5.8067     0.5301   511.9999 </r>
       <r>     5.8615     0.0019   512.0000 </r>
       <r>     5.9164     0.0000   512.0000 </r>
       <r>     5.9712     0.0000   512.0000 </r>
       <r>     6.0260     0.0000   512.0000 </r>
       <r>     6.0808     0.0000   512.0000 </r>
       <r>     6.1356     0.0000   512.0000 </r>
       <r>     6.1904     0.0000   512.0000 </r>
       <r>     6.2453     0.0025   512.0001 </r>
       <r>     6.3001     0.7864   512.0432 </r>
       <r>     6.3549    27.1678   513.5325 </r>
       <r>     6.4097   116.5320   519.9202 </r>
       <r>     6.4645    68.9842   523.7017 </r>
       <r>     6.5193     5.3938   523.9973 </r>
       <r>     6.5742     0.0486   524.0000 </r>
       <r>     6.6290     0.0003   524.0000 </r>
       <r>     6.6838     0.1613   524.0089 </r>
       <r>     6.7386    11.1306   524.6190 </r>
       <r>     6.7934    91.1896   529.6176 </r>
       <r>     6.8482   100.9322   535.1503 </r>
       <r>     6.9030    15.2244   535.9848 </r>
       <r>     6.9579     0.2769   536.0000 </r>
       <r>     7.0127     0.1630   536.0089 </r>
       <r>     7.0675     9.7927   536.5457 </r>
       <r>     7.1223    97.0571   541.8660 </r>
       <r>     7.1771   382.0538   562.8085 </r>
       <r>     7.2319   447.2512   587.3249 </r>
       <r>     7.2868    83.3435   591.8934 </r>
       <r>     7.3416     1.9391   591.9997 </r>
       <r>     7.3964     0.0049   592.0000 </r>
       <r>     7.4512     0.0008   592.0000 </r>
       <r>     7.5060     0.3890   592.0214 </r>
       <r>     7.5608    20.9398   593.1692 </r>
       <r>     7.6156   135.8628   600.6166 </r>
       <r>     7.6705   120.1580   607.2032 </r>
       <r>     7.7253    14.3339   607.9889 </r>
       <r>     7.7801     0.2025   608.0000 </r>
       <r>     7.8349     0.0003   608.0000 </r>
       <r>     7.8897     0.0000   608.0000 </r>
       <r>     7.9445     0.0201   608.0011 </r>
       <r>     7.9994     3.9612   608.2182 </r>
       <r>     8.0542    87.1899   612.9976 </r>
       <r>     8.1090   246.2458   626.4957 </r>
       <r>     8.1638   112.7764   632.6777 </r>
       <r>     8.2186    65.0168   636.2416 </r>
       <r>     8.2734    30.0999   637.8916 </r>
       <r>     8.3283     1.9636   637.9992 </r>
       <r>     8.3831     0.0146   638.0000 </r>
       <r>     8.4379     0.0000   638.0000 </r>
       <r>     8.4927     0.0000   638.0000 </r>
       <r>     8.5475     0.0000   638.0000 </r>
       <r>     8.6023     0.0000   638.0000 </r>
       <r>     8.6571     0.0247   638.0014 </r>
       <r>     8.7120     2.6848   638.1485 </r>
       <r>     8.7668    34.1622   640.0212 </r>
       <r>     8.8216    58.2434   643.2138 </r>
       <r>     8.8764    13.9196   643.9768 </r>
       <r>     8.9312     0.4216   643.9999 </r>
       <r>     8.9860     0.0014   644.0000 </r>
       <r>     9.0409     0.0000   644.0000 </r>
       <r>     9.0957     0.0000   644.0000 </r>
       <r>     9.1505     0.0000   644.0000 </r>
       <r>     9.2053     0.0000   644.0000 </r>
       <r>     9.2601     0.0000   644.0000 </r>
       <r>     9.3149     0.0000   644.0000 </r>
       <r>     9.3698     0.0000   644.0000 </r>
       <r>     9.4246     0.0000   644.0000 </r>
       <r>     9.4794     0.0000   644.0000 </r>
       <r>     9.5342     0.0000   644.0000 </r>
      </set>
     </set>
    </array>
   </total>
  </dos>
 </calculation>
 <structure name="finalpos" >
  <crystal>
   <varray name="basis" >
    <v>       0.00000000      10.93716070      10.93716070 </v>
    <v>      10.93716070       0.00000000      10.93716070 </v>
    <v>      10.93716070      10.93716070       0.00000000 </v>
   </varray>
   <i name="volume">   2616.63878844 </i>
   <varray name="rec_basis" >
    <v>      -0.04571570       0.04571570       0.04571570 </v>
    <v>       0.04571570      -0.04571570       0.04571570 </v>
    <v>       0.04571570       0.04571570      -0.04571570 </v>
   </varray>
  </crystal>
  <varray name="positions" >
   <v>       0.06158569       0.06341431       0.06341431 </v>
   <v>       0.31250000       0.06250000       0.06250000 </v>
   <v>       0.56250000       0.06250000       0.06250000 </v>
   <v>       0.81250000       0.06250000       0.06250000 </v>
   <v>       0.06250000       0.31250000       0.06250000 </v>
   <v>       0.31250000       0.31250000       0.06250000 </v>
   <v>       0.56250000       0.31250000       0.06250000 </v>
   <v>       0.81250000       0.31250000       0.06250000 </v>
   <v>       0.06250000       0.56250000       0.06250000 </v>
   <v>       0.31250000       0.56250000       0.06250000 </v>
   <v>       0.56250000       0.56250000       0.06250000 </v>
   <v>       0.81250000       0.56250000       0.06250000 </v>
   <v>       0.06250000       0.81250000       0.06250000 </v>
   <v>       0.31250000       0.81250000       0.06250000 </v>
   <v>       0.56250000       0.81250000       0.06250000 </v>
   <v>       0.81250000       0.81250000       0.06250000 </v>
   <v>       0.06250000       0.06250000       0.31250000 </v>
   <v>       0.31250000       0.06250000       0.31250000 </v>
   <v>       0.56250000       0.06250000       0.31250000 </v>
   <v>       0.81250000       0.06250000       0.31250000 </v>
   <v>       0.06250000       0.31250000       0.31250000 </v>
   <v>       0.31250000       0.31250000       0.31250000 </v>
   <v>       0.56250000       0.31250000       0.31250000 </v>
   <v>       0.81250000       0.31250000       0.31250000 </v>
   <v>       0.06250000       0.56250000       0.31250000 </v>
   <v>       0.31250000       0.56250000       0.31250000 </v>
   <v>       0.56250000       0.56250000       0.31250000 </v>
   <v>       0.81250000       0.56250000       0.31250000 </v>
   <v>       0.06250000       0.81250000       0.31250000 </v>
   <v>       0.31250000       0.81250000       0.31250000 </v>
   <v>       0.56250000       0.81250000       0.31250000 </v>
   <v>       0.81250000       0.81250000       0.31250000 </v>
   <v>       0.06250000       0.06250000       0.56250000 </v>
   <v>       0.31250000       0.06250000       0.56250000 </v>
   <v>       0.56250000       0.06250000       0.56250000 </v>
   <v>       0.81250000       0.06250000       0.56250000 </v>
   <v>       0.06250000       0.31250000       0.56250000 </v>
   <v>       0.31250000       0.31250000       0.56250000 </v>
   <v>       0.56250000       0.31250000       0.56250000 </v>
   <v>       0.81250000       0.31250000       0.56250000 </v>
   <v>       0.06250000       0.56250000       0.56250000 </v>
   <v>       0.31250000       0.56250000       0.56250000 </v>
   <v>       0.56250000       0.56250000       0.56250000 </v>
   <v>       0.81250000       0.56250000       0.56250000 </v>
   <v>       0.06250000       0.81250000       0.56250000 </v>
   <v>       0.31250000       0.81250000       0.56250000 </v>
   <v>       0.56250000       0.81250000       0.56250000 </v>
   <v>       0.81250000       0.81250000       0.56250000 </v>
   <v>       0.06250000       0.06250000       0.81250000 </v>
   <v>       0.31250000       0.06250000       0.81250000 </v>
   <v>       0.56250000       0.06250000       0.81250000 </v>
   <v>       0.81250000       0.06250000       0.81250000 </v>
   <v>       0.06250000       0.31250000       0.81250000 </v>
   <v>       0.31250000       0.31250000       0.81250000 </v>
   <v>       0.56250000       0.31250000       0.81250000 </v>
   <v>       0.81250000       0.31250000       0.81250000 </v>
   <v>       0.06250000       0.56250000       0.81250000 </v>
   <v>       0.31250000       0.56250000       0.81250000 </v>
   <v>       0.56250000       0.56250000       0.81250000 </v>
   <v>       0.81250000       0.56250000       0.81250000 </v>
   <v>       0.06250000       0.81250000       0.81250000 </v>
   <v>       0.31250000       0.81250000       0.81250000 </v>
   <v>       0.56250000       0.81250000       0.81250000 </v>
   <v>       0.81250000       0.81250000       0.81250000 </v>
   <v>       0.00000000       0.00000000       0.00000000 </v>
   <v>       0.25000000       0.00000000       0.00000000 </v>
   <v>       0.50000000       0.00000000       0.00000000 </v>
   <v>       0.75000000       0.00000000       0.00000000 </v>
   <v>       0.00000000       0.25000000       0.00000000 </v>
   <v>       0.25000000       0.25000000       0.00000000 </v>
   <v>       0.50000000       0.25000000       0.00000000 </v>
   <v>       0.75000000       0.25000000       0.00000000 </v>
   <v>       0.00000000       0.50000000       0.00000000 </v>
   <v>       0.25000000       0.50000000       0.00000000 </v>
   <v>       0.50000000       0.50000000       0.00000000 </v>
   <v>       0.75000000       0.50000000       0.00000000 </v>
   <v>       0.00000000       0.75000000       0.00000000 </v>
   <v>       0.25000000       0.75000000       0.00000000 </v>
   <v>       0.50000000       0.75000000       0.00000000 </v>
   <v>       0.75000000       0.75000000       0.00000000 </v>
   <v>       0.00000000       0.00000000       0.25000000 </v>
   <v>       0.25000000       0.00000000       0.25000000 </v>
   <v>       0.50000000       0.00000000       0.25000000 </v>
   <v>       0.75000000       0.00000000       0.25000000 </v>
   <v>       0.00000000       0.25000000       0.25000000 </v>
   <v>       0.25000000       0.25000000       0.25000000 </v>
   <v>       0.50000000       0.25000000       0.25000000 </v>
   <v>       0.75000000       0.25000000       0.25000000 </v>
   <v>       0.00000000       0.50000000       0.25000000 </v>
   <v>       0.25000000       0.50000000       0.25000000 </v>
   <v>       0.50000000       0.50000000       0.25000000 </v>
   <v>       0.75000000       0.50000000       0.25000000 </v>
   <v>       0.00000000       0.75000000       0.25000000 </v>
   <v>       0.25000000       0.75000000       0.25000000 </v>
   <v>       0.50000000       0.75000000       0.25000000 </v>
   <v>       0.75000000       0.75000000       0.25000000 </v>
   <v>       0.00000000       0.00000000       0.50000000 </v>
   <v>       0.25000000       0.00000000       0.50000000 </v>
   <v>       0.50000000       0.00000000       0.50000000 </v>
   <v>       0.75000000       0.00000000       0.50000000 </v>
   <v>       0.00000000       0.25000000       0.50000000 </v>
   <v>       0.25000000       0.25000000       0.50000000 </v>
   <v>       0.50000000       0.25000000       0.50000000 </v>
   <v>       0.75000000       0.25000000       0.50000000 </v>
   <v>       0.00000000       0.50000000       0.50000000 </v>
   <v>       0.25000000       0.50000000       0.50000000 </v>
   <v>       0.50000000       0.50000000       0.50000000 </v>
   <v>       0.75000000       0.50000000       0.50000000 </v>
   <v>       0.00000000       0.75000000       0.50000000 </v>
   <v>       0.25000000       0.75000000       0.50000000 </v>
   <v>       0.50000000       0.75000000       0.50000000 </v>
   <v>       0.75000000       0.75000000       0.50000000 </v>
   <v>       0.00000000       0.00000000       0.75000000 </v>
   <v>       0.25000000       0.00000000       0.75000000 </v>
   <v>       0.50000000       0.00000000       0.75000000 </v>
   <v>       0.75000000       0.00000000       0.75000000 </v>
   <v>       0.00000000       0.25000000       0.75000000 </v>
   <v>       0.25000000       0.25000000       0.75000000 </v>
   <v>       0.50000000       0.25000000       0.75000000 </v>
   <v>       0.75000000       0.25000000       0.75000000 </v>
   <v>       0.00000000       0.50000000       0.75000000 </v>
   <v>       0.25000000       0.50000000       0.75000000 </v>
   <v>       0.50000000       0.50000000       0.75000000 </v>
   <v>       0.75000000       0.50000000       0.75000000 </v>
   <v>       0.00000000       0.75000000       0.75000000 </v>
   <v>       0.25000000       0.75000000       0.75000000 </v>
   <v>       0.50000000       0.75000000       0.75000000 </v>
   <v>       0.75000000       0.75000000       0.75000000 </v>
  </varray>
 </structure>
</modeling>
