7a952d9c3a53afb471119f04495b05ad1ace3816
1.0
   0.000000000000000   10.937160696091608   10.937160696091608
  10.937160696091608    0.000000000000000   10.937160696091608
  10.937160696091608   10.937160696091608    0.000000000000000
Si
128
Direct
   0.063414314078203    0.063414314078203    0.061585685921797
   0.312500000000000    0.062500000000000    0.062500000000000
   0.562500000000000    0.062500000000000    0.062500000000000
   0.812500000000000    0.062500000000000    0.062500000000000
   0.062500000000000    0.312500000000000    0.062500000000000
   0.312500000000000    0.312500000000000    0.062500000000000
   0.562500000000000    0.312500000000000    0.062500000000000
   0.812500000000000    0.312500000000000    0.062500000000000
   0.062500000000000    0.562500000000000    0.062500000000000
   0.312500000000000    0.562500000000000    0.062500000000000
   0.562500000000000    0.562500000000000    0.062500000000000
   0.812500000000000    0.562500000000000    0.062500000000000
   0.062500000000000    0.812500000000000    0.062500000000000
   0.312500000000000    0.812500000000000    0.062500000000000
   0.562500000000000    0.812500000000000    0.062500000000000
   0.812500000000000    0.812500000000000    0.062500000000000
   0.062500000000000    0.062500000000000    0.312500000000000
   0.312500000000000    0.062500000000000    0.312500000000000
   0.562500000000000    0.062500000000000    0.312500000000000
   0.812500000000000    0.062500000000000    0.312500000000000
   0.062500000000000    0.312500000000000    0.312500000000000
   0.312500000000000    0.312500000000000    0.312500000000000
   0.562500000000000    0.312500000000000    0.312500000000000
   0.812500000000000    0.312500000000000    0.312500000000000
   0.062500000000000    0.562500000000000    0.312500000000000
   0.312500000000000    0.562500000000000    0.312500000000000
   0.562500000000000    0.562500000000000    0.312500000000000
   0.812500000000000    0.562500000000000    0.312500000000000
   0.062500000000000    0.812500000000000    0.312500000000000
   0.312500000000000    0.812500000000000    0.312500000000000
   0.562500000000000    0.812500000000000    0.312500000000000
   0.812500000000000    0.812500000000000    0.312500000000000
   0.062500000000000    0.062500000000000    0.562500000000000
   0.312500000000000    0.062500000000000    0.562500000000000
   0.562500000000000    0.062500000000000    0.562500000000000
   0.812500000000000    0.062500000000000    0.562500000000000
   0.062500000000000    0.312500000000000    0.562500000000000
   0.312500000000000    0.312500000000000    0.562500000000000
   0.562500000000000    0.312500000000000    0.562500000000000
   0.812500000000000    0.312500000000000    0.562500000000000
   0.062500000000000    0.562500000000000    0.562500000000000
   0.312500000000000    0.562500000000000    0.562500000000000
   0.562500000000000    0.562500000000000    0.562500000000000
   0.812500000000000    0.562500000000000    0.562500000000000
   0.062500000000000    0.812500000000000    0.562500000000000
   0.312500000000000    0.812500000000000    0.562500000000000
   0.562500000000000    0.812500000000000    0.562500000000000
   0.812500000000000    0.812500000000000    0.562500000000000
   0.062500000000000    0.062500000000000    0.812500000000000
   0.312500000000000    0.062500000000000    0.812500000000000
   0.562500000000000    0.062500000000000    0.812500000000000
   0.812500000000000    0.062500000000000    0.812500000000000
   0.062500000000000    0.312500000000000    0.812500000000000
   0.312500000000000    0.312500000000000    0.812500000000000
   0.562500000000000    0.312500000000000    0.812500000000000
   0.812500000000000    0.312500000000000    0.812500000000000
   0.062500000000000    0.562500000000000    0.812500000000000
   0.312500000000000    0.562500000000000    0.812500000000000
   0.562500000000000    0.562500000000000    0.812500000000000
   0.812500000000000    0.562500000000000    0.812500000000000
   0.062500000000000    0.812500000000000    0.812500000000000
   0.312500000000000    0.812500000000000    0.812500000000000
   0.562500000000000    0.812500000000000    0.812500000000000
   0.812500000000000    0.812500000000000    0.812500000000000
   0.000000000000000    0.000000000000000    0.000000000000000
   0.250000000000000    0.000000000000000    0.000000000000000
   0.500000000000000    0.000000000000000    0.000000000000000
   0.750000000000000    0.000000000000000    0.000000000000000
   0.000000000000000    0.250000000000000    0.000000000000000
   0.250000000000000    0.250000000000000    0.000000000000000
   0.500000000000000    0.250000000000000    0.000000000000000
   0.750000000000000    0.250000000000000    0.000000000000000
   0.000000000000000    0.500000000000000    0.000000000000000
   0.250000000000000    0.500000000000000    0.000000000000000
   0.500000000000000    0.500000000000000    0.000000000000000
   0.750000000000000    0.500000000000000    0.000000000000000
   0.000000000000000    0.750000000000000    0.000000000000000
   0.250000000000000    0.750000000000000    0.000000000000000
   0.500000000000000    0.750000000000000    0.000000000000000
   0.750000000000000    0.750000000000000    0.000000000000000
   0.000000000000000    0.000000000000000    0.250000000000000
   0.250000000000000    0.000000000000000    0.250000000000000
   0.500000000000000    0.000000000000000    0.250000000000000
   0.750000000000000    0.000000000000000    0.250000000000000
   0.000000000000000    0.250000000000000    0.250000000000000
   0.250000000000000    0.250000000000000    0.250000000000000
   0.500000000000000    0.250000000000000    0.250000000000000
   0.750000000000000    0.250000000000000    0.250000000000000
   0.000000000000000    0.500000000000000    0.250000000000000
   0.250000000000000    0.500000000000000    0.250000000000000
   0.500000000000000    0.500000000000000    0.250000000000000
   0.750000000000000    0.500000000000000    0.250000000000000
   0.000000000000000    0.750000000000000    0.250000000000000
   0.250000000000000    0.750000000000000    0.250000000000000
   0.500000000000000    0.750000000000000    0.250000000000000
   0.750000000000000    0.750000000000000    0.250000000000000
   0.000000000000000    0.000000000000000    0.500000000000000
   0.250000000000000    0.000000000000000    0.500000000000000
   0.500000000000000    0.000000000000000    0.500000000000000
   0.750000000000000    0.000000000000000    0.500000000000000
   0.000000000000000    0.250000000000000    0.500000000000000
   0.250000000000000    0.250000000000000    0.500000000000000
   0.500000000000000    0.250000000000000    0.500000000000000
   0.750000000000000    0.250000000000000    0.500000000000000
   0.000000000000000    0.500000000000000    0.500000000000000
   0.250000000000000    0.500000000000000    0.500000000000000
   0.500000000000000    0.500000000000000    0.500000000000000
   0.750000000000000    0.500000000000000    0.500000000000000
   0.000000000000000    0.750000000000000    0.500000000000000
   0.250000000000000    0.750000000000000    0.500000000000000
   0.500000000000000    0.750000000000000    0.500000000000000
   0.750000000000000    0.750000000000000    0.500000000000000
   0.000000000000000    0.000000000000000    0.750000000000000
   0.250000000000000    0.000000000000000    0.750000000000000
   0.500000000000000    0.000000000000000    0.750000000000000
   0.750000000000000    0.000000000000000    0.750000000000000
   0.000000000000000    0.250000000000000    0.750000000000000
   0.250000000000000    0.250000000000000    0.750000000000000
   0.500000000000000    0.250000000000000    0.750000000000000
   0.750000000000000    0.250000000000000    0.750000000000000
   0.000000000000000    0.500000000000000    0.750000000000000
   0.250000000000000    0.500000000000000    0.750000000000000
   0.500000000000000    0.500000000000000    0.750000000000000
   0.750000000000000    0.500000000000000    0.750000000000000
   0.000000000000000    0.750000000000000    0.750000000000000
   0.250000000000000    0.750000000000000    0.750000000000000
   0.500000000000000    0.750000000000000    0.750000000000000
   0.750000000000000    0.750000000000000    0.750000000000000
