<?xml version="1.0" encoding="ISO-8859-1"?>
<modeling>
 <generator>
  <i name="program" type="string">vasp </i>
  <i name="version" type="string">5.4.4.18Apr17-6-g9f103f2a35  </i>
  <i name="subversion" type="string">(build Aug 16 2020 16:33:06) complex            parallel </i>
  <i name="platform" type="string">LinuxIFC </i>
  <i name="date" type="string">2026 08 15 </i>
  <i name="time" type="string">15:44:51 </i>
 </generator>
 <incar>
  <i type="string" name="PREC">accurate</i>
  <i type="logical" name="ADDGRID"> T  </i>
  <i type="int" name="IBRION">    -1</i>
  <i name="EDIFF">      0.00000001</i>
  <i type="int" name="ISYM">     0</i>
  <i name="ENCUT">    500.00000000</i>
  <i type="logical" name="LREAL"> F  </i>
  <i type="int" name="ISMEAR">     0</i>
  <i name="SIGMA">      0.05000000</i>
  <i type="logical" name="LWAVE"> F  </i>
  <i type="logical" name="LCHARG"> F  </i>
  <v type="int" name="KPOINT_BSE">    -1     0     0     0</v>
 </incar>
 <structure name="primitive_cell" >
  <crystal>
   <varray name="basis" >
    <v>       0.00000000      10.93716070      10.93716070 </v>
    <v>      10.93716070       0.00000000      10.93716070 </v>
    <v>      10.93716070      10.93716070       0.00000000 </v>
   </varray>
   <i name="volume">   2616.63878844 </i>
   <varray name="rec_basis" >
    <v>      -0.04571570       0.04571570       0.04571570 </v>
    <v>       0.04571570      -0.04571570       0.04571570 </v>
    <v>       0.04571570       0.04571570      -0.04571570 </v>
   </varray>
  </crystal>
  <varray name="positions" >
   <v>       0.06250000       0.06341431       0.06158569 </v>
   <v>       0.00000000       0.25000000       0.00000000 </v>
   <v>       0.25000000       0.00000000       0.00000000 </v>
   <v>       0.00000000       0.00000000       0.00000000 </v>
   <v>       0.00000000       0.00000000       0.25000000 </v>
   <v>       0.06250000       0.31250000      -0.18750000 </v>
   <v>       0.06250000       0.31250000       0.06250000 </v>
   <v>      -0.18750000       0.31250000       0.06250000 </v>
   <v>       0.06250000       0.06250000      -0.18750000 </v>
   <v>       0.31250000       0.06250000      -0.18750000 </v>
   <v>       0.31250000       0.06250000       0.06250000 </v>
   <v>      -0.18750000       0.06250000       0.06250000 </v>
   <v>       0.06250000      -0.18750000       0.06250000 </v>
   <v>       0.31250000      -0.18750000       0.06250000 </v>
   <v>       0.06250000       0.06250000       0.31250000 </v>
   <v>      -0.18750000       0.06250000       0.31250000 </v>
   <v>       0.06250000      -0.18750000       0.31250000 </v>
   <v>       0.00000000       0.25000000      -0.25000000 </v>
   <v>       0.25000000       0.25000000      -0.25000000 </v>
   <v>       0.25000000       0.00000000      -0.25000000 </v>
   <v>       0.25000000       0.25000000       0.00000000 </v>
   <v>      -0.25000000       0.25000000       0.00000000 </v>
   <v>       0.00000000       0.25000000       0.25000000 </v>
   <v>      -0.25000000       0.25000000       0.25000000 </v>
   <v>       0.25000000      -0.25000000       0.00000000 </v>
   <v>       0.25000000       0.00000000       0.25000000 </v>
   <v>      -0.25000000       0.00000000       0.25000000 </v>
   <v>       0.00000000      -0.25000000       0.25000000 </v>
   <v>       0.25000000      -0.25000000       0.25000000 </v>
   <v>       0.31250000       0.31250000      -0.18750000 </v>
   <v>      -0.18750000       0.31250000      -0.18750000 </v>
   <v>      -0.18750000       0.31250000       0.31250000 </v>
   <v>       0.31250000      -0.18750000      -0.18750000 </v>
   <v>       0.31250000      -0.18750000       0.31250000 </v>
   <v>      -0.18750000      -0.18750000       0.31250000 </v>
   <v>       0.00000000      -0.50000000      -0.25000000 </v>
   <v>       0.00000000      -0.50000000       0.00000000 </v>
   <v>      -0.25000000      -0.50000000       0.00000000 </v>
   <v>       0.00000000       0.00000000      -0.25000000 </v>
   <v>      -0.50000000       0.00000000      -0.25000000 </v>
   <v>      -0.50000000       0.00000000       0.00000000 </v>
   <v>      -0.25000000       0.00000000       0.00000000 </v>
   <v>      -0.50000000      -0.25000000       0.00000000 </v>
   <v>       0.00000000      -0.25000000       0.00000000 </v>
   <v>       0.00000000       0.00000000      -0.50000000 </v>
   <v>      -0.25000000       0.00000000      -0.50000000 </v>
   <v>       0.00000000      -0.25000000      -0.50000000 </v>
   <v>       0.06250000       0.31250000      -0.43750000 </v>
   <v>       0.31250000       0.31250000      -0.43750000 </v>
   <v>       0.06250000      -0.43750000      -0.18750000 </v>
   <v>      -0.18750000      -0.43750000      -0.18750000 </v>
   <v>      -0.18750000      -0.43750000       0.06250000 </v>
   <v>       0.31250000       0.06250000      -0.43750000 </v>
   <v>       0.31250000       0.31250000       0.06250000 </v>
   <v>      -0.43750000       0.31250000       0.06250000 </v>
   <v>      -0.43750000       0.06250000      -0.18750000 </v>
   <v>      -0.18750000       0.06250000      -0.18750000 </v>
   <v>      -0.43750000       0.31250000       0.31250000 </v>
   <v>       0.06250000      -0.18750000      -0.18750000 </v>
   <v>       0.06250000       0.31250000       0.31250000 </v>
   <v>      -0.43750000      -0.18750000      -0.18750000 </v>
   <v>      -0.43750000      -0.18750000       0.06250000 </v>
   <v>      -0.18750000      -0.18750000       0.06250000 </v>
   <v>       0.31250000       0.06250000       0.31250000 </v>
   <v>      -0.43750000       0.06250000       0.31250000 </v>
   <v>       0.31250000      -0.43750000       0.06250000 </v>
   <v>      -0.18750000       0.06250000      -0.43750000 </v>
   <v>       0.06250000      -0.43750000       0.31250000 </v>
   <v>       0.31250000      -0.43750000       0.31250000 </v>
   <v>       0.06250000      -0.18750000      -0.43750000 </v>
   <v>      -0.18750000      -0.18750000      -0.43750000 </v>
   <v>       0.25000000      -0.50000000      -0.25000000 </v>
   <v>       0.25000000       0.25000000      -0.50000000 </v>
   <v>      -0.25000000      -0.50000000      -0.25000000 </v>
   <v>      -0.50000000       0.25000000      -0.25000000 </v>
   <v>      -0.25000000       0.25000000      -0.25000000 </v>
   <v>      -0.25000000      -0.50000000       0.25000000 </v>
   <v>       0.25000000      -0.25000000      -0.25000000 </v>
   <v>      -0.50000000      -0.25000000      -0.25000000 </v>
   <v>       0.25000000       0.25000000       0.25000000 </v>
   <v>      -0.50000000       0.25000000       0.25000000 </v>
   <v>      -0.25000000       0.25000000      -0.50000000 </v>
   <v>      -0.50000000      -0.25000000       0.25000000 </v>
   <v>      -0.25000000      -0.25000000       0.25000000 </v>
   <v>       0.25000000      -0.25000000      -0.50000000 </v>
   <v>      -0.25000000      -0.25000000      -0.50000000 </v>
   <v>       0.25000000      -0.50000000       0.25000000 </v>
   <v>       0.06250000      -0.43750000      -0.43750000 </v>
   <v>       0.06250000      -0.43750000       0.06250000 </v>
   <v>      -0.43750000       0.06250000      -0.43750000 </v>
   <v>      -0.43750000      -0.43750000       0.06250000 </v>
   <v>       0.06250000       0.06250000      -0.43750000 </v>
   <v>      -0.43750000       0.06250000       0.06250000 </v>
   <v>       0.00000000      -0.50000000      -0.50000000 </v>
   <v>       0.25000000      -0.50000000      -0.50000000 </v>
   <v>       0.00000000       0.25000000      -0.50000000 </v>
   <v>      -0.50000000       0.25000000      -0.50000000 </v>
   <v>       0.25000000      -0.50000000       0.00000000 </v>
   <v>      -0.50000000      -0.50000000       0.00000000 </v>
   <v>      -0.50000000       0.00000000      -0.50000000 </v>
   <v>       0.25000000       0.00000000      -0.50000000 </v>
   <v>       0.00000000      -0.50000000       0.25000000 </v>
   <v>      -0.50000000      -0.50000000       0.25000000 </v>
   <v>      -0.50000000       0.25000000       0.00000000 </v>
   <v>      -0.50000000       0.00000000       0.25000000 </v>
   <v>       0.31250000      -0.43750000      -0.43750000 </v>
   <v>      -0.18750000      -0.43750000      -0.43750000 </v>
   <v>      -0.43750000       0.31250000      -0.43750000 </v>
   <v>       0.31250000      -0.43750000      -0.18750000 </v>
   <v>      -0.18750000       0.31250000      -0.43750000 </v>
   <v>      -0.43750000      -0.43750000      -0.18750000 </v>
   <v>      -0.43750000       0.31250000      -0.18750000 </v>
   <v>      -0.43750000      -0.43750000       0.31250000 </v>
   <v>      -0.18750000      -0.43750000       0.31250000 </v>
   <v>       0.31250000      -0.18750000      -0.43750000 </v>
   <v>      -0.43750000      -0.18750000      -0.43750000 </v>
   <v>      -0.43750000      -0.18750000       0.31250000 </v>
   <v>       0.00000000      -0.25000000      -0.25000000 </v>
   <v>      -0.25000000      -0.25000000      -0.25000000 </v>
   <v>      -0.25000000      -0.25000000       0.00000000 </v>
   <v>      -0.25000000       0.00000000      -0.25000000 </v>
   <v>       0.31250000       0.31250000       0.31250000 </v>
   <v>      -0.18750000      -0.18750000      -0.18750000 </v>
   <v>      -0.50000000      -0.50000000      -0.50000000 </v>
   <v>      -0.25000000      -0.50000000      -0.50000000 </v>
   <v>      -0.50000000      -0.50000000      -0.25000000 </v>
   <v>      -0.50000000      -0.25000000      -0.50000000 </v>
   <v>      -0.43750000      -0.43750000      -0.43750000 </v>
  </varray>
 </structure>
 <varray name="primitive_index" >
  <v type="int" >        1 </v>
  <v type="int" >       69 </v>
  <v type="int" >       66 </v>
  <v type="int" >       65 </v>
  <v type="int" >       81 </v>
  <v type="int" >       53 </v>
  <v type="int" >        5 </v>
  <v type="int" >        8 </v>
  <v type="int" >       49 </v>
  <v type="int" >       50 </v>
  <v type="int" >        2 </v>
  <v type="int" >        4 </v>
  <v type="int" >       13 </v>
  <v type="int" >       14 </v>
  <v type="int" >       17 </v>
  <v type="int" >       20 </v>
  <v type="int" >       29 </v>
  <v type="int" >      117 </v>
  <v type="int" >      118 </v>
  <v type="int" >      114 </v>
  <v type="int" >       70 </v>
  <v type="int" >       72 </v>
  <v type="int" >       85 </v>
  <v type="int" >       88 </v>
  <v type="int" >       78 </v>
  <v type="int" >       82 </v>
  <v type="int" >       84 </v>
  <v type="int" >       93 </v>
  <v type="int" >       94 </v>
  <v type="int" >       54 </v>
  <v type="int" >       56 </v>
  <v type="int" >       24 </v>
  <v type="int" >       62 </v>
  <v type="int" >       30 </v>
  <v type="int" >       32 </v>
  <v type="int" >      121 </v>
  <v type="int" >       73 </v>
  <v type="int" >       76 </v>
  <v type="int" >      113 </v>
  <v type="int" >      115 </v>
  <v type="int" >       67 </v>
  <v type="int" >       68 </v>
  <v type="int" >       79 </v>
  <v type="int" >       77 </v>
  <v type="int" >       97 </v>
  <v type="int" >      100 </v>
  <v type="int" >      109 </v>
  <v type="int" >       37 </v>
  <v type="int" >       38 </v>
  <v type="int" >       57 </v>
  <v type="int" >       60 </v>
  <v type="int" >       12 </v>
  <v type="int" >       34 </v>
  <v type="int" >        6 </v>
  <v type="int" >        7 </v>
  <v type="int" >       51 </v>
  <v type="int" >       52 </v>
  <v type="int" >       23 </v>
  <v type="int" >       61 </v>
  <v type="int" >       21 </v>
  <v type="int" >       63 </v>
  <v type="int" >       15 </v>
  <v type="int" >       16 </v>
  <v type="int" >       18 </v>
  <v type="int" >       19 </v>
  <v type="int" >       10 </v>
  <v type="int" >       36 </v>
  <v type="int" >       25 </v>
  <v type="int" >       26 </v>
  <v type="int" >       45 </v>
  <v type="int" >       48 </v>
  <v type="int" >      122 </v>
  <v type="int" >      102 </v>
  <v type="int" >      124 </v>
  <v type="int" >      119 </v>
  <v type="int" >      120 </v>
  <v type="int" >       92 </v>
  <v type="int" >      126 </v>
  <v type="int" >      127 </v>
  <v type="int" >       86 </v>
  <v type="int" >       87 </v>
  <v type="int" >      104 </v>
  <v type="int" >       95 </v>
  <v type="int" >       96 </v>
  <v type="int" >      110 </v>
  <v type="int" >      112 </v>
  <v type="int" >       90 </v>
  <v type="int" >       41 </v>
  <v type="int" >        9 </v>
  <v type="int" >       35 </v>
  <v type="int" >       11 </v>
  <v type="int" >       33 </v>
  <v type="int" >        3 </v>
  <v type="int" >      105 </v>
  <v type="int" >      106 </v>
  <v type="int" >      101 </v>
  <v type="int" >      103 </v>
  <v type="int" >       74 </v>
  <v type="int" >       75 </v>
  <v type="int" >       99 </v>
  <v type="int" >       98 </v>
  <v type="int" >       89 </v>
  <v type="int" >       91 </v>
  <v type="int" >       71 </v>
  <v type="int" >       83 </v>
  <v type="int" >       42 </v>
  <v type="int" >       44 </v>
  <v type="int" >       39 </v>
  <v type="int" >       58 </v>
  <v type="int" >       40 </v>
  <v type="int" >       59 </v>
  <v type="int" >       55 </v>
  <v type="int" >       27 </v>
  <v type="int" >       28 </v>
  <v type="int" >       46 </v>
  <v type="int" >       47 </v>
  <v type="int" >       31 </v>
  <v type="int" >      125 </v>
  <v type="int" >      128 </v>
  <v type="int" >       80 </v>
  <v type="int" >      116 </v>
  <v type="int" >       22 </v>
  <v type="int" >       64 </v>
  <v type="int" >      107 </v>
  <v type="int" >      108 </v>
  <v type="int" >      123 </v>
  <v type="int" >      111 </v>
  <v type="int" >       43 </v>
 </varray>
 <kpoints>
  <generation param="Gamma">
   <v type="int" name="divisions">       1        1        1 </v>
   <v name="usershift">      0.00000000       0.00000000       0.00000000 </v>
   <v name="genvec1">      1.00000000       0.00000000       0.00000000 </v>
   <v name="genvec2">      0.00000000       1.00000000       0.00000000 </v>
   <v name="genvec3">      0.00000000       0.00000000       1.00000000 </v>
   <v name="shift">      0.00000000       0.00000000       0.00000000 </v>
  </generation>
  <varray name="kpointlist" >
   <v>       0.00000000       0.00000000       0.00000000 </v>
  </varray>
  <varray name="weights" >
   <v>       1.00000000 </v>
  </varray>
 </kpoints>
 <parameters>
  <separator name="general" >
   <i type="string" name="SYSTEM">unknown system</i>
   <i type="logical" name="LCOMPAT"> F  </i>
  </separator>
  <separator name="electronic" >
   <i type="string" name="PREC">accura</i>
   <i name="ENMAX">    500.00000000</i>
   <i name="ENAUG">    322.06900000</i>
   <i name="EDIFF">      0.00000001</i>
   <i type="int" name="IALGO">    38</i>
   <i type="int" name="IWAVPR">    10</i>
   <i type="int" name="NBANDS">   322</i>
   <i name="NELECT">    512.00000000</i>
   <i type="int" name="TURBO">     0</i>
   <i type="int" name="IRESTART">     0</i>
   <i type="int" name="NREBOOT">     0</i>
   <i type="int" name="NMIN">     0</i>
   <i name="EREF">      0.00000000</i>
   <separator name="electronic smearing" >
    <i type="int" name="ISMEAR">     0</i>
    <i name="SIGMA">      0.05000000</i>
    <i name="KSPACING">      0.50000000</i>
    <i type="logical" name="KGAMMA"> T  </i>
   </separator>
   <separator name="electronic projectors" >
    <i type="logical" name="LREAL"> F  </i>
    <v name="ROPT">      0.00000000</v>
    <i type="int" name="LMAXPAW">  -100</i>
    <i type="int" name="LMAXMIX">     2</i>
    <i type="logical" name="NLSPLINE"> F  </i>
   </separator>
   <separator name="electronic startup" >
    <i type="int" name="ISTART">     0</i>
    <i type="int" name="ICHARG">     2</i>
    <i type="int" name="INIWAV">     1</i>
   </separator>
   <separator name="electronic spin" >
    <i type="int" name="ISPIN">     1</i>
    <i type="logical" name="LNONCOLLINEAR"> F  </i>
    <v name="MAGMOM">      1.00000000      1.00000000      1.00000000      1.00000000      1.00000000      1.00000000      1.00000000      1.00000000      1.00000000      1.00000000      1.00000000      1.00000000      1.00000000      1.00000000      1.00000000      1.00000000      1.00000000      1.00000000      1.00000000      1.00000000
      1.00000000      1.00000000      1.00000000      1.00000000      1.00000000      1.00000000      1.00000000      1.00000000      1.00000000      1.00000000      1.00000000      1.00000000      1.00000000      1.00000000      1.00000000      1.00000000      1.00000000      1.00000000      1.00000000      1.00000000
      1.00000000      1.00000000      1.00000000      1.00000000      1.00000000      1.00000000      1.00000000      1.00000000      1.00000000      1.00000000      1.00000000      1.00000000      1.00000000      1.00000000      1.00000000      1.00000000      1.00000000      1.00000000      1.00000000      1.00000000
      1.00000000      1.00000000      1.00000000      1.00000000      1.00000000      1.00000000      1.00000000      1.00000000      1.00000000      1.00000000      1.00000000      1.00000000      1.00000000      1.00000000      1.00000000      1.00000000      1.00000000      1.00000000      1.00000000      1.00000000
      1.00000000      1.00000000      1.00000000      1.00000000      1.00000000      1.00000000      1.00000000      1.00000000      1.00000000      1.00000000      1.00000000      1.00000000      1.00000000      1.00000000      1.00000000      1.00000000      1.00000000      1.00000000      1.00000000      1.00000000
      1.00000000      1.00000000      1.00000000      1.00000000      1.00000000      1.00000000      1.00000000      1.00000000      1.00000000      1.00000000      1.00000000      1.00000000      1.00000000      1.00000000      1.00000000      1.00000000      1.00000000      1.00000000      1.00000000      1.00000000
      1.00000000      1.00000000      1.00000000      1.00000000      1.00000000      1.00000000      1.00000000      1.00000000</v>
    <i name="NUPDOWN">     -1.00000000</i>
    <i type="logical" name="LSORBIT"> F  </i>
    <v name="SAXIS">      0.00000000      0.00000000      1.00000000</v>
    <i type="logical" name="LSPIRAL"> F  </i>
    <v name="QSPIRAL">      0.00000000      0.00000000      0.00000000</v>
    <i type="logical" name="LZEROZ"> F  </i>
   </separator>
   <separator name="electronic exchange-correlation" >
    <i type="logical" name="LASPH"> F  </i>
    <i type="logical" name="LMETAGGA"> F  </i>
   </separator>
   <separator name="electronic convergence" >
    <i type="int" name="NELM">    60</i>
    <i type="int" name="NELMDL">    -5</i>
    <i type="int" name="NELMIN">     2</i>
    <i name="ENINI">    500.00000000</i>
    <separator name="electronic convergence detail" >
     <i type="logical" name="LDIAG"> T  </i>
     <i type="logical" name="LSUBROT"> F  </i>
     <i name="WEIMIN">      0.00000000</i>
     <i name="EBREAK">      0.00000000</i>
     <i name="DEPER">      0.30000000</i>
     <i type="int" name="NRMM">     4</i>
     <i name="TIME">      0.40000000</i>
    </separator>
   </separator>
   <separator name="electronic mixer" >
    <i name="AMIX">      0.40000000</i>
    <i name="BMIX">      1.00000000</i>
    <i name="AMIN">      0.10000000</i>
    <i name="AMIX_MAG">      1.60000000</i>
    <i name="BMIX_MAG">      1.00000000</i>
    <separator name="electronic mixer details" >
     <i type="int" name="IMIX">     4</i>
     <i type="logical" name="MIXFIRST"> F  </i>
     <i type="int" name="MAXMIX">   -45</i>
     <i name="WC">    100.00000000</i>
     <i type="int" name="INIMIX">     1</i>
     <i type="int" name="MIXPRE">     1</i>
     <i type="int" name="MREMOVE">     5</i>
    </separator>
   </separator>
   <separator name="electronic dipolcorrection" >
    <i type="logical" name="LDIPOL"> F  </i>
    <i type="logical" name="LMONO"> F  </i>
    <i type="int" name="IDIPOL">     0</i>
    <i name="EPSILON">      1.00000000</i>
    <v name="DIPOL">   -100.00000000   -100.00000000   -100.00000000</v>
    <i name="EFIELD">      0.00000000</i>
   </separator>
  </separator>
  <separator name="grids" >
   <i type="int" name="NGX">   120</i>
   <i type="int" name="NGY">   120</i>
   <i type="int" name="NGZ">   120</i>
   <i type="int" name="NGXF">   240</i>
   <i type="int" name="NGYF">   240</i>
   <i type="int" name="NGZF">   240</i>
   <i type="logical" name="ADDGRID"> T  </i>
  </separator>
  <separator name="ionic" >
   <i type="int" name="NSW">     0</i>
   <i type="int" name="IBRION">    -1</i>
   <i type="int" name="MDALGO">     0</i>
   <i type="int" name="ISIF">     2</i>
   <i name="PSTRESS">      0.00000000</i>
   <i name="EDIFFG">      0.00000010</i>
   <i type="int" name="NFREE">     0</i>
   <i name="POTIM">      0.50000000</i>
   <i name="SMASS">     -3.00000000</i>
   <i name="SCALEE">      1.00000000</i>
  </separator>
  <separator name="ionic md" >
   <i name="TEBEG">      0.00010000</i>
   <i name="TEEND">      0.00010000</i>
   <i type="int" name="NBLOCK">     1</i>
   <i type="int" name="KBLOCK">     1</i>
   <i type="int" name="NPACO">   256</i>
   <i name="APACO">     16.00000000</i>
  </separator>
  <separator name="symmetry" >
   <i type="int" name="ISYM">     0</i>
   <i name="SYMPREC">      0.00001000</i>
  </separator>
  <separator name="dos" >
   <i type="int" name="LORBIT">     0</i>
   <v name="RWIGS">     -1.00000000</v>
   <i type="int" name="NEDOS">   301</i>
   <i name="EMIN">     10.00000000</i>
   <i name="EMAX">    -10.00000000</i>
   <i name="EFERMI">      0.00000000</i>
  </separator>
  <separator name="writing" >
   <i type="int" name="NWRITE">     2</i>
   <i type="logical" name="LWAVE"> F  </i>
   <i type="logical" name="LDOWNSAMPLE"> F  </i>
   <i type="logical" name="LCHARG"> F  </i>
   <i type="logical" name="LPARD"> F  </i>
   <i type="logical" name="LVTOT"> F  </i>
   <i type="logical" name="LVHAR"> F  </i>
   <i type="logical" name="LELF"> F  </i>
   <i type="logical" name="LOPTICS"> F  </i>
   <v name="STM">      0.00000000      0.00000000      0.00000000      0.00000000      0.00000000      0.00000000      0.00000000</v>
  </separator>
  <separator name="performance" >
   <i type="int" name="NPAR">     2</i>
   <i type="int" name="NSIM">     4</i>
   <i type="int" name="NBLK">    -1</i>
   <i type="logical" name="LPLANE"> T  </i>
   <i type="logical" name="LSCALAPACK"> T  </i>
   <i type="logical" name="LSCAAWARE"> F  </i>
   <i type="logical" name="LSCALU"> F  </i>
   <i type="logical" name="LASYNC"> F  </i>
   <i type="logical" name="LORBITALREAL"> F  </i>
  </separator>
  <separator name="miscellaneous" >
   <i type="int" name="IDIOT">     3</i>
   <i type="int" name="ISPECIAL">     0</i>
   <i type="logical" name="LMUSIC"> F  </i>
   <v name="POMASS">     28.08500000</v>
   <v name="DARWINR">      0.00000000</v>
   <v name="DARWINV">      1.00000000</v>
   <i type="logical" name="LCORR"> T  </i>
  </separator>
  <i type="logical" name="GGA_COMPAT"> T  </i>
  <i type="logical" name="LBERRY"> F  </i>
  <i type="int" name="ICORELEVEL">     0</i>
  <i type="logical" name="LDAU"> F  </i>
  <i type="int" name="I_CONSTRAINED_M">     0</i>
  <separator name="electronic exchange-correlation" >
   <i type="string" name="GGA">--</i>
   <i type="int" name="VOSKOWN">     0</i>
   <i type="logical" name="LHFCALC"> F  </i>
   <i type="string" name="PRECFOCK"></i>
   <i type="logical" name="LSYMGRAD"> F  </i>
   <i type="logical" name="LHFONE"> F  </i>
   <i type="logical" name="LRHFCALC"> F  </i>
   <i type="logical" name="LTHOMAS"> F  </i>
   <i type="logical" name="LMODELHF"> F  </i>
   <i name="ENCUT4O">     -1.00000000</i>
   <i type="int" name="EXXOEP">     0</i>
   <i type="int" name="FOURORBIT">     0</i>
   <i name="AEXX">      0.00000000</i>
   <i name="HFALPHA">      0.00000000</i>
   <i name="MCALPHA">      0.00000000</i>
   <i name="ALDAX">      1.00000000</i>
   <i name="AGGAX">      1.00000000</i>
   <i name="ALDAC">      1.00000000</i>
   <i name="AGGAC">      1.00000000</i>
   <i type="int" name="NKREDX">     1</i>
   <i type="int" name="NKREDY">     1</i>
   <i type="int" name="NKREDZ">     1</i>
   <i type="logical" name="SHIFTRED"> F  </i>
   <i type="logical" name="ODDONLY"> F  </i>
   <i type="logical" name="EVENONLY"> F  </i>
   <i type="int" name="LMAXFOCK">     0</i>
   <i type="int" name="NMAXFOCKAE">     0</i>
   <i type="logical" name="LFOCKAEDFT"> F  </i>
   <i name="HFSCREEN">      0.00000000</i>
   <i name="HFSCREENC">      0.00000000</i>
   <i type="int" name="NBANDSGWLOW">     0</i>
  </separator>
  <separator name="vdW DFT" >
   <i type="logical" name="LUSE_VDW"> F  </i>
   <i name="Zab_VDW">     -0.84910000</i>
   <i name="PARAM1">      0.12340000</i>
   <i name="PARAM2">      1.00000000</i>
   <i name="PARAM3">      0.00000000</i>
  </separator>
  <separator name="model GW" >
   <i type="int" name="MODEL_GW">     0</i>
   <i name="MODEL_EPS0">     12.26549432</i>
   <i name="MODEL_ALPHA">      1.00000000</i>
  </separator>
  <separator name="linear response parameters" >
   <i type="logical" name="LEPSILON"> F  </i>
   <i type="logical" name="LRPA"> F  </i>
   <i type="logical" name="LNABLA"> F  </i>
   <i type="logical" name="LVEL"> F  </i>
   <i type="int" name="KINTER">     0</i>
   <i name="CSHIFT">      0.10000000</i>
   <i name="OMEGAMAX">     -1.00000000</i>
   <i name="DEG_THRESHOLD">      0.00200000</i>
   <i name="RTIME">     -0.10000000</i>
   <i name="WPLASMAI">      0.00000000</i>
   <v name="DFIELD">      0.00000000      0.00000000      0.00000000</v>
   <v name="WPLASMA">      0.00000000      0.00000000      0.00000000      0.00000000      0.00000000      0.00000000      0.00000000      0.00000000      0.00000000</v>
  </separator>
  <separator name="orbital magnetization" >
   <i type="logical" name="NUCIND"> F  </i>
   <v name="MAGPOS">      0.00000000      0.00000000      0.00000000</v>
   <i type="logical" name="LNICSALL"> T  </i>
   <i type="logical" name="ORBITALMAG"> F  </i>
   <i type="logical" name="LMAGBLOCH"> F  </i>
   <i type="logical" name="LCHIMAG"> F  </i>
   <i type="logical" name="LGAUGE"> T  </i>
   <i type="int" name="MAGATOM">     0</i>
   <v name="MAGDIPOL">      0.00000000      0.00000000      0.00000000</v>
   <v name="AVECCONST">      0.00000000      0.00000000      0.00000000</v>
  </separator>
  <separator name="response functions" >
   <i type="logical" name="LADDER"> F  </i>
   <i type="logical" name="LRPAFORCE"> F  </i>
   <i type="logical" name="LFXC"> F  </i>
   <i type="logical" name="LHARTREE"> T  </i>
   <i type="int" name="IBSE">     0</i>
   <v type="int" name="KPOINT">    -1     0     0     0</v>
   <i type="logical" name="LTCTE"> F  </i>
   <i type="logical" name="LTETE"> F  </i>
   <i type="logical" name="LTRIPLET"> F  </i>
   <i type="logical" name="LFXCEPS"> F  </i>
   <i type="logical" name="LFXHEG"> F  </i>
   <i type="int" name="NATURALO">     2</i>
   <i type="logical" name="L2ORDER"> F  </i>
   <i type="logical" name="LMP2LT"> F  </i>
   <i type="logical" name="LUSEW"> F  </i>
   <i name="ENCUTGW">     -2.00000000</i>
   <i name="ENCUTGWSOFT">     -2.00000000</i>
   <i name="ENCUTLF">     -1.00000000</i>
   <i type="int" name="LMAXMP2">    -1</i>
   <i name="SCISSOR">      0.00000000</i>
   <i type="int" name="NOMEGA">     0</i>
   <i type="int" name="NOMEGAR">     0</i>
   <i type="int" name="NBANDSGW">    -1</i>
   <i type="int" name="NBANDSO">    -1</i>
   <i type="int" name="NBANDSV">    -1</i>
   <i type="int" name="NELM">     1</i>
   <i type="int" name="NELMHF">     1</i>
   <i type="int" name="DIM">     3</i>
   <i type="int" name="ANTIRES">     0</i>
   <i name="OMEGAMAX">    -30.00000000</i>
   <i name="OMEGAMIN">    -30.00000000</i>
   <i name="OMEGATL">   -200.00000000</i>
   <i type="int" name="OMEGAGRID">   140</i>
   <i name="CSHIFT">     -0.10000000</i>
   <i type="logical" name="SELFENERGY"> F  </i>
   <i type="logical" name="LSPECTRAL"> F  </i>
   <i type="logical" name="LSPECTRALGW"> F  </i>
   <i type="logical" name="LSINGLES"> F  </i>
   <i type="logical" name="LFERMIGW"> F  </i>
   <i type="logical" name="ODDONLYGW"> F  </i>
   <i type="logical" name="EVENONLYGW"> F  </i>
   <i type="int" name="NKREDLFX">     1</i>
   <i type="int" name="NKREDLFY">     1</i>
   <i type="int" name="NKREDLFZ">     1</i>
   <i type="int" name="MAXMEM">  2800</i>
   <i type="int" name="TELESCOPE">     0</i>
   <i type="int" name="TAUPAR">     1</i>
   <i type="int" name="OMEGAPAR">    -1</i>
   <i name="LAMBDA">      1.00000000</i>
  </separator>
  <separator name="External order field" >
   <i name="OFIELD_KAPPA">      0.00000000</i>
   <v name="OFIELD_K">      0.00000000      0.00000000      0.00000000</v>
   <i name="OFIELD_Q6_NEAR">      0.00000000</i>
   <i name="OFIELD_Q6_FAR">      0.00000000</i>
   <i name="OFIELD_A">      0.00000000</i>
  </separator>
 </parameters>
 <atominfo>
  <atoms>     128 </atoms>
  <types>       1 </types>
  <array name="atoms" >
   <dimension dim="1">ion</dimension>
   <field type="string">element</field>
   <field type="int">atomtype</field>
   <set>
    <rc><c>Si</c><c>   1</c></rc>
    <rc><c>Si</c><c>   1</c></rc>
    <rc><c>Si</c><c>   1</c></rc>
    <rc><c>Si</c><c>   1</c></rc>
    <rc><c>Si</c><c>   1</c></rc>
    <rc><c>Si</c><c>   1</c></rc>
    <rc><c>Si</c><c>   1</c></rc>
    <rc><c>Si</c><c>   1</c></rc>
    <rc><c>Si</c><c>   1</c></rc>
    <rc><c>Si</c><c>   1</c></rc>
    <rc><c>Si</c><c>   1</c></rc>
    <rc><c>Si</c><c>   1</c></rc>
    <rc><c>Si</c><c>   1</c></rc>
    <rc><c>Si</c><c>   1</c></rc>
    <rc><c>Si</c><c>   1</c></rc>
    <rc><c>Si</c><c>   1</c></rc>
    <rc><c>Si</c><c>   1</c></rc>
    <rc><c>Si</c><c>   1</c></rc>
    <rc><c>Si</c><c>   1</c></rc>
    <rc><c>Si</c><c>   1</c></rc>
    <rc><c>Si</c><c>   1</c></rc>
    <rc><c>Si</c><c>   1</c></rc>
    <rc><c>Si</c><c>   1</c></rc>
    <rc><c>Si</c><c>   1</c></rc>
    <rc><c>Si</c><c>   1</c></rc>
    <rc><c>Si</c><c>   1</c></rc>
    <rc><c>Si</c><c>   1</c></rc>
    <rc><c>Si</c><c>   1</c></rc>
    <rc><c>Si</c><c>   1</c></rc>
    <rc><c>Si</c><c>   1</c></rc>
    <rc><c>Si</c><c>   1</c></rc>
    <rc><c>Si</c><c>   1</c></rc>
    <rc><c>Si</c><c>   1</c></rc>
    <rc><c>Si</c><c>   1</c></rc>
    <rc><c>Si</c><c>   1</c></rc>
    <rc><c>Si</c><c>   1</c></rc>
    <rc><c>Si</c><c>   1</c></rc>
    <rc><c>Si</c><c>   1</c></rc>
    <rc><c>Si</c><c>   1</c></rc>
    <rc><c>Si</c><c>   1</c></rc>
    <rc><c>Si</c><c>   1</c></rc>
    <rc><c>Si</c><c>   1</c></rc>
    <rc><c>Si</c><c>   1</c></rc>
    <rc><c>Si</c><c>   1</c></rc>
    <rc><c>Si</c><c>   1</c></rc>
    <rc><c>Si</c><c>   1</c></rc>
    <rc><c>Si</c><c>   1</c></rc>
    <rc><c>Si</c><c>   1</c></rc>
    <rc><c>Si</c><c>   1</c></rc>
    <rc><c>Si</c><c>   1</c></rc>
    <rc><c>Si</c><c>   1</c></rc>
    <rc><c>Si</c><c>   1</c></rc>
    <rc><c>Si</c><c>   1</c></rc>
    <rc><c>Si</c><c>   1</c></rc>
    <rc><c>Si</c><c>   1</c></rc>
    <rc><c>Si</c><c>   1</c></rc>
    <rc><c>Si</c><c>   1</c></rc>
    <rc><c>Si</c><c>   1</c></rc>
    <rc><c>Si</c><c>   1</c></rc>
    <rc><c>Si</c><c>   1</c></rc>
    <rc><c>Si</c><c>   1</c></rc>
    <rc><c>Si</c><c>   1</c></rc>
    <rc><c>Si</c><c>   1</c></rc>
    <rc><c>Si</c><c>   1</c></rc>
    <rc><c>Si</c><c>   1</c></rc>
    <rc><c>Si</c><c>   1</c></rc>
    <rc><c>Si</c><c>   1</c></rc>
    <rc><c>Si</c><c>   1</c></rc>
    <rc><c>Si</c><c>   1</c></rc>
    <rc><c>Si</c><c>   1</c></rc>
    <rc><c>Si</c><c>   1</c></rc>
    <rc><c>Si</c><c>   1</c></rc>
    <rc><c>Si</c><c>   1</c></rc>
    <rc><c>Si</c><c>   1</c></rc>
    <rc><c>Si</c><c>   1</c></rc>
    <rc><c>Si</c><c>   1</c></rc>
    <rc><c>Si</c><c>   1</c></rc>
    <rc><c>Si</c><c>   1</c></rc>
    <rc><c>Si</c><c>   1</c></rc>
    <rc><c>Si</c><c>   1</c></rc>
    <rc><c>Si</c><c>   1</c></rc>
    <rc><c>Si</c><c>   1</c></rc>
    <rc><c>Si</c><c>   1</c></rc>
    <rc><c>Si</c><c>   1</c></rc>
    <rc><c>Si</c><c>   1</c></rc>
    <rc><c>Si</c><c>   1</c></rc>
    <rc><c>Si</c><c>   1</c></rc>
    <rc><c>Si</c><c>   1</c></rc>
    <rc><c>Si</c><c>   1</c></rc>
    <rc><c>Si</c><c>   1</c></rc>
    <rc><c>Si</c><c>   1</c></rc>
    <rc><c>Si</c><c>   1</c></rc>
    <rc><c>Si</c><c>   1</c></rc>
    <rc><c>Si</c><c>   1</c></rc>
    <rc><c>Si</c><c>   1</c></rc>
    <rc><c>Si</c><c>   1</c></rc>
    <rc><c>Si</c><c>   1</c></rc>
    <rc><c>Si</c><c>   1</c></rc>
    <rc><c>Si</c><c>   1</c></rc>
    <rc><c>Si</c><c>   1</c></rc>
    <rc><c>Si</c><c>   1</c></rc>
    <rc><c>Si</c><c>   1</c></rc>
    <rc><c>Si</c><c>   1</c></rc>
    <rc><c>Si</c><c>   1</c></rc>
    <rc><c>Si</c><c>   1</c></rc>
    <rc><c>Si</c><c>   1</c></rc>
    <rc><c>Si</c><c>   1</c></rc>
    <rc><c>Si</c><c>   1</c></rc>
    <rc><c>Si</c><c>   1</c></rc>
    <rc><c>Si</c><c>   1</c></rc>
    <rc><c>Si</c><c>   1</c></rc>
    <rc><c>Si</c><c>   1</c></rc>
    <rc><c>Si</c><c>   1</c></rc>
    <rc><c>Si</c><c>   1</c></rc>
    <rc><c>Si</c><c>   1</c></rc>
    <rc><c>Si</c><c>   1</c></rc>
    <rc><c>Si</c><c>   1</c></rc>
    <rc><c>Si</c><c>   1</c></rc>
    <rc><c>Si</c><c>   1</c></rc>
    <rc><c>Si</c><c>   1</c></rc>
    <rc><c>Si</c><c>   1</c></rc>
    <rc><c>Si</c><c>   1</c></rc>
    <rc><c>Si</c><c>   1</c></rc>
    <rc><c>Si</c><c>   1</c></rc>
    <rc><c>Si</c><c>   1</c></rc>
    <rc><c>Si</c><c>   1</c></rc>
    <rc><c>Si</c><c>   1</c></rc>
    <rc><c>Si</c><c>   1</c></rc>
   </set>
  </array>
  <array name="atomtypes" >
   <dimension dim="1">type</dimension>
   <field type="int">atomspertype</field>
   <field type="string">element</field>
   <field>mass</field>
   <field>valence</field>
   <field type="string">pseudopotential</field>
   <set>
    <rc><c> 128</c><c>Si</c><c>     28.08500000</c><c>      4.00000000</c><c> PAW_PBE Si 05Jan2001                   </c></rc>
   </set>
  </array>
 </atominfo>
 <structure name="initialpos" >
  <crystal>
   <varray name="basis" >
    <v>       0.00000000      10.93716070      10.93716070 </v>
    <v>      10.93716070       0.00000000      10.93716070 </v>
    <v>      10.93716070      10.93716070       0.00000000 </v>
   </varray>
   <i name="volume">   2616.63878844 </i>
   <varray name="rec_basis" >
    <v>      -0.04571570       0.04571570       0.04571570 </v>
    <v>       0.04571570      -0.04571570       0.04571570 </v>
    <v>       0.04571570       0.04571570      -0.04571570 </v>
   </varray>
  </crystal>
  <varray name="positions" >
   <v>       0.06250000       0.06341431       0.06158569 </v>
   <v>       0.31250000       0.06250000       0.06250000 </v>
   <v>       0.56250000       0.06250000       0.06250000 </v>
   <v>       0.81250000       0.06250000       0.06250000 </v>
   <v>       0.06250000       0.31250000       0.06250000 </v>
   <v>       0.31250000       0.31250000       0.06250000 </v>
   <v>       0.56250000       0.31250000       0.06250000 </v>
   <v>       0.81250000       0.31250000       0.06250000 </v>
   <v>       0.06250000       0.56250000       0.06250000 </v>
   <v>       0.31250000       0.56250000       0.06250000 </v>
   <v>       0.56250000       0.56250000       0.06250000 </v>
   <v>       0.81250000       0.56250000       0.06250000 </v>
   <v>       0.06250000       0.81250000       0.06250000 </v>
   <v>       0.31250000       0.81250000       0.06250000 </v>
   <v>       0.56250000       0.81250000       0.06250000 </v>
   <v>       0.81250000       0.81250000       0.06250000 </v>
   <v>       0.06250000       0.06250000       0.31250000 </v>
   <v>       0.31250000       0.06250000       0.31250000 </v>
   <v>       0.56250000       0.06250000       0.31250000 </v>
   <v>       0.81250000       0.06250000       0.31250000 </v>
   <v>       0.06250000       0.31250000       0.31250000 </v>
   <v>       0.31250000       0.31250000       0.31250000 </v>
   <v>       0.56250000       0.31250000       0.31250000 </v>
   <v>       0.81250000       0.31250000       0.31250000 </v>
   <v>       0.06250000       0.56250000       0.31250000 </v>
   <v>       0.31250000       0.56250000       0.31250000 </v>
   <v>       0.56250000       0.56250000       0.31250000 </v>
   <v>       0.81250000       0.56250000       0.31250000 </v>
   <v>       0.06250000       0.81250000       0.31250000 </v>
   <v>       0.31250000       0.81250000       0.31250000 </v>
   <v>       0.56250000       0.81250000       0.31250000 </v>
   <v>       0.81250000       0.81250000       0.31250000 </v>
   <v>       0.06250000       0.06250000       0.56250000 </v>
   <v>       0.31250000       0.06250000       0.56250000 </v>
   <v>       0.56250000       0.06250000       0.56250000 </v>
   <v>       0.81250000       0.06250000       0.56250000 </v>
   <v>       0.06250000       0.31250000       0.56250000 </v>
   <v>       0.31250000       0.31250000       0.56250000 </v>
   <v>       0.56250000       0.31250000       0.56250000 </v>
   <v>       0.81250000       0.31250000       0.56250000 </v>
   <v>       0.06250000       0.56250000       0.56250000 </v>
   <v>       0.31250000       0.56250000       0.56250000 </v>
   <v>       0.56250000       0.56250000       0.56250000 </v>
   <v>       0.81250000       0.56250000       0.56250000 </v>
   <v>       0.06250000       0.81250000       0.56250000 </v>
   <v>       0.31250000       0.81250000       0.56250000 </v>
   <v>       0.56250000       0.81250000       0.56250000 </v>
   <v>       0.81250000       0.81250000       0.56250000 </v>
   <v>       0.06250000       0.06250000       0.81250000 </v>
   <v>       0.31250000       0.06250000       0.81250000 </v>
   <v>       0.56250000       0.06250000       0.81250000 </v>
   <v>       0.81250000       0.06250000       0.81250000 </v>
   <v>       0.06250000       0.31250000       0.81250000 </v>
   <v>       0.31250000       0.31250000       0.81250000 </v>
   <v>       0.56250000       0.31250000       0.81250000 </v>
   <v>       0.81250000       0.31250000       0.81250000 </v>
   <v>       0.06250000       0.56250000       0.81250000 </v>
   <v>       0.31250000       0.56250000       0.81250000 </v>
   <v>       0.56250000       0.56250000       0.81250000 </v>
   <v>       0.81250000       0.56250000       0.81250000 </v>
   <v>       0.06250000       0.81250000       0.81250000 </v>
   <v>       0.31250000       0.81250000       0.81250000 </v>
   <v>       0.56250000       0.81250000       0.81250000 </v>
   <v>       0.81250000       0.81250000       0.81250000 </v>
   <v>       0.00000000       0.00000000       0.00000000 </v>
   <v>       0.25000000       0.00000000       0.00000000 </v>
   <v>       0.50000000       0.00000000       0.00000000 </v>
   <v>       0.75000000       0.00000000       0.00000000 </v>
   <v>       0.00000000       0.25000000       0.00000000 </v>
   <v>       0.25000000       0.25000000       0.00000000 </v>
   <v>       0.50000000       0.25000000       0.00000000 </v>
   <v>       0.75000000       0.25000000       0.00000000 </v>
   <v>       0.00000000       0.50000000       0.00000000 </v>
   <v>       0.25000000       0.50000000       0.00000000 </v>
   <v>       0.50000000       0.50000000       0.00000000 </v>
   <v>       0.75000000       0.50000000       0.00000000 </v>
   <v>       0.00000000       0.75000000       0.00000000 </v>
   <v>       0.25000000       0.75000000       0.00000000 </v>
   <v>       0.50000000       0.75000000       0.00000000 </v>
   <v>       0.75000000       0.75000000       0.00000000 </v>
   <v>       0.00000000       0.00000000       0.25000000 </v>
   <v>       0.25000000       0.00000000       0.25000000 </v>
   <v>       0.50000000       0.00000000       0.25000000 </v>
   <v>       0.75000000       0.00000000       0.25000000 </v>
   <v>       0.00000000       0.25000000       0.25000000 </v>
   <v>       0.25000000       0.25000000       0.25000000 </v>
   <v>       0.50000000       0.25000000       0.25000000 </v>
   <v>       0.75000000       0.25000000       0.25000000 </v>
   <v>       0.00000000       0.50000000       0.25000000 </v>
   <v>       0.25000000       0.50000000       0.25000000 </v>
   <v>       0.50000000       0.50000000       0.25000000 </v>
   <v>       0.75000000       0.50000000       0.25000000 </v>
   <v>       0.00000000       0.75000000       0.25000000 </v>
   <v>       0.25000000       0.75000000       0.25000000 </v>
   <v>       0.50000000       0.75000000       0.25000000 </v>
   <v>       0.75000000       0.75000000       0.25000000 </v>
   <v>       0.00000000       0.00000000       0.50000000 </v>
   <v>       0.25000000       0.00000000       0.50000000 </v>
   <v>       0.50000000       0.00000000       0.50000000 </v>
   <v>       0.75000000       0.00000000       0.50000000 </v>
   <v>       0.00000000       0.25000000       0.50000000 </v>
   <v>       0.25000000       0.25000000       0.50000000 </v>
   <v>       0.50000000       0.25000000       0.50000000 </v>
   <v>       0.75000000       0.25000000       0.50000000 </v>
   <v>       0.00000000       0.50000000       0.50000000 </v>
   <v>       0.25000000       0.50000000       0.50000000 </v>
   <v>       0.50000000       0.50000000       0.50000000 </v>
   <v>       0.75000000       0.50000000       0.50000000 </v>
   <v>       0.00000000       0.75000000       0.50000000 </v>
   <v>       0.25000000       0.75000000       0.50000000 </v>
   <v>       0.50000000       0.75000000       0.50000000 </v>
   <v>       0.75000000       0.75000000       0.50000000 </v>
   <v>       0.00000000       0.00000000       0.75000000 </v>
   <v>       0.25000000       0.00000000       0.75000000 </v>
   <v>       0.50000000       0.00000000       0.75000000 </v>
   <v>       0.75000000       0.00000000       0.75000000 </v>
   <v>       0.00000000       0.25000000       0.75000000 </v>
   <v>       0.25000000       0.25000000       0.75000000 </v>
   <v>       0.50000000       0.25000000       0.75000000 </v>
   <v>       0.75000000       0.25000000       0.75000000 </v>
   <v>       0.00000000       0.50000000       0.75000000 </v>
   <v>       0.25000000       0.50000000       0.75000000 </v>
   <v>       0.50000000       0.50000000       0.75000000 </v>
   <v>       0.75000000       0.50000000       0.75000000 </v>
   <v>       0.00000000       0.75000000       0.75000000 </v>
   <v>       0.25000000       0.75000000       0.75000000 </v>
   <v>       0.50000000       0.75000000       0.75000000 </v>
   <v>       0.75000000       0.75000000       0.75000000 </v>
  </varray>
 </structure>
 <calculation>
  <scstep>
   <time name="dav">    4.77    4.78</time>
   <time name="total">    5.27    5.30</time>
   <energy>
    <i name="alphaZ">    210.78028765 </i>
    <i name="ewald"> -14524.86521975 </i>
    <i name="hartreedc">   -724.62052946 </i>
    <i name="XCdc">  -1195.83148089 </i>
    <i name="pawpsdc">   4221.13331941 </i>
    <i name="pawaedc">  -1969.18571412 </i>
    <i name="eentropy">     -0.01567058 </i>
    <i name="bandstr">   2164.99822756 </i>
    <i name="atom">  13192.48085998 </i>
    <i name="e_fr_energy">   1374.87407979 </i>
    <i name="e_wo_entrp">   1374.88975038 </i>
    <i name="e_0_energy">   1374.88191509 </i>
   </energy>
  </scstep>
  <scstep>
   <time name="dav">    5.42    5.44</time>
   <time name="total">    5.42    5.44</time>
   <energy>
    <i name="e_fr_energy">   -537.02012274 </i>
    <i name="e_wo_entrp">   -537.02012090 </i>
    <i name="e_0_energy">   -537.02012182 </i>
   </energy>
  </scstep>
  <scstep>
   <time name="dav">    5.45    5.46</time>
   <time name="total">    5.45    5.46</time>
   <energy>
    <i name="e_fr_energy">   -690.02313073 </i>
    <i name="e_wo_entrp">   -690.02313073 </i>
    <i name="e_0_energy">   -690.02313073 </i>
   </energy>
  </scstep>
  <scstep>
   <time name="dav">    5.36    5.38</time>
   <time name="total">    5.36    5.38</time>
   <energy>
    <i name="e_fr_energy">   -694.53324879 </i>
    <i name="e_wo_entrp">   -694.53324879 </i>
    <i name="e_0_energy">   -694.53324879 </i>
   </energy>
  </scstep>
  <scstep>
   <time name="dav">    5.42    5.44</time>
   <time name="total">    5.93    5.94</time>
   <energy>
    <i name="e_fr_energy">   -694.70037447 </i>
    <i name="e_wo_entrp">   -694.70037447 </i>
    <i name="e_0_energy">   -694.70037447 </i>
   </energy>
  </scstep>
  <scstep>
   <time name="dav">    5.07    5.08</time>
   <time name="total">    6.06    6.08</time>
   <energy>
    <i name="e_fr_energy">   -686.29930881 </i>
    <i name="e_wo_entrp">   -686.29930881 </i>
    <i name="e_0_energy">   -686.29930881 </i>
   </energy>
  </scstep>
  <scstep>
   <time name="dav">    4.88    4.89</time>
   <time name="total">    5.87    5.89</time>
   <energy>
    <i name="e_fr_energy">   -682.42691110 </i>
    <i name="e_wo_entrp">   -682.42691110 </i>
    <i name="e_0_energy">   -682.42691110 </i>
   </energy>
  </scstep>
  <scstep>
   <time name="dav">    5.04    5.06</time>
   <time name="total">    6.04    6.06</time>
   <energy>
    <i name="e_fr_energy">   -682.55901148 </i>
    <i name="e_wo_entrp">   -682.55901148 </i>
    <i name="e_0_energy">   -682.55901148 </i>
   </energy>
  </scstep>
  <scstep>
   <time name="dav">    5.35    5.37</time>
   <time name="total">    6.35    6.37</time>
   <energy>
    <i name="e_fr_energy">   -682.56550475 </i>
    <i name="e_wo_entrp">   -682.56550475 </i>
    <i name="e_0_energy">   -682.56550475 </i>
   </energy>
  </scstep>
  <scstep>
   <time name="dav">    4.98    4.99</time>
   <time name="total">    5.97    5.99</time>
   <energy>
    <i name="e_fr_energy">   -682.56818273 </i>
    <i name="e_wo_entrp">   -682.56818273 </i>
    <i name="e_0_energy">   -682.56818273 </i>
   </energy>
  </scstep>
  <scstep>
   <time name="dav">    5.40    5.41</time>
   <time name="total">    6.39    6.41</time>
   <energy>
    <i name="e_fr_energy">   -682.56819628 </i>
    <i name="e_wo_entrp">   -682.56819628 </i>
    <i name="e_0_energy">   -682.56819628 </i>
   </energy>
  </scstep>
  <scstep>
   <time name="dav">    5.31    5.32</time>
   <time name="total">    6.30    6.31</time>
   <energy>
    <i name="e_fr_energy">   -682.56820041 </i>
    <i name="e_wo_entrp">   -682.56820041 </i>
    <i name="e_0_energy">   -682.56820041 </i>
   </energy>
  </scstep>
  <scstep>
   <time name="dav">    5.35    5.37</time>
   <time name="total">    6.34    6.36</time>
   <energy>
    <i name="e_fr_energy">   -682.56819669 </i>
    <i name="e_wo_entrp">   -682.56819669 </i>
    <i name="e_0_energy">   -682.56819669 </i>
   </energy>
  </scstep>
  <scstep>
   <time name="dav">    5.28    5.29</time>
   <time name="total">    6.28    6.29</time>
   <energy>
    <i name="e_fr_energy">   -682.56819735 </i>
    <i name="e_wo_entrp">   -682.56819735 </i>
    <i name="e_0_energy">   -682.56819735 </i>
   </energy>
  </scstep>
  <scstep>
   <time name="dav">    3.94    3.95</time>
   <time name="total">    4.94    4.95</time>
   <energy>
    <i name="e_fr_energy">   -682.56819631 </i>
    <i name="e_wo_entrp">   -682.56819631 </i>
    <i name="e_0_energy">   -682.56819631 </i>
   </energy>
  </scstep>
  <scstep>
   <time name="dav">    3.33    3.34</time>
   <time name="total">    4.34    4.36</time>
   <energy>
    <i name="e_fr_energy">   -682.56819639 </i>
    <i name="e_wo_entrp">   -682.56819639 </i>
    <i name="e_0_energy">   -682.56819639 </i>
   </energy>
  </scstep>
  <scstep>
   <time name="dav">    3.34    3.34</time>
   <time name="total">    4.35    4.36</time>
   <energy>
    <i name="e_fr_energy">   -682.56819641 </i>
    <i name="e_wo_entrp">   -682.56819641 </i>
    <i name="e_0_energy">   -682.56819641 </i>
   </energy>
  </scstep>
  <scstep>
   <time name="dav">    3.22    3.23</time>
   <time name="total">    4.22    4.23</time>
   <energy>
    <i name="e_fr_energy">   -682.56819639 </i>
    <i name="e_wo_entrp">   -682.56819639 </i>
    <i name="e_0_energy">   -682.56819639 </i>
   </energy>
  </scstep>
  <scstep>
   <time name="dav">    3.21    3.22</time>
   <time name="total">    3.70    3.71</time>
   <energy>
    <i name="alphaZ">    210.78028765 </i>
    <i name="ewald"> -14524.86521975 </i>
    <i name="hartreedc">   -991.73324409 </i>
    <i name="XCdc">  -1153.28598607 </i>
    <i name="pawpsdc">   4723.40773614 </i>
    <i name="pawaedc">  -2485.14586310 </i>
    <i name="eentropy">     -0.00000000 </i>
    <i name="bandstr">    345.79323284 </i>
    <i name="atom">  13192.48085998 </i>
    <i name="e_fr_energy">   -682.56819639 </i>
    <i name="e_wo_entrp">   -682.56819639 </i>
    <i name="e_0_energy">   -682.56819639 </i>
   </energy>
  </scstep>
  <structure>
   <crystal>
    <varray name="basis" >
     <v>       0.00000000      10.93716070      10.93716070 </v>
     <v>      10.93716070       0.00000000      10.93716070 </v>
     <v>      10.93716070      10.93716070       0.00000000 </v>
    </varray>
    <i name="volume">   2616.63878844 </i>
    <varray name="rec_basis" >
     <v>      -0.04571570       0.04571570       0.04571570 </v>
     <v>       0.04571570      -0.04571570       0.04571570 </v>
     <v>       0.04571570       0.04571570      -0.04571570 </v>
    </varray>
   </crystal>
   <varray name="positions" >
    <v>       0.06250000       0.06341431       0.06158569 </v>
    <v>       0.31250000       0.06250000       0.06250000 </v>
    <v>       0.56250000       0.06250000       0.06250000 </v>
    <v>       0.81250000       0.06250000       0.06250000 </v>
    <v>       0.06250000       0.31250000       0.06250000 </v>
    <v>       0.31250000       0.31250000       0.06250000 </v>
    <v>       0.56250000       0.31250000       0.06250000 </v>
    <v>       0.81250000       0.31250000       0.06250000 </v>
    <v>       0.06250000       0.56250000       0.06250000 </v>
    <v>       0.31250000       0.56250000       0.06250000 </v>
    <v>       0.56250000       0.56250000       0.06250000 </v>
    <v>       0.81250000       0.56250000       0.06250000 </v>
    <v>       0.06250000       0.81250000       0.06250000 </v>
    <v>       0.31250000       0.81250000       0.06250000 </v>
    <v>       0.56250000       0.81250000       0.06250000 </v>
    <v>       0.81250000       0.81250000       0.06250000 </v>
    <v>       0.06250000       0.06250000       0.31250000 </v>
    <v>       0.31250000       0.06250000       0.31250000 </v>
    <v>       0.56250000       0.06250000       0.31250000 </v>
    <v>       0.81250000       0.06250000       0.31250000 </v>
    <v>       0.06250000       0.31250000       0.31250000 </v>
    <v>       0.31250000       0.31250000       0.31250000 </v>
    <v>       0.56250000       0.31250000       0.31250000 </v>
    <v>       0.81250000       0.31250000       0.31250000 </v>
    <v>       0.06250000       0.56250000       0.31250000 </v>
    <v>       0.31250000       0.56250000       0.31250000 </v>
    <v>       0.56250000       0.56250000       0.31250000 </v>
    <v>       0.81250000       0.56250000       0.31250000 </v>
    <v>       0.06250000       0.81250000       0.31250000 </v>
    <v>       0.31250000       0.81250000       0.31250000 </v>
    <v>       0.56250000       0.81250000       0.31250000 </v>
    <v>       0.81250000       0.81250000       0.31250000 </v>
    <v>       0.06250000       0.06250000       0.56250000 </v>
    <v>       0.31250000       0.06250000       0.56250000 </v>
    <v>       0.56250000       0.06250000       0.56250000 </v>
    <v>       0.81250000       0.06250000       0.56250000 </v>
    <v>       0.06250000       0.31250000       0.56250000 </v>
    <v>       0.31250000       0.31250000       0.56250000 </v>
    <v>       0.56250000       0.31250000       0.56250000 </v>
    <v>       0.81250000       0.31250000       0.56250000 </v>
    <v>       0.06250000       0.56250000       0.56250000 </v>
    <v>       0.31250000       0.56250000       0.56250000 </v>
    <v>       0.56250000       0.56250000       0.56250000 </v>
    <v>       0.81250000       0.56250000       0.56250000 </v>
    <v>       0.06250000       0.81250000       0.56250000 </v>
    <v>       0.31250000       0.81250000       0.56250000 </v>
    <v>       0.56250000       0.81250000       0.56250000 </v>
    <v>       0.81250000       0.81250000       0.56250000 </v>
    <v>       0.06250000       0.06250000       0.81250000 </v>
    <v>       0.31250000       0.06250000       0.81250000 </v>
    <v>       0.56250000       0.06250000       0.81250000 </v>
    <v>       0.81250000       0.06250000       0.81250000 </v>
    <v>       0.06250000       0.31250000       0.81250000 </v>
    <v>       0.31250000       0.31250000       0.81250000 </v>
    <v>       0.56250000       0.31250000       0.81250000 </v>
    <v>       0.81250000       0.31250000       0.81250000 </v>
    <v>       0.06250000       0.56250000       0.81250000 </v>
    <v>       0.31250000       0.56250000       0.81250000 </v>
    <v>       0.56250000       0.56250000       0.81250000 </v>
    <v>       0.81250000       0.56250000       0.81250000 </v>
    <v>       0.06250000       0.81250000       0.81250000 </v>
    <v>       0.31250000       0.81250000       0.81250000 </v>
    <v>       0.56250000       0.81250000       0.81250000 </v>
    <v>       0.81250000       0.81250000       0.81250000 </v>
    <v>       0.00000000       0.00000000       0.00000000 </v>
    <v>       0.25000000       0.00000000       0.00000000 </v>
    <v>       0.50000000       0.00000000       0.00000000 </v>
    <v>       0.75000000       0.00000000       0.00000000 </v>
    <v>       0.00000000       0.25000000       0.00000000 </v>
    <v>       0.25000000       0.25000000       0.00000000 </v>
    <v>       0.50000000       0.25000000       0.00000000 </v>
    <v>       0.75000000       0.25000000       0.00000000 </v>
    <v>       0.00000000       0.50000000       0.00000000 </v>
    <v>       0.25000000       0.50000000       0.00000000 </v>
    <v>       0.50000000       0.50000000       0.00000000 </v>
    <v>       0.75000000       0.50000000       0.00000000 </v>
    <v>       0.00000000       0.75000000       0.00000000 </v>
    <v>       0.25000000       0.75000000       0.00000000 </v>
    <v>       0.50000000       0.75000000       0.00000000 </v>
    <v>       0.75000000       0.75000000       0.00000000 </v>
    <v>       0.00000000       0.00000000       0.25000000 </v>
    <v>       0.25000000       0.00000000       0.25000000 </v>
    <v>       0.50000000       0.00000000       0.25000000 </v>
    <v>       0.75000000       0.00000000       0.25000000 </v>
    <v>       0.00000000       0.25000000       0.25000000 </v>
    <v>       0.25000000       0.25000000       0.25000000 </v>
    <v>       0.50000000       0.25000000       0.25000000 </v>
    <v>       0.75000000       0.25000000       0.25000000 </v>
    <v>       0.00000000       0.50000000       0.25000000 </v>
    <v>       0.25000000       0.50000000       0.25000000 </v>
    <v>       0.50000000       0.50000000       0.25000000 </v>
    <v>       0.75000000       0.50000000       0.25000000 </v>
    <v>       0.00000000       0.75000000       0.25000000 </v>
    <v>       0.25000000       0.75000000       0.25000000 </v>
    <v>       0.50000000       0.75000000       0.25000000 </v>
    <v>       0.75000000       0.75000000       0.25000000 </v>
    <v>       0.00000000       0.00000000       0.50000000 </v>
    <v>       0.25000000       0.00000000       0.50000000 </v>
    <v>       0.50000000       0.00000000       0.50000000 </v>
    <v>       0.75000000       0.00000000       0.50000000 </v>
    <v>       0.00000000       0.25000000       0.50000000 </v>
    <v>       0.25000000       0.25000000       0.50000000 </v>
    <v>       0.50000000       0.25000000       0.50000000 </v>
    <v>       0.75000000       0.25000000       0.50000000 </v>
    <v>       0.00000000       0.50000000       0.50000000 </v>
    <v>       0.25000000       0.50000000       0.50000000 </v>
    <v>       0.50000000       0.50000000       0.50000000 </v>
    <v>       0.75000000       0.50000000       0.50000000 </v>
    <v>       0.00000000       0.75000000       0.50000000 </v>
    <v>       0.25000000       0.75000000       0.50000000 </v>
    <v>       0.50000000       0.75000000       0.50000000 </v>
    <v>       0.75000000       0.75000000       0.50000000 </v>
    <v>       0.00000000       0.00000000       0.75000000 </v>
    <v>       0.25000000       0.00000000       0.75000000 </v>
    <v>       0.50000000       0.00000000       0.75000000 </v>
    <v>       0.75000000       0.00000000       0.75000000 </v>
    <v>       0.00000000       0.25000000       0.75000000 </v>
    <v>       0.25000000       0.25000000       0.75000000 </v>
    <v>       0.50000000       0.25000000       0.75000000 </v>
    <v>       0.75000000       0.25000000       0.75000000 </v>
    <v>       0.00000000       0.50000000       0.75000000 </v>
    <v>       0.25000000       0.50000000       0.75000000 </v>
    <v>       0.50000000       0.50000000       0.75000000 </v>
    <v>       0.75000000       0.50000000       0.75000000 </v>
    <v>       0.00000000       0.75000000       0.75000000 </v>
    <v>       0.25000000       0.75000000       0.75000000 </v>
    <v>       0.50000000       0.75000000       0.75000000 </v>
    <v>       0.75000000       0.75000000       0.75000000 </v>
   </varray>
  </structure>
  <varray name="forces" >
   <v>      -0.00306975       0.13032934      -0.13032939 </v>
   <v>      -0.00000695       0.00044068      -0.00045506 </v>
   <v>       0.00000100       0.00022868      -0.00022871 </v>
   <v>      -0.00000696       0.00045504      -0.00044072 </v>
   <v>       0.00105894       0.00396334       0.00062820 </v>
   <v>       0.00048072       0.00010311      -0.00010262 </v>
   <v>       0.00048070       0.00010262      -0.00010315 </v>
   <v>       0.00105893      -0.00062824      -0.00396341 </v>
   <v>       0.00036972       0.00167792       0.00013972 </v>
   <v>       0.00030053       0.00016649      -0.00016655 </v>
   <v>       0.00036970      -0.00013977      -0.00167803 </v>
   <v>       0.00041491       0.00016724      -0.00016730 </v>
   <v>       0.00297194       0.00586611       0.00254309 </v>
   <v>       0.00297194      -0.00254315      -0.00586618 </v>
   <v>       0.00042090       0.00016111      -0.00004575 </v>
   <v>       0.00042090       0.00004569      -0.00016114 </v>
   <v>      -0.00108079      -0.00061622      -0.00395831 </v>
   <v>      -0.00047791       0.00010348      -0.00010509 </v>
   <v>      -0.00047794       0.00010508      -0.00010348 </v>
   <v>      -0.00108075       0.00395827       0.00061620 </v>
   <v>       0.00000028      -0.00037304       0.00037747 </v>
   <v>       0.00000104      -0.00010386       0.00010383 </v>
   <v>       0.00000028      -0.00037751       0.00037302 </v>
   <v>       0.00000138      -0.00025194       0.00025192 </v>
   <v>      -0.00006342      -0.00031179       0.00019644 </v>
   <v>      -0.00006342      -0.00019647       0.00031173 </v>
   <v>       0.00001402      -0.00008144       0.00013885 </v>
   <v>       0.00001401      -0.00013892       0.00008139 </v>
   <v>      -0.00189780      -0.00356703       0.00356699 </v>
   <v>       0.00000136      -0.00016522       0.00025215 </v>
   <v>      -0.00002472      -0.00009237       0.00009233 </v>
   <v>       0.00000136      -0.00025221       0.00016519 </v>
   <v>      -0.00037173      -0.00014433      -0.00167075 </v>
   <v>      -0.00029770       0.00016722      -0.00016725 </v>
   <v>      -0.00037171       0.00167070       0.00014428 </v>
   <v>      -0.00041819       0.00016641      -0.00016646 </v>
   <v>       0.00006211      -0.00019569       0.00031312 </v>
   <v>       0.00006211      -0.00031320       0.00019566 </v>
   <v>      -0.00001343      -0.00013875       0.00008230 </v>
   <v>      -0.00001345      -0.00008234       0.00013868 </v>
   <v>       0.00000576      -0.00051269       0.00051261 </v>
   <v>      -0.00000042      -0.00009515       0.00009610 </v>
   <v>      -0.00000037      -0.00011309       0.00011304 </v>
   <v>      -0.00000043      -0.00009615       0.00009506 </v>
   <v>       0.00012045      -0.00025773       0.00025381 </v>
   <v>       0.00001061      -0.00010654       0.00011419 </v>
   <v>       0.00001058      -0.00011423       0.00010648 </v>
   <v>       0.00012046      -0.00025388       0.00025766 </v>
   <v>      -0.00299248      -0.00252530      -0.00588163 </v>
   <v>      -0.00299248       0.00588159       0.00252527 </v>
   <v>      -0.00042034       0.00004507      -0.00016249 </v>
   <v>      -0.00042035       0.00016244      -0.00004516 </v>
   <v>       0.00192679      -0.00364140       0.00364132 </v>
   <v>       0.00000140      -0.00025173       0.00016726 </v>
   <v>       0.00002453      -0.00009324       0.00009320 </v>
   <v>       0.00000141      -0.00016729       0.00025168 </v>
   <v>      -0.00012237      -0.00025366       0.00025184 </v>
   <v>      -0.00001121      -0.00011422       0.00010653 </v>
   <v>      -0.00001124      -0.00010659       0.00011413 </v>
   <v>      -0.00012235      -0.00025193       0.00025361 </v>
   <v>       0.00000052      -0.00037443       0.00037592 </v>
   <v>      -0.00000001      -0.00025198       0.00025194 </v>
   <v>       0.00000051      -0.00037599       0.00037434 </v>
   <v>       0.00000029      -0.00010387       0.00010381 </v>
   <v>       0.00021775      -0.01234365       0.01261182 </v>
   <v>       0.00021776      -0.01261175       0.01234367 </v>
   <v>      -0.00000592      -0.00001154       0.00001081 </v>
   <v>      -0.00000593      -0.00001073       0.00001161 </v>
   <v>       0.04184917      -0.05395550       0.05395553 </v>
   <v>      -0.00068170      -0.00009247       0.00026298 </v>
   <v>      -0.00031573      -0.00013563       0.00013573 </v>
   <v>      -0.00068167      -0.00026292       0.00009254 </v>
   <v>      -0.00027799      -0.00157676      -0.00026098 </v>
   <v>      -0.00023863      -0.00008055       0.00021362 </v>
   <v>      -0.00023860      -0.00021354       0.00008059 </v>
   <v>      -0.00027799       0.00026103       0.00157678 </v>
   <v>       0.00066962      -0.00252914       0.00068459 </v>
   <v>      -0.00068544      -0.00008725       0.00008730 </v>
   <v>       0.00066963      -0.00068459       0.00252915 </v>
   <v>      -0.00077150      -0.00013402       0.00013406 </v>
   <v>      -0.03912606      -0.05194897       0.05194902 </v>
   <v>       0.00068335      -0.00026705       0.00009023 </v>
   <v>       0.00031720      -0.00013495       0.00013501 </v>
   <v>       0.00068333      -0.00009021       0.00026712 </v>
   <v>      -0.00000911       0.00058080      -0.00060168 </v>
   <v>      -0.00000050       0.00011748      -0.00011756 </v>
   <v>      -0.00000049       0.00011762      -0.00011739 </v>
   <v>      -0.00000913       0.00060171      -0.00058074 </v>
   <v>       0.00007828       0.00023582      -0.00010375 </v>
   <v>       0.00003728       0.00007973      -0.00007968 </v>
   <v>       0.00007830       0.00010380      -0.00023577 </v>
   <v>       0.00004416       0.00014768      -0.00014763 </v>
   <v>       0.00000251       0.00059448      -0.00041772 </v>
   <v>       0.00000254       0.00041774      -0.00059442 </v>
   <v>       0.00001396       0.00008632      -0.00017779 </v>
   <v>       0.00001397       0.00017783      -0.00008625 </v>
   <v>       0.00027574       0.00027033       0.00156519 </v>
   <v>       0.00023814      -0.00021318       0.00008010 </v>
   <v>       0.00023817      -0.00008005       0.00021324 </v>
   <v>       0.00027574      -0.00156517      -0.00027028 </v>
   <v>      -0.00007786       0.00010240      -0.00023653 </v>
   <v>      -0.00003728       0.00008077      -0.00008073 </v>
   <v>      -0.00007785       0.00023657      -0.00010234 </v>
   <v>      -0.00004364       0.00014881      -0.00014875 </v>
   <v>       0.00000372       0.00002656      -0.00002350 </v>
   <v>       0.00000372       0.00002353      -0.00002650 </v>
   <v>      -0.00000023       0.00012933      -0.00013025 </v>
   <v>      -0.00000022       0.00013034      -0.00012927 </v>
   <v>       0.00094011      -0.00040028       0.00040031 </v>
   <v>      -0.00002875       0.00004234      -0.00013468 </v>
   <v>       0.00004853       0.00008145      -0.00008138 </v>
   <v>      -0.00002872       0.00013472      -0.00004230 </v>
   <v>      -0.00067226      -0.00067957       0.00250850 </v>
   <v>       0.00068281      -0.00009222       0.00009225 </v>
   <v>      -0.00067222      -0.00250848       0.00067963 </v>
   <v>       0.00077333      -0.00013658       0.00013663 </v>
   <v>       0.00000568       0.00042044      -0.00059120 </v>
   <v>       0.00000570       0.00059126      -0.00042037 </v>
   <v>      -0.00001491       0.00017745      -0.00008665 </v>
   <v>      -0.00001492       0.00008671      -0.00017741 </v>
   <v>      -0.00095511      -0.00041019       0.00041024 </v>
   <v>       0.00003009       0.00013290      -0.00004280 </v>
   <v>      -0.00004728       0.00008244      -0.00008238 </v>
   <v>       0.00003007       0.00004287      -0.00013284 </v>
   <v>      -0.00000225       0.00063699      -0.00063720 </v>
   <v>       0.00000018       0.00016278      -0.00016362 </v>
   <v>       0.00000019       0.00016365      -0.00016273 </v>
   <v>      -0.00000226       0.00063723      -0.00063698 </v>
  </varray>
  <varray name="stress" >
   <v>       5.73278406      -0.05338224       0.05339749 </v>
   <v>      -0.05338223       5.73173978      -0.00136951 </v>
   <v>       0.05339749      -0.00136952       5.73173980 </v>
  </varray>
  <energy>
   <i name="e_fr_energy">   -682.56819639 </i>
   <i name="e_wo_entrp">   -682.56819639 </i>
   <i name="e_0_energy">     -0.00000000 </i>
  </energy>
  <time name="totalsc">  120.74  121.50</time>
  <eigenvalues>
   <array>
    <dimension dim="1">band</dimension>
    <dimension dim="2">kpoint</dimension>
    <dimension dim="3">spin</dimension>
    <field>eigene</field>
    <field>occ</field>
    <set>
     <set comment="spin 1">
      <set comment="kpoint 1">
       <r>   -6.1630    1.0000 </r>
       <r>   -5.3792    1.0000 </r>
       <r>   -5.3776    1.0000 </r>
       <r>   -5.3775    1.0000 </r>
       <r>   -5.3775    1.0000 </r>
       <r>   -5.3775    1.0000 </r>
       <r>   -5.3775    1.0000 </r>
       <r>   -5.3773    1.0000 </r>
       <r>   -5.3759    1.0000 </r>
       <r>   -5.1010    1.0000 </r>
       <r>   -5.0996    1.0000 </r>
       <r>   -5.0996    1.0000 </r>
       <r>   -5.0996    1.0000 </r>
       <r>   -5.0996    1.0000 </r>
       <r>   -5.0983    1.0000 </r>
       <r>   -4.1599    1.0000 </r>
       <r>   -4.1572    1.0000 </r>
       <r>   -4.1572    1.0000 </r>
       <r>   -4.1570    1.0000 </r>
       <r>   -4.1570    1.0000 </r>
       <r>   -4.1570    1.0000 </r>
       <r>   -4.1570    1.0000 </r>
       <r>   -4.1569    1.0000 </r>
       <r>   -4.1569    1.0000 </r>
       <r>   -4.1567    1.0000 </r>
       <r>   -4.1567    1.0000 </r>
       <r>   -4.1541    1.0000 </r>
       <r>   -3.8821    1.0000 </r>
       <r>   -3.8812    1.0000 </r>
       <r>   -3.8812    1.0000 </r>
       <r>   -3.8803    1.0000 </r>
       <r>   -3.5023    1.0000 </r>
       <r>   -3.4968    1.0000 </r>
       <r>   -3.4967    1.0000 </r>
       <r>   -3.4966    1.0000 </r>
       <r>   -3.4965    1.0000 </r>
       <r>   -3.4964    1.0000 </r>
       <r>   -3.4964    1.0000 </r>
       <r>   -3.4964    1.0000 </r>
       <r>   -3.4963    1.0000 </r>
       <r>   -3.4963    1.0000 </r>
       <r>   -3.4962    1.0000 </r>
       <r>   -3.4962    1.0000 </r>
       <r>   -3.4962    1.0000 </r>
       <r>   -3.4962    1.0000 </r>
       <r>   -3.4962    1.0000 </r>
       <r>   -3.4961    1.0000 </r>
       <r>   -3.4961    1.0000 </r>
       <r>   -3.4961    1.0000 </r>
       <r>   -3.4961    1.0000 </r>
       <r>   -3.4960    1.0000 </r>
       <r>   -3.4959    1.0000 </r>
       <r>   -3.4958    1.0000 </r>
       <r>   -3.4957    1.0000 </r>
       <r>   -3.4902    1.0000 </r>
       <r>   -2.0925    1.0000 </r>
       <r>   -2.0910    1.0000 </r>
       <r>   -2.0909    1.0000 </r>
       <r>   -2.0909    1.0000 </r>
       <r>   -2.0908    1.0000 </r>
       <r>   -2.0894    1.0000 </r>
       <r>   -1.9385    1.0000 </r>
       <r>   -1.9357    1.0000 </r>
       <r>   -1.9355    1.0000 </r>
       <r>   -1.9355    1.0000 </r>
       <r>   -1.9354    1.0000 </r>
       <r>   -1.9354    1.0000 </r>
       <r>   -1.9354    1.0000 </r>
       <r>   -1.9353    1.0000 </r>
       <r>   -1.9353    1.0000 </r>
       <r>   -1.9353    1.0000 </r>
       <r>   -1.9351    1.0000 </r>
       <r>   -1.9323    1.0000 </r>
       <r>   -1.2193    1.0000 </r>
       <r>   -1.2184    1.0000 </r>
       <r>   -1.2184    1.0000 </r>
       <r>   -1.2175    1.0000 </r>
       <r>   -0.6746    1.0000 </r>
       <r>   -0.6697    1.0000 </r>
       <r>   -0.6693    1.0000 </r>
       <r>   -0.6690    1.0000 </r>
       <r>   -0.6689    1.0000 </r>
       <r>   -0.6689    1.0000 </r>
       <r>   -0.6688    1.0000 </r>
       <r>   -0.6688    1.0000 </r>
       <r>   -0.6687    1.0000 </r>
       <r>   -0.6687    1.0000 </r>
       <r>   -0.6686    1.0000 </r>
       <r>   -0.6686    1.0000 </r>
       <r>   -0.6686    1.0000 </r>
       <r>   -0.6686    1.0000 </r>
       <r>   -0.6686    1.0000 </r>
       <r>   -0.6686    1.0000 </r>
       <r>   -0.6685    1.0000 </r>
       <r>   -0.6685    1.0000 </r>
       <r>   -0.6684    1.0000 </r>
       <r>   -0.6683    1.0000 </r>
       <r>   -0.6682    1.0000 </r>
       <r>   -0.6680    1.0000 </r>
       <r>   -0.6675    1.0000 </r>
       <r>   -0.6627    1.0000 </r>
       <r>    0.2139    1.0000 </r>
       <r>    0.2163    1.0000 </r>
       <r>    0.2165    1.0000 </r>
       <r>    0.2166    1.0000 </r>
       <r>    0.2166    1.0000 </r>
       <r>    0.2167    1.0000 </r>
       <r>    0.2167    1.0000 </r>
       <r>    0.2169    1.0000 </r>
       <r>    0.2169    1.0000 </r>
       <r>    0.2170    1.0000 </r>
       <r>    0.2172    1.0000 </r>
       <r>    0.2196    1.0000 </r>
       <r>    1.7662    1.0000 </r>
       <r>    1.7672    1.0000 </r>
       <r>    1.7678    1.0000 </r>
       <r>    1.7678    1.0000 </r>
       <r>    1.7678    1.0000 </r>
       <r>    1.7678    1.0000 </r>
       <r>    1.7685    1.0000 </r>
       <r>    1.7694    1.0000 </r>
       <r>    1.8846    1.0000 </r>
       <r>    1.8851    1.0000 </r>
       <r>    1.8856    1.0000 </r>
       <r>    1.8859    1.0000 </r>
       <r>    1.8859    1.0000 </r>
       <r>    1.8860    1.0000 </r>
       <r>    1.8860    1.0000 </r>
       <r>    1.8861    1.0000 </r>
       <r>    1.8861    1.0000 </r>
       <r>    1.8864    1.0000 </r>
       <r>    1.8869    1.0000 </r>
       <r>    1.8874    1.0000 </r>
       <r>    1.9776    1.0000 </r>
       <r>    1.9779    1.0000 </r>
       <r>    1.9779    1.0000 </r>
       <r>    1.9788    1.0000 </r>
       <r>    1.9788    1.0000 </r>
       <r>    1.9789    1.0000 </r>
       <r>    1.9789    1.0000 </r>
       <r>    1.9789    1.0000 </r>
       <r>    1.9790    1.0000 </r>
       <r>    1.9798    1.0000 </r>
       <r>    1.9799    1.0000 </r>
       <r>    1.9802    1.0000 </r>
       <r>    2.1395    1.0000 </r>
       <r>    2.1410    1.0000 </r>
       <r>    2.1411    1.0000 </r>
       <r>    2.1411    1.0000 </r>
       <r>    2.1412    1.0000 </r>
       <r>    2.1425    1.0000 </r>
       <r>    2.1841    1.0000 </r>
       <r>    2.1845    1.0000 </r>
       <r>    2.1854    1.0000 </r>
       <r>    2.1866    1.0000 </r>
       <r>    2.1866    1.0000 </r>
       <r>    2.1867    1.0000 </r>
       <r>    2.1867    1.0000 </r>
       <r>    2.1867    1.0000 </r>
       <r>    2.1868    1.0000 </r>
       <r>    2.1869    1.0000 </r>
       <r>    2.1869    1.0000 </r>
       <r>    2.1869    1.0000 </r>
       <r>    2.1869    1.0000 </r>
       <r>    2.1869    1.0000 </r>
       <r>    2.1869    1.0000 </r>
       <r>    2.1870    1.0000 </r>
       <r>    2.1871    1.0000 </r>
       <r>    2.1871    1.0000 </r>
       <r>    2.1871    1.0000 </r>
       <r>    2.1872    1.0000 </r>
       <r>    2.1873    1.0000 </r>
       <r>    2.1885    1.0000 </r>
       <r>    2.1894    1.0000 </r>
       <r>    2.1900    1.0000 </r>
       <r>    2.8560    1.0000 </r>
       <r>    2.8565    1.0000 </r>
       <r>    2.8566    1.0000 </r>
       <r>    2.8566    1.0000 </r>
       <r>    2.8567    1.0000 </r>
       <r>    2.8572    1.0000 </r>
       <r>    3.4887    1.0000 </r>
       <r>    3.4909    1.0000 </r>
       <r>    3.4918    1.0000 </r>
       <r>    3.4918    1.0000 </r>
       <r>    3.4923    1.0000 </r>
       <r>    3.4923    1.0000 </r>
       <r>    3.4924    1.0000 </r>
       <r>    3.4924    1.0000 </r>
       <r>    3.4925    1.0000 </r>
       <r>    3.4925    1.0000 </r>
       <r>    3.4925    1.0000 </r>
       <r>    3.4925    1.0000 </r>
       <r>    3.4925    1.0000 </r>
       <r>    3.4925    1.0000 </r>
       <r>    3.4926    1.0000 </r>
       <r>    3.4926    1.0000 </r>
       <r>    3.4926    1.0000 </r>
       <r>    3.4926    1.0000 </r>
       <r>    3.4927    1.0000 </r>
       <r>    3.4928    1.0000 </r>
       <r>    3.4932    1.0000 </r>
       <r>    3.4932    1.0000 </r>
       <r>    3.4941    1.0000 </r>
       <r>    3.4963    1.0000 </r>
       <r>    3.8016    1.0000 </r>
       <r>    3.8033    1.0000 </r>
       <r>    3.8035    1.0000 </r>
       <r>    3.8037    1.0000 </r>
       <r>    3.8038    1.0000 </r>
       <r>    3.8038    1.0000 </r>
       <r>    3.8038    1.0000 </r>
       <r>    3.8038    1.0000 </r>
       <r>    3.8039    1.0000 </r>
       <r>    3.8042    1.0000 </r>
       <r>    3.8044    1.0000 </r>
       <r>    3.8062    1.0000 </r>
       <r>    4.3503    1.0000 </r>
       <r>    4.3518    1.0000 </r>
       <r>    4.3526    1.0000 </r>
       <r>    4.3526    1.0000 </r>
       <r>    4.3527    1.0000 </r>
       <r>    4.3528    1.0000 </r>
       <r>    4.3528    1.0000 </r>
       <r>    4.3529    1.0000 </r>
       <r>    4.3530    1.0000 </r>
       <r>    4.3531    1.0000 </r>
       <r>    4.3538    1.0000 </r>
       <r>    4.3553    1.0000 </r>
       <r>    4.4759    1.0000 </r>
       <r>    4.4772    1.0000 </r>
       <r>    4.4775    1.0000 </r>
       <r>    4.4776    1.0000 </r>
       <r>    4.4778    1.0000 </r>
       <r>    4.4778    1.0000 </r>
       <r>    4.4782    1.0000 </r>
       <r>    4.4796    1.0000 </r>
       <r>    4.9074    1.0000 </r>
       <r>    4.9111    1.0000 </r>
       <r>    4.9113    1.0000 </r>
       <r>    4.9113    1.0000 </r>
       <r>    4.9117    1.0000 </r>
       <r>    4.9117    1.0000 </r>
       <r>    4.9117    1.0000 </r>
       <r>    4.9118    1.0000 </r>
       <r>    4.9118    1.0000 </r>
       <r>    4.9118    1.0000 </r>
       <r>    4.9118    1.0000 </r>
       <r>    4.9119    1.0000 </r>
       <r>    4.9122    1.0000 </r>
       <r>    4.9122    1.0000 </r>
       <r>    4.9124    1.0000 </r>
       <r>    4.9163    1.0000 </r>
       <r>    5.6594    1.0000 </r>
       <r>    5.6604    1.0000 </r>
       <r>    5.6615    1.0000 </r>
       <r>    6.3941    0.0000 </r>
       <r>    6.3946    0.0000 </r>
       <r>    6.3951    0.0000 </r>
       <r>    6.3951    0.0000 </r>
       <r>    6.3957    0.0000 </r>
       <r>    6.3962    0.0000 </r>
       <r>    6.7951    0.0000 </r>
       <r>    6.7956    0.0000 </r>
       <r>    6.7963    0.0000 </r>
       <r>    6.7963    0.0000 </r>
       <r>    6.7969    0.0000 </r>
       <r>    6.7974    0.0000 </r>
       <r>    7.1206    0.0000 </r>
       <r>    7.1208    0.0000 </r>
       <r>    7.1209    0.0000 </r>
       <r>    7.1211    0.0000 </r>
       <r>    7.1819    0.0000 </r>
       <r>    7.1832    0.0000 </r>
       <r>    7.1852    0.0000 </r>
       <r>    7.1857    0.0000 </r>
       <r>    7.1857    0.0000 </r>
       <r>    7.1858    0.0000 </r>
       <r>    7.1858    0.0000 </r>
       <r>    7.1859    0.0000 </r>
       <r>    7.1860    0.0000 </r>
       <r>    7.1860    0.0000 </r>
       <r>    7.1860    0.0000 </r>
       <r>    7.1860    0.0000 </r>
       <r>    7.1860    0.0000 </r>
       <r>    7.1860    0.0000 </r>
       <r>    7.1860    0.0000 </r>
       <r>    7.1860    0.0000 </r>
       <r>    7.1860    0.0000 </r>
       <r>    7.1861    0.0000 </r>
       <r>    7.1862    0.0000 </r>
       <r>    7.1863    0.0000 </r>
       <r>    7.1863    0.0000 </r>
       <r>    7.1868    0.0000 </r>
       <r>    7.1888    0.0000 </r>
       <r>    7.1901    0.0000 </r>
       <r>    7.6112    0.0000 </r>
       <r>    7.6118    0.0000 </r>
       <r>    7.6122    0.0000 </r>
       <r>    7.6122    0.0000 </r>
       <r>    7.6122    0.0000 </r>
       <r>    7.6122    0.0000 </r>
       <r>    7.6126    0.0000 </r>
       <r>    7.6133    0.0000 </r>
       <r>    8.0810    0.0000 </r>
       <r>    8.0815    0.0000 </r>
       <r>    8.0825    0.0000 </r>
       <r>    8.0829    0.0000 </r>
       <r>    8.0829    0.0000 </r>
       <r>    8.0829    0.0000 </r>
       <r>    8.0829    0.0000 </r>
       <r>    8.0830    0.0000 </r>
       <r>    8.0830    0.0000 </r>
       <r>    8.0833    0.0000 </r>
       <r>    8.0844    0.0000 </r>
       <r>    8.0848    0.0000 </r>
       <r>    8.1987    0.0000 </r>
       <r>    8.1993    0.0000 </r>
       <r>    8.2000    0.0000 </r>
       <r>    8.7788    0.0000 </r>
       <r>    8.7794    0.0000 </r>
       <r>    8.7871    0.0000 </r>
      </set>
     </set>
    </set>
   </array>
  </eigenvalues>
  <separator name="orbital magnetization" >
   <v name="MAGDIPOLOUT">      0.00000000      0.00000000      0.00000000</v>
  </separator>
  <dos>
   <i name="efermi">      5.92009975 </i>
   <total>
    <array>
     <dimension dim="1">gridpoints</dimension>
     <dimension dim="2">spin</dimension>
     <field>energy</field>
     <field>total</field>
     <field>integrated</field>
     <set>
      <set comment="spin 1">
       <r>    -6.9105     0.0000     0.0000 </r>
       <r>    -6.8557     0.0000     0.0000 </r>
       <r>    -6.8009     0.0000     0.0000 </r>
       <r>    -6.7461     0.0000     0.0000 </r>
       <r>    -6.6913     0.0000     0.0000 </r>
       <r>    -6.6364     0.0000     0.0000 </r>
       <r>    -6.5816     0.0000     0.0000 </r>
       <r>    -6.5268     0.0000     0.0000 </r>
       <r>    -6.4720     0.0000     0.0000 </r>
       <r>    -6.4172     0.0000     0.0000 </r>
       <r>    -6.3624     0.0000     0.0000 </r>
       <r>    -6.3075     0.0008     0.0000 </r>
       <r>    -6.2527     0.2031     0.0112 </r>
       <r>    -6.1979     5.7032     0.3238 </r>
       <r>    -6.1431    20.1270     1.4271 </r>
       <r>    -6.0883     9.8217     1.9655 </r>
       <r>    -6.0335     0.6247     1.9998 </r>
       <r>    -5.9786     0.0045     2.0000 </r>
       <r>    -5.9238     0.0000     2.0000 </r>
       <r>    -5.8690     0.0000     2.0000 </r>
       <r>    -5.8142     0.0000     2.0000 </r>
       <r>    -5.7594     0.0000     2.0000 </r>
       <r>    -5.7045     0.0000     2.0000 </r>
       <r>    -5.6497     0.0000     2.0000 </r>
       <r>    -5.5949     0.0000     2.0000 </r>
       <r>    -5.5401     0.0006     2.0000 </r>
       <r>    -5.4853     0.3353     2.0184 </r>
       <r>    -5.4305    19.2306     3.0726 </r>
       <r>    -5.3756   132.4025    10.3305 </r>
       <r>    -5.3208   123.9754    17.1265 </r>
       <r>    -5.2660    15.6990    17.9870 </r>
       <r>    -5.2112     0.4121    18.0096 </r>
       <r>    -5.1564    11.7136    18.6517 </r>
       <r>    -5.1016    92.8245    23.7401 </r>
       <r>    -5.0467    99.4516    29.1917 </r>
       <r>    -4.9919    14.4907    29.9861 </r>
       <r>    -4.9371     0.2535    30.0000 </r>
       <r>    -4.8823     0.0005    30.0000 </r>
       <r>    -4.8275     0.0000    30.0000 </r>
       <r>    -4.7727     0.0000    30.0000 </r>
       <r>    -4.7178     0.0000    30.0000 </r>
       <r>    -4.6630     0.0000    30.0000 </r>
       <r>    -4.6082     0.0000    30.0000 </r>
       <r>    -4.5534     0.0000    30.0000 </r>
       <r>    -4.4986     0.0000    30.0000 </r>
       <r>    -4.4438     0.0000    30.0000 </r>
       <r>    -4.3889     0.0000    30.0000 </r>
       <r>    -4.3341     0.0001    30.0000 </r>
       <r>    -4.2793     0.1189    30.0065 </r>
       <r>    -4.2245    12.2038    30.6755 </r>
       <r>    -4.1697   145.1678    38.6332 </r>
       <r>    -4.1149   229.1232    51.1930 </r>
       <r>    -4.0600    49.8606    53.9263 </r>
       <r>    -4.0052     1.3744    54.0016 </r>
       <r>    -3.9504     3.6383    54.2010 </r>
       <r>    -3.8956    46.2151    56.7344 </r>
       <r>    -3.8408    77.5829    60.9873 </r>
       <r>    -3.7859    17.9577    61.9717 </r>
       <r>    -3.7311     0.5153    61.9999 </r>
       <r>    -3.6763     0.0018    62.0000 </r>
       <r>    -3.6215     0.1759    62.0096 </r>
       <r>    -3.5667    20.2112    63.1176 </r>
       <r>    -3.5119   268.0121    77.8092 </r>
       <r>    -3.4570   469.7525   103.5597 </r>
       <r>    -3.4022   114.0195   109.8099 </r>
       <r>    -3.3474     3.4566   109.9994 </r>
       <r>    -3.2926     0.0115   110.0000 </r>
       <r>    -3.2378     0.0000   110.0000 </r>
       <r>    -3.1830     0.0000   110.0000 </r>
       <r>    -3.1281     0.0000   110.0000 </r>
       <r>    -3.0733     0.0000   110.0000 </r>
       <r>    -3.0185     0.0000   110.0000 </r>
       <r>    -2.9637     0.0000   110.0000 </r>
       <r>    -2.9089     0.0000   110.0000 </r>
       <r>    -2.8541     0.0000   110.0000 </r>
       <r>    -2.7992     0.0000   110.0000 </r>
       <r>    -2.7444     0.0000   110.0000 </r>
       <r>    -2.6896     0.0000   110.0000 </r>
       <r>    -2.6348     0.0000   110.0000 </r>
       <r>    -2.5800     0.0000   110.0000 </r>
       <r>    -2.5252     0.0000   110.0000 </r>
       <r>    -2.4703     0.0000   110.0000 </r>
       <r>    -2.4155     0.0000   110.0000 </r>
       <r>    -2.3607     0.0000   110.0000 </r>
       <r>    -2.3059     0.0000   110.0000 </r>
       <r>    -2.2511     0.0007   110.0000 </r>
       <r>    -2.1963     0.3172   110.0174 </r>
       <r>    -2.1414    16.4687   110.9202 </r>
       <r>    -2.0866   103.3189   116.5838 </r>
       <r>    -2.0318    89.8688   121.5102 </r>
       <r>    -1.9770    61.2714   124.8689 </r>
       <r>    -1.9222   230.3652   137.4968 </r>
       <r>    -1.8674   143.1979   145.3465 </r>
       <r>    -1.8125    11.8081   145.9938 </r>
       <r>    -1.7577     0.1127   146.0000 </r>
       <r>    -1.7029     0.0001   146.0000 </r>
       <r>    -1.6481     0.0000   146.0000 </r>
       <r>    -1.5933     0.0000   146.0000 </r>
       <r>    -1.5384     0.0000   146.0000 </r>
       <r>    -1.4836     0.0000   146.0000 </r>
       <r>    -1.4288     0.0000   146.0000 </r>
       <r>    -1.3740     0.0008   146.0000 </r>
       <r>    -1.3192     0.3185   146.0175 </r>
       <r>    -1.2644    13.8194   146.7750 </r>
       <r>    -1.2095    73.2733   150.7917 </r>
       <r>    -1.1547    53.2939   153.7131 </r>
       <r>    -1.0999     5.1752   153.9968 </r>
       <r>    -1.0451     0.0587   154.0000 </r>
       <r>    -0.9903     0.0001   154.0000 </r>
       <r>    -0.9355     0.0000   154.0000 </r>
       <r>    -0.8806     0.0000   154.0000 </r>
       <r>    -0.8258     0.0039   154.0002 </r>
       <r>    -0.7710     1.6707   154.0918 </r>
       <r>    -0.7162    76.7086   158.2967 </r>
       <r>    -0.6614   430.4789   181.8943 </r>
       <r>    -0.6066   331.9499   200.0909 </r>
       <r>    -0.5517    34.4067   201.9769 </r>
       <r>    -0.4969     0.4201   202.0000 </r>
       <r>    -0.4421     0.0005   202.0000 </r>
       <r>    -0.3873     0.0000   202.0000 </r>
       <r>    -0.3325     0.0000   202.0000 </r>
       <r>    -0.2777     0.0000   202.0000 </r>
       <r>    -0.2228     0.0000   202.0000 </r>
       <r>    -0.1680     0.0000   202.0000 </r>
       <r>    -0.1132     0.0000   202.0000 </r>
       <r>    -0.0584     0.0000   202.0000 </r>
       <r>    -0.0036     0.0000   202.0000 </r>
       <r>     0.0512     0.0006   202.0000 </r>
       <r>     0.1061     0.3840   202.0211 </r>
       <r>     0.1609    24.6488   203.3723 </r>
       <r>     0.2157   188.7581   213.7194 </r>
       <r>     0.2705   195.9125   224.4588 </r>
       <r>     0.3253    27.6470   225.9743 </r>
       <r>     0.3801     0.4679   226.0000 </r>
       <r>     0.4350     0.0008   226.0000 </r>
       <r>     0.4898     0.0000   226.0000 </r>
       <r>     0.5446     0.0000   226.0000 </r>
       <r>     0.5994     0.0000   226.0000 </r>
       <r>     0.6542     0.0000   226.0000 </r>
       <r>     0.7091     0.0000   226.0000 </r>
       <r>     0.7639     0.0000   226.0000 </r>
       <r>     0.8187     0.0000   226.0000 </r>
       <r>     0.8735     0.0000   226.0000 </r>
       <r>     0.9283     0.0000   226.0000 </r>
       <r>     0.9831     0.0000   226.0000 </r>
       <r>     1.0380     0.0000   226.0000 </r>
       <r>     1.0928     0.0000   226.0000 </r>
       <r>     1.1476     0.0000   226.0000 </r>
       <r>     1.2024     0.0000   226.0000 </r>
       <r>     1.2572     0.0000   226.0000 </r>
       <r>     1.3120     0.0000   226.0000 </r>
       <r>     1.3669     0.0000   226.0000 </r>
       <r>     1.4217     0.0000   226.0000 </r>
       <r>     1.4765     0.0000   226.0000 </r>
       <r>     1.5313     0.0000   226.0000 </r>
       <r>     1.5861     0.0000   226.0000 </r>
       <r>     1.6409     0.0486   226.0027 </r>
       <r>     1.6958     6.0178   226.3325 </r>
       <r>     1.7506    85.2737   231.0070 </r>
       <r>     1.8054   163.4455   239.9666 </r>
       <r>     1.8602   137.9437   247.5283 </r>
       <r>     1.9150   262.3905   261.9118 </r>
       <r>     1.9698   245.4710   275.3678 </r>
       <r>     2.0247   224.2353   287.6597 </r>
       <r>     2.0795    51.6890   290.4931 </r>
       <r>     2.1343   143.6978   298.3702 </r>
       <r>     2.1891   506.5044   326.1353 </r>
       <r>     2.2439   388.0568   347.4075 </r>
       <r>     2.2987    46.6049   349.9622 </r>
       <r>     2.3536     0.6886   349.9999 </r>
       <r>     2.4084     0.0011   350.0000 </r>
       <r>     2.4632     0.0000   350.0000 </r>
       <r>     2.5180     0.0000   350.0000 </r>
       <r>     2.5728     0.0000   350.0000 </r>
       <r>     2.6276     0.0000   350.0000 </r>
       <r>     2.6825     0.0001   350.0000 </r>
       <r>     2.7373     0.0807   350.0044 </r>
       <r>     2.7921     7.3709   350.4085 </r>
       <r>     2.8469    78.3621   354.7041 </r>
       <r>     2.9017   111.0018   360.7889 </r>
       <r>     2.9566    21.5793   361.9718 </r>
       <r>     3.0114     0.5135   361.9999 </r>
       <r>     3.0662     0.0013   362.0000 </r>
       <r>     3.1210     0.0000   362.0000 </r>
       <r>     3.1758     0.0000   362.0000 </r>
       <r>     3.2306     0.0000   362.0000 </r>
       <r>     3.2855     0.0000   362.0000 </r>
       <r>     3.3403     0.0074   362.0004 </r>
       <r>     3.3951     2.5697   362.1413 </r>
       <r>     3.4499    97.4141   367.4812 </r>
       <r>     3.5047   456.0009   392.4779 </r>
       <r>     3.5595   294.1870   408.6043 </r>
       <r>     3.6144    25.2095   409.9862 </r>
       <r>     3.6692     0.2813   410.0017 </r>
       <r>     3.7240     5.2184   410.2877 </r>
       <r>     3.7788    99.6477   415.7501 </r>
       <r>     3.8336   245.4349   429.2041 </r>
       <r>     3.8884    83.8211   433.7990 </r>
       <r>     3.9433     3.6495   433.9990 </r>
       <r>     3.9981     0.0177   434.0000 </r>
       <r>     4.0529     0.0000   434.0000 </r>
       <r>     4.1077     0.0000   434.0000 </r>
       <r>     4.1625     0.0000   434.0000 </r>
       <r>     4.2173     0.0281   434.0015 </r>
       <r>     4.2722     4.9198   434.2712 </r>
       <r>     4.3270    96.8819   439.5820 </r>
       <r>     4.3818   246.6436   453.1023 </r>
       <r>     4.4366   121.2390   459.7483 </r>
       <r>     4.4914   158.1012   468.4149 </r>
       <r>     4.5462    94.2047   473.5789 </r>
       <r>     4.6011     7.6103   473.9961 </r>
       <r>     4.6559     0.0710   474.0000 </r>
       <r>     4.7107     0.0001   474.0000 </r>
       <r>     4.7655     0.0104   474.0006 </r>
       <r>     4.8203     2.8394   474.1562 </r>
       <r>     4.8751    84.8832   478.8093 </r>
       <r>     4.9300   318.7212   496.2806 </r>
       <r>     4.9848   165.8776   505.3736 </r>
       <r>     5.0396    11.3389   505.9951 </r>
       <r>     5.0944     0.0888   506.0000 </r>
       <r>     5.1492     0.0001   506.0000 </r>
       <r>     5.2041     0.0000   506.0000 </r>
       <r>     5.2589     0.0000   506.0000 </r>
       <r>     5.3137     0.0000   506.0000 </r>
       <r>     5.3685     0.0000   506.0000 </r>
       <r>     5.4233     0.0000   506.0000 </r>
       <r>     5.4781     0.0000   506.0000 </r>
       <r>     5.5330     0.0171   506.0009 </r>
       <r>     5.5878     2.1674   506.1197 </r>
       <r>     5.6426    31.4084   507.8415 </r>
       <r>     5.6974    59.6709   511.1124 </r>
       <r>     5.7522    15.6741   511.9717 </r>
       <r>     5.8070     0.5153   511.9999 </r>
       <r>     5.8619     0.0019   512.0000 </r>
       <r>     5.9167     0.0000   512.0000 </r>
       <r>     5.9715     0.0000   512.0000 </r>
       <r>     6.0263     0.0000   512.0000 </r>
       <r>     6.0811     0.0000   512.0000 </r>
       <r>     6.1359     0.0000   512.0000 </r>
       <r>     6.1908     0.0000   512.0000 </r>
       <r>     6.2456     0.0026   512.0001 </r>
       <r>     6.3004     0.8060   512.0443 </r>
       <r>     6.3552    27.5436   513.5542 </r>
       <r>     6.4100   116.8500   519.9596 </r>
       <r>     6.4648    68.3825   523.7081 </r>
       <r>     6.5197     5.2781   523.9974 </r>
       <r>     6.5745     0.0469   524.0000 </r>
       <r>     6.6293     0.0003   524.0000 </r>
       <r>     6.6841     0.1659   524.0091 </r>
       <r>     6.7389    11.3280   524.6301 </r>
       <r>     6.7937    91.7740   529.6609 </r>
       <r>     6.8486   100.4186   535.1655 </r>
       <r>     6.9034    14.9549   535.9853 </r>
       <r>     6.9582     0.2681   536.0000 </r>
       <r>     7.0130     0.1678   536.0092 </r>
       <r>     7.0678     9.9629   536.5553 </r>
       <r>     7.1226    97.9603   541.9252 </r>
       <r>     7.1775   384.2956   562.9912 </r>
       <r>     7.2323   445.5187   587.4132 </r>
       <r>     7.2871    81.8029   591.8974 </r>
       <r>     7.3419     1.8667   591.9997 </r>
       <r>     7.3967     0.0046   592.0000 </r>
       <r>     7.4516     0.0008   592.0000 </r>
       <r>     7.5064     0.4012   592.0220 </r>
       <r>     7.5612    21.3215   593.1908 </r>
       <r>     7.6160   136.6131   600.6796 </r>
       <r>     7.6708   119.3089   607.2197 </r>
       <r>     7.7256    14.0386   607.9893 </r>
       <r>     7.7805     0.1953   608.0000 </r>
       <r>     7.8353     0.0003   608.0000 </r>
       <r>     7.8901     0.0000   608.0000 </r>
       <r>     7.9449     0.0208   608.0011 </r>
       <r>     7.9997     4.0596   608.2237 </r>
       <r>     8.0545    88.3215   613.0652 </r>
       <r>     8.1094   246.4062   626.5725 </r>
       <r>     8.1642   111.7913   632.7005 </r>
       <r>     8.2190    64.9997   636.2636 </r>
       <r>     8.2738    29.7496   637.8944 </r>
       <r>     8.3286     1.9119   637.9992 </r>
       <r>     8.3834     0.0140   638.0000 </r>
       <r>     8.4383     0.0000   638.0000 </r>
       <r>     8.4931     0.0000   638.0000 </r>
       <r>     8.5479     0.0000   638.0000 </r>
       <r>     8.6027     0.0000   638.0000 </r>
       <r>     8.6575     0.0259   638.0014 </r>
       <r>     8.7123     2.7611   638.1528 </r>
       <r>     8.7672    34.5288   640.0455 </r>
       <r>     8.8220    58.0277   643.2265 </r>
       <r>     8.8768    13.6991   643.9774 </r>
       <r>     8.9316     0.4108   643.9999 </r>
       <r>     8.9864     0.0014   644.0000 </r>
       <r>     9.0412     0.0000   644.0000 </r>
       <r>     9.0961     0.0000   644.0000 </r>
       <r>     9.1509     0.0000   644.0000 </r>
       <r>     9.2057     0.0000   644.0000 </r>
       <r>     9.2605     0.0000   644.0000 </r>
       <r>     9.3153     0.0000   644.0000 </r>
       <r>     9.3701     0.0000   644.0000 </r>
       <r>     9.4250     0.0000   644.0000 </r>
       <r>     9.4798     0.0000   644.0000 </r>
       <r>     9.5346     0.0000   644.0000 </r>
      </set>
     </set>
    </array>
   </total>
  </dos>
 </calculation>
 <structure name="finalpos" >
  <crystal>
   <varray name="basis" >
    <v>       0.00000000      10.93716070      10.93716070 </v>
    <v>      10.93716070       0.00000000      10.93716070 </v>
    <v>      10.93716070      10.93716070       0.00000000 </v>
   </varray>
   <i name="volume">   2616.63878844 </i>
   <varray name="rec_basis" >
    <v>      -0.04571570       0.04571570       0.04571570 </v>
    <v>       0.04571570      -0.04571570       0.04571570 </v>
    <v>       0.04571570       0.04571570      -0.04571570 </v>
   </varray>
  </crystal>
  <varray name="positions" >
   <v>       0.06250000       0.06341431       0.06158569 </v>
   <v>       0.31250000       0.06250000       0.06250000 </v>
   <v>       0.56250000       0.06250000       0.06250000 </v>
   <v>       0.81250000       0.06250000       0.06250000 </v>
   <v>       0.06250000       0.31250000       0.06250000 </v>
   <v>       0.31250000       0.31250000       0.06250000 </v>
   <v>       0.56250000       0.31250000       0.06250000 </v>
   <v>       0.81250000       0.31250000       0.06250000 </v>
   <v>       0.06250000       0.56250000       0.06250000 </v>
   <v>       0.31250000       0.56250000       0.06250000 </v>
   <v>       0.56250000       0.56250000       0.06250000 </v>
   <v>       0.81250000       0.56250000       0.06250000 </v>
   <v>       0.06250000       0.81250000       0.06250000 </v>
   <v>       0.31250000       0.81250000       0.06250000 </v>
   <v>       0.56250000       0.81250000       0.06250000 </v>
   <v>       0.81250000       0.81250000       0.06250000 </v>
   <v>       0.06250000       0.06250000       0.31250000 </v>
   <v>       0.31250000       0.06250000       0.31250000 </v>
   <v>       0.56250000       0.06250000       0.31250000 </v>
   <v>       0.81250000       0.06250000       0.31250000 </v>
   <v>       0.06250000       0.31250000       0.31250000 </v>
   <v>       0.31250000       0.31250000       0.31250000 </v>
   <v>       0.56250000       0.31250000       0.31250000 </v>
   <v>       0.81250000       0.31250000       0.31250000 </v>
   <v>       0.06250000       0.56250000       0.31250000 </v>
   <v>       0.31250000       0.56250000       0.31250000 </v>
   <v>       0.56250000       0.56250000       0.31250000 </v>
   <v>       0.81250000       0.56250000       0.31250000 </v>
   <v>       0.06250000       0.81250000       0.31250000 </v>
   <v>       0.31250000       0.81250000       0.31250000 </v>
   <v>       0.56250000       0.81250000       0.31250000 </v>
   <v>       0.81250000       0.81250000       0.31250000 </v>
   <v>       0.06250000       0.06250000       0.56250000 </v>
   <v>       0.31250000       0.06250000       0.56250000 </v>
   <v>       0.56250000       0.06250000       0.56250000 </v>
   <v>       0.81250000       0.06250000       0.56250000 </v>
   <v>       0.06250000       0.31250000       0.56250000 </v>
   <v>       0.31250000       0.31250000       0.56250000 </v>
   <v>       0.56250000       0.31250000       0.56250000 </v>
   <v>       0.81250000       0.31250000       0.56250000 </v>
   <v>       0.06250000       0.56250000       0.56250000 </v>
   <v>       0.31250000       0.56250000       0.56250000 </v>
   <v>       0.56250000       0.56250000       0.56250000 </v>
   <v>       0.81250000       0.56250000       0.56250000 </v>
   <v>       0.06250000       0.81250000       0.56250000 </v>
   <v>       0.31250000       0.81250000       0.56250000 </v>
   <v>       0.56250000       0.81250000       0.56250000 </v>
   <v>       0.81250000       0.81250000       0.56250000 </v>
   <v>       0.06250000       0.06250000       0.81250000 </v>
   <v>       0.31250000       0.06250000       0.81250000 </v>
   <v>       0.56250000       0.06250000       0.81250000 </v>
   <v>       0.81250000       0.06250000       0.81250000 </v>
   <v>       0.06250000       0.31250000       0.81250000 </v>
   <v>       0.31250000       0.31250000       0.81250000 </v>
   <v>       0.56250000       0.31250000       0.81250000 </v>
   <v>       0.81250000       0.31250000       0.81250000 </v>
   <v>       0.06250000       0.56250000       0.81250000 </v>
   <v>       0.31250000       0.56250000       0.81250000 </v>
   <v>       0.56250000       0.56250000       0.81250000 </v>
   <v>       0.81250000       0.56250000       0.81250000 </v>
   <v>       0.06250000       0.81250000       0.81250000 </v>
   <v>       0.31250000       0.81250000       0.81250000 </v>
   <v>       0.56250000       0.81250000       0.81250000 </v>
   <v>       0.81250000       0.81250000       0.81250000 </v>
   <v>       0.00000000       0.00000000       0.00000000 </v>
   <v>       0.25000000       0.00000000       0.00000000 </v>
   <v>       0.50000000       0.00000000       0.00000000 </v>
   <v>       0.75000000       0.00000000       0.00000000 </v>
   <v>       0.00000000       0.25000000       0.00000000 </v>
   <v>       0.25000000       0.25000000       0.00000000 </v>
   <v>       0.50000000       0.25000000       0.00000000 </v>
   <v>       0.75000000       0.25000000       0.00000000 </v>
   <v>       0.00000000       0.50000000       0.00000000 </v>
   <v>       0.25000000       0.50000000       0.00000000 </v>
   <v>       0.50000000       0.50000000       0.00000000 </v>
   <v>       0.75000000       0.50000000       0.00000000 </v>
   <v>       0.00000000       0.75000000       0.00000000 </v>
   <v>       0.25000000       0.75000000       0.00000000 </v>
   <v>       0.50000000       0.75000000       0.00000000 </v>
   <v>       0.75000000       0.75000000       0.00000000 </v>
   <v>       0.00000000       0.00000000       0.25000000 </v>
   <v>       0.25000000       0.00000000       0.25000000 </v>
   <v>       0.50000000       0.00000000       0.25000000 </v>
   <v>       0.75000000       0.00000000       0.25000000 </v>
   <v>       0.00000000       0.25000000       0.25000000 </v>
   <v>       0.25000000       0.25000000       0.25000000 </v>
   <v>       0.50000000       0.25000000       0.25000000 </v>
   <v>       0.75000000       0.25000000       0.25000000 </v>
   <v>       0.00000000       0.50000000       0.25000000 </v>
   <v>       0.25000000       0.50000000       0.25000000 </v>
   <v>       0.50000000       0.50000000       0.25000000 </v>
   <v>       0.75000000       0.50000000       0.25000000 </v>
   <v>       0.00000000       0.75000000       0.25000000 </v>
   <v>       0.25000000       0.75000000       0.25000000 </v>
   <v>       0.50000000       0.75000000       0.25000000 </v>
   <v>       0.75000000       0.75000000       0.25000000 </v>
   <v>       0.00000000       0.00000000       0.50000000 </v>
   <v>       0.25000000       0.00000000       0.50000000 </v>
   <v>       0.50000000       0.00000000       0.50000000 </v>
   <v>       0.75000000       0.00000000       0.50000000 </v>
   <v>       0.00000000       0.25000000       0.50000000 </v>
   <v>       0.25000000       0.25000000       0.50000000 </v>
   <v>       0.50000000       0.25000000       0.50000000 </v>
   <v>       0.75000000       0.25000000       0.50000000 </v>
   <v>       0.00000000       0.50000000       0.50000000 </v>
   <v>       0.25000000       0.50000000       0.50000000 </v>
   <v>       0.50000000       0.50000000       0.50000000 </v>
   <v>       0.75000000       0.50000000       0.50000000 </v>
   <v>       0.00000000       0.75000000       0.50000000 </v>
   <v>       0.25000000       0.75000000       0.50000000 </v>
   <v>       0.50000000       0.75000000       0.50000000 </v>
   <v>       0.75000000       0.75000000       0.50000000 </v>
   <v>       0.00000000       0.00000000       0.75000000 </v>
   <v>       0.25000000       0.00000000       0.75000000 </v>
   <v>       0.50000000       0.00000000       0.75000000 </v>
   <v>       0.75000000       0.00000000       0.75000000 </v>
   <v>       0.00000000       0.25000000       0.75000000 </v>
   <v>       0.25000000       0.25000000       0.75000000 </v>
   <v>       0.50000000       0.25000000       0.75000000 </v>
   <v>       0.75000000       0.25000000       0.75000000 </v>
   <v>       0.00000000       0.50000000       0.75000000 </v>
   <v>       0.25000000       0.50000000       0.75000000 </v>
   <v>       0.50000000       0.50000000       0.75000000 </v>
   <v>       0.75000000       0.50000000       0.75000000 </v>
   <v>       0.00000000       0.75000000       0.75000000 </v>
   <v>       0.25000000       0.75000000       0.75000000 </v>
   <v>       0.50000000       0.75000000       0.75000000 </v>
   <v>       0.75000000       0.75000000       0.75000000 </v>
  </varray>
 </structure>
</modeling>
