Si
 1.0000000000000000
    10.8619999999999983    0.0000000000000003    0.0000000000000003
     0.0000000000000003   10.8619999999999983   -0.0000000000000003
    -0.0000000000000003   -0.0000000000000003   10.8619999999999983
 Si 
  64
Direct
  0.0000000000000000  0.0000000000000000  0.0000000000000000
  0.0000000000000000  0.2500000000000000  0.2500000000000000
  0.0000000000000000  0.4999999999999999  0.4999999999999999
 -0.0000000000000000  0.7500000000000000  0.7499999999999999
  0.2500000000000000  0.0000000000000000  0.2500000000000000
  0.2500000000000000  0.2500000000000000  0.4999999999999999
  0.2500000000000000  0.4999999999999999  0.7499999999999999
  0.2500000000000000  0.7500000000000000  0.0000000000000000
  0.4999999999999999  0.0000000000000000  0.4999999999999999
  0.4999999999999999  0.2500000000000000  0.7500000000000000
  0.4999999999999999  0.4999999999999999  0.0000000000000000
  0.4999999999999999  0.7500000000000000  0.2500000000000000
  0.7500000000000000  0.0000000000000000  0.7500000000000000
  0.7500000000000000  0.2500000000000000  0.0000000000000000
  0.7500000000000000  0.4999999999999999  0.2500000000000000
  0.7500000000000000  0.7500000000000000  0.4999999999999999
  0.2500000000000000  0.2500000000000000  0.0000000000000000
  0.2500000000000000  0.4999999999999999  0.2500000000000000
  0.2500000000000000  0.7500000000000000  0.4999999999999999
  0.2500000000000000  0.0000000000000000  0.7500000000000000
  0.4999999999999999  0.2500000000000000  0.2500000000000000
  0.4999999999999999  0.4999999999999999  0.4999999999999999
  0.4999999999999999  0.7500000000000000  0.7499999999999999
  0.4999999999999999  0.0000000000000000  0.0000000000000000
  0.7500000000000000  0.2500000000000000  0.4999999999999999
  0.7500000000000000  0.4999999999999999  0.7500000000000000
  0.7500000000000000  0.7500000000000000 -0.0000000000000000
  0.7500000000000000 -0.0000000000000000  0.2500000000000000
 -0.0000000000000000  0.2500000000000000  0.7499999999999999
  0.0000000000000000  0.4999999999999999 -0.0000000000000000
  0.0000000000000000  0.7500000000000000  0.2500000000000000
 -0.0000000000000000 -0.0000000000000000  0.4999999999999999
  0.1250000000000000  0.1250000000000000  0.1250000000000000
  0.1250000000000000  0.3749999999999999  0.3749999999999999
  0.1250000000000000  0.6250000000000000  0.6249999999999999
  0.1250000000000000  0.8750000000000000  0.8750000000000000
  0.3749999999999999  0.1250000000000000  0.3750000000000000
  0.3749999999999999  0.3749999999999999  0.6250000000000000
  0.3749999999999999  0.6250000000000000  0.8750000000000000
  0.3749999999999999  0.8750000000000000  0.1250000000000000
  0.6249999999999999  0.1249999999999999  0.6250000000000000
  0.6249999999999999  0.3749999999999999  0.8750000000000000
  0.6249999999999999  0.6250000000000000  0.1250000000000000
  0.6249999999999999  0.8750000000000000  0.3749999999999999
  0.8750000000000000  0.1250000000000000  0.8750000000000000
  0.8750000000000000  0.3749999999999999  0.1250000000000000
  0.8750000000000000  0.6250000000000000  0.3750000000000000
  0.8750000000000000  0.8750000000000000  0.6249999999999999
  0.3749999999999999  0.3749999999999999  0.1250000000000000
  0.3749999999999999  0.6249999999999998  0.3749999999999999
  0.3749999999999999  0.8749999999999998  0.6249999999999999
  0.3749999999999999  0.1250000000000000  0.8750000000000000
  0.6249999999999998  0.3749999999999999  0.3750000000000000
  0.6249999999999998  0.6249999999999998  0.6250000000000000
  0.6249999999999998  0.8749999999999998  0.8750000000000000
  0.6249999999999998  0.1250000000000000  0.1250000000000000
  0.8749999999999998  0.3749999999999999  0.6250000000000000
  0.8749999999999998  0.6249999999999998  0.8750000000000000
  0.8749999999999998  0.8749999999999998  0.1250000000000000
  0.8749999999999998  0.1250000000000000  0.3750000000000000
  0.1250000000000000  0.3749999999999999  0.8750000000000000
  0.1250000000000000  0.6249999999999998  0.1250000000000000
  0.1250000000000000  0.8749999999999998  0.3749999999999999
  0.1250000000000000  0.1250000000000000  0.6249999999999999
