K6 Li2 Ge8
1.0
   6.6866790573229418    0.0000000000000000    0.0000000000000000
   0.0000000000000000   11.9560434266675930    0.0000000000000000
   0.0000000000000000    0.0000000000000000    6.2742236984016468
K Li Ge
6 2 8
direct
   0.0000000000000000    0.7632880605323189    0.1618741955207165 K
   0.0000000000000000    0.2367119394676812    0.1618741955207165 K
   0.5000000000000000    0.7367119394676811    0.8381258044792835 K
   0.5000000000000000    0.2632880605323188    0.8381258044792835 K
   0.0000000000000000   -0.0000000000000000    0.5675480424497719 K
   0.5000000000000000    0.5000000000000000    0.4324519575502281 K
   0.0000000000000000    0.5000000000000000    0.3064271000457082 Li
   0.5000000000000000   -0.0000000000000000    0.6935728999542919 Li
   0.2974927449800834   -0.0000000000000000    0.0564652034483039 Ge
   0.7025072550199163   -0.0000000000000000    0.0564652034483039 Ge
   0.7974927449800837    0.5000000000000000    0.9435347965516960 Ge
   0.2025072550199164    0.5000000000000000    0.9435347965516960 Ge
   0.0000000000000000    0.3868871893998229    0.6677793734700853 Ge
   0.0000000000000000    0.6131128106001769    0.6677793734700853 Ge
   0.5000000000000000    0.1131128106001770    0.3322206265299143 Ge
   0.5000000000000000    0.8868871893998231    0.3322206265299143 Ge
