generated by phonopy
   1.0
    13.3733581146458835    0.0000000000000000    0.0000000000000000
     0.0000000000000000   23.9120868533351860    0.0000000000000000
     0.0000000000000000    0.0000000000000000   12.5484473968032937
K Li Ge
  48   16   64
Direct
  0.0000000000000000  0.3816440302661595  0.0809370977603582
  0.5000000000000000  0.3816440302661595  0.0809370977603582
  0.0000000000000000  0.8816440302661595  0.0809370977603582
  0.5000000000000000  0.8816440302661595  0.0809370977603582
  0.0000000000000000  0.3816440302661595  0.5809370977603583
  0.5000000000000000  0.3816440302661595  0.5809370977603583
  0.0000000000000000  0.8816440302661595  0.5809370977603583
  0.5000000000000000  0.8816440302661595  0.5809370977603583
  0.0000000000000000  0.1183559697338406  0.0809370977603582
  0.5000000000000000  0.1183559697338406  0.0809370977603582
  0.0000000000000000  0.6183559697338405  0.0809370977603582
  0.5000000000000000  0.6183559697338405  0.0809370977603582
  0.0000000000000000  0.1183559697338406  0.5809370977603583
  0.5000000000000000  0.1183559697338406  0.5809370977603583
  0.0000000000000000  0.6183559697338405  0.5809370977603583
  0.5000000000000000  0.6183559697338405  0.5809370977603583
  0.2500000000000000  0.3683559697338405  0.4190629022396418
  0.7500000000000000  0.3683559697338405  0.4190629022396418
  0.2500000000000000  0.8683559697338405  0.4190629022396418
  0.7500000000000000  0.8683559697338405  0.4190629022396418
  0.2500000000000000  0.3683559697338405  0.9190629022396417
  0.7500000000000000  0.3683559697338405  0.9190629022396417
  0.2500000000000000  0.8683559697338405  0.9190629022396417
  0.7500000000000000  0.8683559697338405  0.9190629022396417
  0.2500000000000000  0.1316440302661594  0.4190629022396418
  0.7500000000000000  0.1316440302661594  0.4190629022396418
  0.2500000000000000  0.6316440302661595  0.4190629022396418
  0.7500000000000000  0.6316440302661595  0.4190629022396418
  0.2500000000000000  0.1316440302661594  0.9190629022396417
  0.7500000000000000  0.1316440302661594  0.9190629022396417
  0.2500000000000000  0.6316440302661595  0.9190629022396417
  0.7500000000000000  0.6316440302661595  0.9190629022396417
  0.0000000000000000  0.0000000000000000  0.2837740212248859
  0.5000000000000000  0.0000000000000000  0.2837740212248859
  0.0000000000000000  0.5000000000000000  0.2837740212248859
  0.5000000000000000  0.5000000000000000  0.2837740212248859
  0.0000000000000000  0.0000000000000000  0.7837740212248859
  0.5000000000000000  0.0000000000000000  0.7837740212248859
  0.0000000000000000  0.5000000000000000  0.7837740212248859
  0.5000000000000000  0.5000000000000000  0.7837740212248859
  0.2500000000000000  0.2500000000000000  0.2162259787751140
  0.7500000000000000  0.2500000000000000  0.2162259787751140
  0.2500000000000000  0.7500000000000000  0.2162259787751140
  0.7500000000000000  0.7500000000000000  0.2162259787751140
  0.2500000000000000  0.2500000000000000  0.7162259787751141
  0.7500000000000000  0.2500000000000000  0.7162259787751141
  0.2500000000000000  0.7500000000000000  0.7162259787751141
  0.7500000000000000  0.7500000000000000  0.7162259787751141
  0.0000000000000000  0.2500000000000000  0.1532135500228541
  0.5000000000000000  0.2500000000000000  0.1532135500228541
  0.0000000000000000  0.7500000000000000  0.1532135500228541
  0.5000000000000000  0.7500000000000000  0.1532135500228541
  0.0000000000000000  0.2500000000000000  0.6532135500228541
  0.5000000000000000  0.2500000000000000  0.6532135500228541
  0.0000000000000000  0.7500000000000000  0.6532135500228541
  0.5000000000000000  0.7500000000000000  0.6532135500228541
  0.2500000000000000  0.0000000000000000  0.3467864499771460
  0.7500000000000000  0.0000000000000000  0.3467864499771460
  0.2500000000000000  0.5000000000000000  0.3467864499771460
  0.7500000000000000  0.5000000000000000  0.3467864499771460
  0.2500000000000000  0.0000000000000000  0.8467864499771460
  0.7500000000000000  0.0000000000000000  0.8467864499771460
  0.2500000000000000  0.5000000000000000  0.8467864499771460
  0.7500000000000000  0.5000000000000000  0.8467864499771460
  0.1487463724900417  0.0000000000000000  0.0282326017241519
  0.6487463724900417  0.0000000000000000  0.0282326017241519
  0.1487463724900417  0.5000000000000000  0.0282326017241519
  0.6487463724900417  0.5000000000000000  0.0282326017241519
  0.1487463724900417  0.0000000000000000  0.5282326017241520
  0.6487463724900417  0.0000000000000000  0.5282326017241520
  0.1487463724900417  0.5000000000000000  0.5282326017241520
  0.6487463724900417  0.5000000000000000  0.5282326017241520
  0.3512536275099581  0.0000000000000000  0.0282326017241519
  0.8512536275099581  0.0000000000000000  0.0282326017241519
  0.3512536275099581  0.5000000000000000  0.0282326017241519
  0.8512536275099581  0.5000000000000000  0.0282326017241519
  0.3512536275099581  0.0000000000000000  0.5282326017241520
  0.8512536275099581  0.0000000000000000  0.5282326017241520
  0.3512536275099581  0.5000000000000000  0.5282326017241520
  0.8512536275099581  0.5000000000000000  0.5282326017241520
  0.3987463724900419  0.2500000000000000  0.4717673982758480
  0.8987463724900419  0.2500000000000000  0.4717673982758480
  0.3987463724900419  0.7500000000000000  0.4717673982758480
  0.8987463724900419  0.7500000000000000  0.4717673982758480
  0.3987463724900419  0.2500000000000000  0.9717673982758480
  0.8987463724900419  0.2500000000000000  0.9717673982758480
  0.3987463724900419  0.7500000000000000  0.9717673982758480
  0.8987463724900419  0.7500000000000000  0.9717673982758480
  0.1012536275099582  0.2500000000000000  0.4717673982758480
  0.6012536275099583  0.2500000000000000  0.4717673982758480
  0.1012536275099582  0.7500000000000000  0.4717673982758480
  0.6012536275099583  0.7500000000000000  0.4717673982758480
  0.1012536275099582  0.2500000000000000  0.9717673982758480
  0.6012536275099583  0.2500000000000000  0.9717673982758480
  0.1012536275099582  0.7500000000000000  0.9717673982758480
  0.6012536275099583  0.7500000000000000  0.9717673982758480
  0.0000000000000000  0.1934435946999115  0.3338896867350427
  0.5000000000000000  0.1934435946999115  0.3338896867350427
  0.0000000000000000  0.6934435946999115  0.3338896867350427
  0.5000000000000000  0.6934435946999115  0.3338896867350427
  0.0000000000000000  0.1934435946999115  0.8338896867350427
  0.5000000000000000  0.1934435946999115  0.8338896867350427
  0.0000000000000000  0.6934435946999115  0.8338896867350427
  0.5000000000000000  0.6934435946999115  0.8338896867350427
  0.0000000000000000  0.3065564053000884  0.3338896867350427
  0.5000000000000000  0.3065564053000884  0.3338896867350427
  0.0000000000000000  0.8065564053000884  0.3338896867350427
  0.5000000000000000  0.8065564053000884  0.3338896867350427
  0.0000000000000000  0.3065564053000884  0.8338896867350427
  0.5000000000000000  0.3065564053000884  0.8338896867350427
  0.0000000000000000  0.8065564053000884  0.8338896867350427
  0.5000000000000000  0.8065564053000884  0.8338896867350427
  0.2500000000000000  0.0565564053000885  0.1661103132649571
  0.7500000000000000  0.0565564053000885  0.1661103132649571
  0.2500000000000000  0.5565564053000885  0.1661103132649571
  0.7500000000000000  0.5565564053000885  0.1661103132649571
  0.2500000000000000  0.0565564053000885  0.6661103132649572
  0.7500000000000000  0.0565564053000885  0.6661103132649572
  0.2500000000000000  0.5565564053000885  0.6661103132649572
  0.7500000000000000  0.5565564053000885  0.6661103132649572
  0.2500000000000000  0.4434435946999116  0.1661103132649571
  0.7500000000000000  0.4434435946999116  0.1661103132649571
  0.2500000000000000  0.9434435946999116  0.1661103132649571
  0.7500000000000000  0.9434435946999116  0.1661103132649571
  0.2500000000000000  0.4434435946999116  0.6661103132649572
  0.7500000000000000  0.4434435946999116  0.6661103132649572
  0.2500000000000000  0.9434435946999116  0.6661103132649572
  0.7500000000000000  0.9434435946999116  0.6661103132649572
