<?xml version="1.0" encoding="ISO-8859-1"?>
<modeling>
 <generator>
  <i name="program" type="string">vasp </i>
  <i name="version" type="string">5.4.4.18Apr17-6-g9f103f2a35  </i>
  <i name="subversion" type="string">(build Aug 16 2020 16:33:06) complex            parallel </i>
  <i name="platform" type="string">LinuxIFC </i>
  <i name="date" type="string">2026 08 15 </i>
  <i name="time" type="string">15:54:23 </i>
 </generator>
 <incar>
  <i type="string" name="PREC">accurate</i>
  <i type="logical" name="ADDGRID"> T  </i>
  <i type="int" name="IBRION">    -1</i>
  <i name="EDIFF">      0.00000001</i>
  <i type="int" name="ISYM">     0</i>
  <i name="ENCUT">    500.00000000</i>
  <i type="logical" name="LREAL"> F  </i>
  <i type="int" name="ISMEAR">     0</i>
  <i name="SIGMA">      0.05000000</i>
  <i type="logical" name="LWAVE"> F  </i>
  <i type="logical" name="LCHARG"> F  </i>
  <v type="int" name="KPOINT_BSE">    -1     0     0     0</v>
 </incar>
 <structure name="primitive_cell" >
  <crystal>
   <varray name="basis" >
    <v>       0.00000000      10.93716070      10.93716070 </v>
    <v>      10.93716070       0.00000000      10.93716070 </v>
    <v>      10.93716070      10.93716070       0.00000000 </v>
   </varray>
   <i name="volume">   2616.63878844 </i>
   <varray name="rec_basis" >
    <v>      -0.04571570       0.04571570       0.04571570 </v>
    <v>       0.04571570      -0.04571570       0.04571570 </v>
    <v>       0.04571570       0.04571570      -0.04571570 </v>
   </varray>
  </crystal>
  <varray name="positions" >
   <v>       0.06295716       0.06204284       0.06295716 </v>
   <v>       0.25000000       0.00000000       0.00000000 </v>
   <v>       0.00000000       0.00000000       0.25000000 </v>
   <v>       0.00000000       0.00000000       0.00000000 </v>
   <v>       0.00000000       0.25000000       0.00000000 </v>
   <v>       0.31250000       0.06250000       0.06250000 </v>
   <v>       0.31250000      -0.18750000       0.06250000 </v>
   <v>       0.06250000       0.06250000       0.31250000 </v>
   <v>       0.06250000      -0.18750000       0.31250000 </v>
   <v>       0.06250000       0.31250000       0.06250000 </v>
   <v>       0.06250000      -0.18750000       0.06250000 </v>
   <v>      -0.18750000       0.06250000       0.31250000 </v>
   <v>       0.31250000       0.06250000      -0.18750000 </v>
   <v>      -0.18750000       0.06250000       0.06250000 </v>
   <v>      -0.18750000       0.31250000       0.06250000 </v>
   <v>       0.06250000       0.06250000      -0.18750000 </v>
   <v>       0.06250000       0.31250000      -0.18750000 </v>
   <v>       0.25000000       0.00000000       0.25000000 </v>
   <v>       0.25000000      -0.25000000       0.25000000 </v>
   <v>       0.25000000       0.25000000       0.00000000 </v>
   <v>       0.25000000      -0.25000000       0.00000000 </v>
   <v>       0.00000000       0.25000000       0.25000000 </v>
   <v>       0.00000000      -0.25000000       0.25000000 </v>
   <v>      -0.25000000       0.25000000       0.25000000 </v>
   <v>       0.25000000       0.25000000      -0.25000000 </v>
   <v>      -0.25000000       0.00000000       0.25000000 </v>
   <v>       0.25000000       0.00000000      -0.25000000 </v>
   <v>      -0.25000000       0.25000000       0.00000000 </v>
   <v>       0.00000000       0.25000000      -0.25000000 </v>
   <v>       0.31250000      -0.18750000       0.31250000 </v>
   <v>      -0.18750000       0.31250000       0.31250000 </v>
   <v>      -0.18750000      -0.18750000       0.31250000 </v>
   <v>       0.31250000       0.31250000      -0.18750000 </v>
   <v>       0.31250000      -0.18750000      -0.18750000 </v>
   <v>      -0.18750000       0.31250000      -0.18750000 </v>
   <v>       0.49954284       0.00045716      -0.00045716 </v>
   <v>      -0.50000000      -0.25000000       0.00000000 </v>
   <v>       0.00000000       0.00000000      -0.50000000 </v>
   <v>       0.00000000      -0.25000000      -0.50000000 </v>
   <v>      -0.25000000       0.00000000      -0.50000000 </v>
   <v>      -0.50000000       0.00000000      -0.25000000 </v>
   <v>       0.00000000      -0.50000000       0.00000000 </v>
   <v>       0.00000000      -0.25000000       0.00000000 </v>
   <v>      -0.25000000      -0.50000000       0.00000000 </v>
   <v>       0.00000000      -0.50000000      -0.25000000 </v>
   <v>      -0.25000000       0.00000000       0.00000000 </v>
   <v>       0.00000000       0.00000000      -0.25000000 </v>
   <v>      -0.43750000      -0.18750000       0.06250000 </v>
   <v>       0.31250000       0.06250000       0.31250000 </v>
   <v>       0.31250000      -0.43750000       0.31250000 </v>
   <v>       0.06250000      -0.18750000      -0.43750000 </v>
   <v>       0.31250000      -0.43750000       0.06250000 </v>
   <v>       0.06250000       0.31250000       0.31250000 </v>
   <v>      -0.18750000       0.06250000      -0.43750000 </v>
   <v>      -0.43750000      -0.18750000      -0.18750000 </v>
   <v>       0.31250000       0.31250000       0.06250000 </v>
   <v>       0.06250000      -0.43750000       0.31250000 </v>
   <v>      -0.18750000      -0.18750000      -0.43750000 </v>
   <v>      -0.43750000       0.06250000      -0.18750000 </v>
   <v>      -0.18750000      -0.43750000       0.06250000 </v>
   <v>      -0.18750000      -0.18750000       0.06250000 </v>
   <v>      -0.43750000       0.06250000       0.31250000 </v>
   <v>      -0.43750000       0.31250000       0.31250000 </v>
   <v>       0.31250000       0.06250000      -0.43750000 </v>
   <v>       0.31250000       0.31250000      -0.43750000 </v>
   <v>       0.06250000      -0.43750000      -0.18750000 </v>
   <v>       0.06250000      -0.18750000      -0.18750000 </v>
   <v>      -0.43750000       0.31250000       0.06250000 </v>
   <v>       0.06250000       0.31250000      -0.43750000 </v>
   <v>      -0.18750000       0.06250000      -0.18750000 </v>
   <v>      -0.18750000      -0.43750000      -0.18750000 </v>
   <v>      -0.50000000      -0.25000000       0.25000000 </v>
   <v>       0.25000000      -0.25000000      -0.50000000 </v>
   <v>       0.25000000       0.25000000       0.25000000 </v>
   <v>       0.25000000      -0.50000000       0.25000000 </v>
   <v>      -0.25000000       0.25000000      -0.50000000 </v>
   <v>      -0.50000000       0.25000000      -0.25000000 </v>
   <v>      -0.25000000      -0.25000000      -0.50000000 </v>
   <v>      -0.50000000      -0.25000000      -0.25000000 </v>
   <v>       0.25000000      -0.50000000      -0.25000000 </v>
   <v>      -0.25000000      -0.50000000       0.25000000 </v>
   <v>      -0.25000000      -0.25000000       0.25000000 </v>
   <v>       0.25000000      -0.25000000      -0.25000000 </v>
   <v>       0.25000000       0.25000000      -0.50000000 </v>
   <v>      -0.50000000       0.25000000       0.25000000 </v>
   <v>      -0.25000000       0.25000000      -0.25000000 </v>
   <v>      -0.25000000      -0.50000000      -0.25000000 </v>
   <v>      -0.43750000       0.06250000       0.06250000 </v>
   <v>      -0.43750000      -0.43750000       0.06250000 </v>
   <v>       0.06250000       0.06250000      -0.43750000 </v>
   <v>       0.06250000      -0.43750000      -0.43750000 </v>
   <v>       0.06250000      -0.43750000       0.06250000 </v>
   <v>      -0.43750000       0.06250000      -0.43750000 </v>
   <v>      -0.50000000       0.00000000       0.25000000 </v>
   <v>       0.25000000       0.00000000      -0.50000000 </v>
   <v>      -0.50000000      -0.50000000       0.25000000 </v>
   <v>       0.25000000      -0.50000000      -0.50000000 </v>
   <v>      -0.50000000       0.25000000       0.00000000 </v>
   <v>      -0.50000000      -0.50000000       0.00000000 </v>
   <v>       0.00000000       0.25000000      -0.50000000 </v>
   <v>       0.00000000      -0.50000000      -0.50000000 </v>
   <v>       0.25000000      -0.50000000       0.00000000 </v>
   <v>       0.00000000      -0.50000000       0.25000000 </v>
   <v>      -0.50000000       0.00000000      -0.50000000 </v>
   <v>      -0.50000000       0.25000000      -0.50000000 </v>
   <v>      -0.43750000      -0.43750000       0.31250000 </v>
   <v>      -0.43750000      -0.18750000       0.31250000 </v>
   <v>       0.31250000      -0.43750000      -0.43750000 </v>
   <v>       0.31250000      -0.18750000      -0.43750000 </v>
   <v>      -0.18750000       0.31250000      -0.43750000 </v>
   <v>      -0.18750000      -0.43750000      -0.43750000 </v>
   <v>      -0.43750000       0.31250000      -0.18750000 </v>
   <v>      -0.43750000      -0.43750000      -0.18750000 </v>
   <v>      -0.18750000      -0.43750000       0.31250000 </v>
   <v>      -0.43750000       0.31250000      -0.43750000 </v>
   <v>      -0.43750000      -0.18750000      -0.43750000 </v>
   <v>       0.31250000      -0.43750000      -0.18750000 </v>
   <v>      -0.25000000      -0.25000000       0.00000000 </v>
   <v>       0.00000000      -0.25000000      -0.25000000 </v>
   <v>      -0.25000000       0.00000000      -0.25000000 </v>
   <v>      -0.25000000      -0.25000000      -0.25000000 </v>
   <v>       0.31250000       0.31250000       0.31250000 </v>
   <v>      -0.18750000      -0.18750000      -0.18750000 </v>
   <v>      -0.50000000      -0.50000000      -0.50000000 </v>
   <v>      -0.50000000      -0.25000000      -0.50000000 </v>
   <v>      -0.25000000      -0.50000000      -0.50000000 </v>
   <v>      -0.50000000      -0.50000000      -0.25000000 </v>
   <v>      -0.43750000      -0.43750000      -0.43750000 </v>
  </varray>
 </structure>
 <varray name="primitive_index" >
  <v type="int" >        1 </v>
  <v type="int" >       66 </v>
  <v type="int" >       81 </v>
  <v type="int" >       65 </v>
  <v type="int" >       69 </v>
  <v type="int" >        2 </v>
  <v type="int" >       14 </v>
  <v type="int" >       17 </v>
  <v type="int" >       29 </v>
  <v type="int" >        5 </v>
  <v type="int" >       13 </v>
  <v type="int" >       20 </v>
  <v type="int" >       50 </v>
  <v type="int" >        4 </v>
  <v type="int" >        8 </v>
  <v type="int" >       49 </v>
  <v type="int" >       53 </v>
  <v type="int" >       82 </v>
  <v type="int" >       94 </v>
  <v type="int" >       70 </v>
  <v type="int" >       78 </v>
  <v type="int" >       85 </v>
  <v type="int" >       93 </v>
  <v type="int" >       88 </v>
  <v type="int" >      118 </v>
  <v type="int" >       84 </v>
  <v type="int" >      114 </v>
  <v type="int" >       72 </v>
  <v type="int" >      117 </v>
  <v type="int" >       30 </v>
  <v type="int" >       24 </v>
  <v type="int" >       32 </v>
  <v type="int" >       54 </v>
  <v type="int" >       62 </v>
  <v type="int" >       56 </v>
  <v type="int" >       67 </v>
  <v type="int" >       79 </v>
  <v type="int" >       97 </v>
  <v type="int" >      109 </v>
  <v type="int" >      100 </v>
  <v type="int" >      115 </v>
  <v type="int" >       73 </v>
  <v type="int" >       77 </v>
  <v type="int" >       76 </v>
  <v type="int" >      121 </v>
  <v type="int" >       68 </v>
  <v type="int" >      113 </v>
  <v type="int" >       15 </v>
  <v type="int" >       18 </v>
  <v type="int" >       26 </v>
  <v type="int" >       45 </v>
  <v type="int" >       10 </v>
  <v type="int" >       21 </v>
  <v type="int" >       36 </v>
  <v type="int" >       63 </v>
  <v type="int" >        6 </v>
  <v type="int" >       25 </v>
  <v type="int" >       48 </v>
  <v type="int" >       51 </v>
  <v type="int" >       12 </v>
  <v type="int" >       16 </v>
  <v type="int" >       19 </v>
  <v type="int" >       23 </v>
  <v type="int" >       34 </v>
  <v type="int" >       38 </v>
  <v type="int" >       57 </v>
  <v type="int" >       61 </v>
  <v type="int" >        7 </v>
  <v type="int" >       37 </v>
  <v type="int" >       52 </v>
  <v type="int" >       60 </v>
  <v type="int" >       95 </v>
  <v type="int" >      110 </v>
  <v type="int" >       86 </v>
  <v type="int" >       90 </v>
  <v type="int" >      104 </v>
  <v type="int" >      119 </v>
  <v type="int" >      112 </v>
  <v type="int" >      127 </v>
  <v type="int" >      122 </v>
  <v type="int" >       92 </v>
  <v type="int" >       96 </v>
  <v type="int" >      126 </v>
  <v type="int" >      102 </v>
  <v type="int" >       87 </v>
  <v type="int" >      120 </v>
  <v type="int" >      124 </v>
  <v type="int" >        3 </v>
  <v type="int" >       11 </v>
  <v type="int" >       33 </v>
  <v type="int" >       41 </v>
  <v type="int" >        9 </v>
  <v type="int" >       35 </v>
  <v type="int" >       83 </v>
  <v type="int" >       98 </v>
  <v type="int" >       91 </v>
  <v type="int" >      106 </v>
  <v type="int" >       71 </v>
  <v type="int" >       75 </v>
  <v type="int" >      101 </v>
  <v type="int" >      105 </v>
  <v type="int" >       74 </v>
  <v type="int" >       89 </v>
  <v type="int" >       99 </v>
  <v type="int" >      103 </v>
  <v type="int" >       27 </v>
  <v type="int" >       31 </v>
  <v type="int" >       42 </v>
  <v type="int" >       46 </v>
  <v type="int" >       40 </v>
  <v type="int" >       44 </v>
  <v type="int" >       55 </v>
  <v type="int" >       59 </v>
  <v type="int" >       28 </v>
  <v type="int" >       39 </v>
  <v type="int" >       47 </v>
  <v type="int" >       58 </v>
  <v type="int" >       80 </v>
  <v type="int" >      125 </v>
  <v type="int" >      116 </v>
  <v type="int" >      128 </v>
  <v type="int" >       22 </v>
  <v type="int" >       64 </v>
  <v type="int" >      107 </v>
  <v type="int" >      111 </v>
  <v type="int" >      108 </v>
  <v type="int" >      123 </v>
  <v type="int" >       43 </v>
 </varray>
 <kpoints>
  <generation param="Gamma">
   <v type="int" name="divisions">       1        1        1 </v>
   <v name="usershift">      0.00000000       0.00000000       0.00000000 </v>
   <v name="genvec1">      1.00000000       0.00000000       0.00000000 </v>
   <v name="genvec2">      0.00000000       1.00000000       0.00000000 </v>
   <v name="genvec3">      0.00000000       0.00000000       1.00000000 </v>
   <v name="shift">      0.00000000       0.00000000       0.00000000 </v>
  </generation>
  <varray name="kpointlist" >
   <v>       0.00000000       0.00000000       0.00000000 </v>
  </varray>
  <varray name="weights" >
   <v>       1.00000000 </v>
  </varray>
 </kpoints>
 <parameters>
  <separator name="general" >
   <i type="string" name="SYSTEM">unknown system</i>
   <i type="logical" name="LCOMPAT"> F  </i>
  </separator>
  <separator name="electronic" >
   <i type="string" name="PREC">accura</i>
   <i name="ENMAX">    500.00000000</i>
   <i name="ENAUG">    322.06900000</i>
   <i name="EDIFF">      0.00000001</i>
   <i type="int" name="IALGO">    38</i>
   <i type="int" name="IWAVPR">    10</i>
   <i type="int" name="NBANDS">   322</i>
   <i name="NELECT">    512.00000000</i>
   <i type="int" name="TURBO">     0</i>
   <i type="int" name="IRESTART">     0</i>
   <i type="int" name="NREBOOT">     0</i>
   <i type="int" name="NMIN">     0</i>
   <i name="EREF">      0.00000000</i>
   <separator name="electronic smearing" >
    <i type="int" name="ISMEAR">     0</i>
    <i name="SIGMA">      0.05000000</i>
    <i name="KSPACING">      0.50000000</i>
    <i type="logical" name="KGAMMA"> T  </i>
   </separator>
   <separator name="electronic projectors" >
    <i type="logical" name="LREAL"> F  </i>
    <v name="ROPT">      0.00000000</v>
    <i type="int" name="LMAXPAW">  -100</i>
    <i type="int" name="LMAXMIX">     2</i>
    <i type="logical" name="NLSPLINE"> F  </i>
   </separator>
   <separator name="electronic startup" >
    <i type="int" name="ISTART">     0</i>
    <i type="int" name="ICHARG">     2</i>
    <i type="int" name="INIWAV">     1</i>
   </separator>
   <separator name="electronic spin" >
    <i type="int" name="ISPIN">     1</i>
    <i type="logical" name="LNONCOLLINEAR"> F  </i>
    <v name="MAGMOM">      1.00000000      1.00000000      1.00000000      1.00000000      1.00000000      1.00000000      1.00000000      1.00000000      1.00000000      1.00000000      1.00000000      1.00000000      1.00000000      1.00000000      1.00000000      1.00000000      1.00000000      1.00000000      1.00000000      1.00000000
      1.00000000      1.00000000      1.00000000      1.00000000      1.00000000      1.00000000      1.00000000      1.00000000      1.00000000      1.00000000      1.00000000      1.00000000      1.00000000      1.00000000      1.00000000      1.00000000      1.00000000      1.00000000      1.00000000      1.00000000
      1.00000000      1.00000000      1.00000000      1.00000000      1.00000000      1.00000000      1.00000000      1.00000000      1.00000000      1.00000000      1.00000000      1.00000000      1.00000000      1.00000000      1.00000000      1.00000000      1.00000000      1.00000000      1.00000000      1.00000000
      1.00000000      1.00000000      1.00000000      1.00000000      1.00000000      1.00000000      1.00000000      1.00000000      1.00000000      1.00000000      1.00000000      1.00000000      1.00000000      1.00000000      1.00000000      1.00000000      1.00000000      1.00000000      1.00000000      1.00000000
      1.00000000      1.00000000      1.00000000      1.00000000      1.00000000      1.00000000      1.00000000      1.00000000      1.00000000      1.00000000      1.00000000      1.00000000      1.00000000      1.00000000      1.00000000      1.00000000      1.00000000      1.00000000      1.00000000      1.00000000
      1.00000000      1.00000000      1.00000000      1.00000000      1.00000000      1.00000000      1.00000000      1.00000000      1.00000000      1.00000000      1.00000000      1.00000000      1.00000000      1.00000000      1.00000000      1.00000000      1.00000000      1.00000000      1.00000000      1.00000000
      1.00000000      1.00000000      1.00000000      1.00000000      1.00000000      1.00000000      1.00000000      1.00000000</v>
    <i name="NUPDOWN">     -1.00000000</i>
    <i type="logical" name="LSORBIT"> F  </i>
    <v name="SAXIS">      0.00000000      0.00000000      1.00000000</v>
    <i type="logical" name="LSPIRAL"> F  </i>
    <v name="QSPIRAL">      0.00000000      0.00000000      0.00000000</v>
    <i type="logical" name="LZEROZ"> F  </i>
   </separator>
   <separator name="electronic exchange-correlation" >
    <i type="logical" name="LASPH"> F  </i>
    <i type="logical" name="LMETAGGA"> F  </i>
   </separator>
   <separator name="electronic convergence" >
    <i type="int" name="NELM">    60</i>
    <i type="int" name="NELMDL">    -5</i>
    <i type="int" name="NELMIN">     2</i>
    <i name="ENINI">    500.00000000</i>
    <separator name="electronic convergence detail" >
     <i type="logical" name="LDIAG"> T  </i>
     <i type="logical" name="LSUBROT"> F  </i>
     <i name="WEIMIN">      0.00000000</i>
     <i name="EBREAK">      0.00000000</i>
     <i name="DEPER">      0.30000000</i>
     <i type="int" name="NRMM">     4</i>
     <i name="TIME">      0.40000000</i>
    </separator>
   </separator>
   <separator name="electronic mixer" >
    <i name="AMIX">      0.40000000</i>
    <i name="BMIX">      1.00000000</i>
    <i name="AMIN">      0.10000000</i>
    <i name="AMIX_MAG">      1.60000000</i>
    <i name="BMIX_MAG">      1.00000000</i>
    <separator name="electronic mixer details" >
     <i type="int" name="IMIX">     4</i>
     <i type="logical" name="MIXFIRST"> F  </i>
     <i type="int" name="MAXMIX">   -45</i>
     <i name="WC">    100.00000000</i>
     <i type="int" name="INIMIX">     1</i>
     <i type="int" name="MIXPRE">     1</i>
     <i type="int" name="MREMOVE">     5</i>
    </separator>
   </separator>
   <separator name="electronic dipolcorrection" >
    <i type="logical" name="LDIPOL"> F  </i>
    <i type="logical" name="LMONO"> F  </i>
    <i type="int" name="IDIPOL">     0</i>
    <i name="EPSILON">      1.00000000</i>
    <v name="DIPOL">   -100.00000000   -100.00000000   -100.00000000</v>
    <i name="EFIELD">      0.00000000</i>
   </separator>
  </separator>
  <separator name="grids" >
   <i type="int" name="NGX">   120</i>
   <i type="int" name="NGY">   120</i>
   <i type="int" name="NGZ">   120</i>
   <i type="int" name="NGXF">   240</i>
   <i type="int" name="NGYF">   240</i>
   <i type="int" name="NGZF">   240</i>
   <i type="logical" name="ADDGRID"> T  </i>
  </separator>
  <separator name="ionic" >
   <i type="int" name="NSW">     0</i>
   <i type="int" name="IBRION">    -1</i>
   <i type="int" name="MDALGO">     0</i>
   <i type="int" name="ISIF">     2</i>
   <i name="PSTRESS">      0.00000000</i>
   <i name="EDIFFG">      0.00000010</i>
   <i type="int" name="NFREE">     0</i>
   <i name="POTIM">      0.50000000</i>
   <i name="SMASS">     -3.00000000</i>
   <i name="SCALEE">      1.00000000</i>
  </separator>
  <separator name="ionic md" >
   <i name="TEBEG">      0.00010000</i>
   <i name="TEEND">      0.00010000</i>
   <i type="int" name="NBLOCK">     1</i>
   <i type="int" name="KBLOCK">     1</i>
   <i type="int" name="NPACO">   256</i>
   <i name="APACO">     16.00000000</i>
  </separator>
  <separator name="symmetry" >
   <i type="int" name="ISYM">     0</i>
   <i name="SYMPREC">      0.00001000</i>
  </separator>
  <separator name="dos" >
   <i type="int" name="LORBIT">     0</i>
   <v name="RWIGS">     -1.00000000</v>
   <i type="int" name="NEDOS">   301</i>
   <i name="EMIN">     10.00000000</i>
   <i name="EMAX">    -10.00000000</i>
   <i name="EFERMI">      0.00000000</i>
  </separator>
  <separator name="writing" >
   <i type="int" name="NWRITE">     2</i>
   <i type="logical" name="LWAVE"> F  </i>
   <i type="logical" name="LDOWNSAMPLE"> F  </i>
   <i type="logical" name="LCHARG"> F  </i>
   <i type="logical" name="LPARD"> F  </i>
   <i type="logical" name="LVTOT"> F  </i>
   <i type="logical" name="LVHAR"> F  </i>
   <i type="logical" name="LELF"> F  </i>
   <i type="logical" name="LOPTICS"> F  </i>
   <v name="STM">      0.00000000      0.00000000      0.00000000      0.00000000      0.00000000      0.00000000      0.00000000</v>
  </separator>
  <separator name="performance" >
   <i type="int" name="NPAR">     2</i>
   <i type="int" name="NSIM">     4</i>
   <i type="int" name="NBLK">    -1</i>
   <i type="logical" name="LPLANE"> T  </i>
   <i type="logical" name="LSCALAPACK"> T  </i>
   <i type="logical" name="LSCAAWARE"> F  </i>
   <i type="logical" name="LSCALU"> F  </i>
   <i type="logical" name="LASYNC"> F  </i>
   <i type="logical" name="LORBITALREAL"> F  </i>
  </separator>
  <separator name="miscellaneous" >
   <i type="int" name="IDIOT">     3</i>
   <i type="int" name="ISPECIAL">     0</i>
   <i type="logical" name="LMUSIC"> F  </i>
   <v name="POMASS">     28.08500000</v>
   <v name="DARWINR">      0.00000000</v>
   <v name="DARWINV">      1.00000000</v>
   <i type="logical" name="LCORR"> T  </i>
  </separator>
  <i type="logical" name="GGA_COMPAT"> T  </i>
  <i type="logical" name="LBERRY"> F  </i>
  <i type="int" name="ICORELEVEL">     0</i>
  <i type="logical" name="LDAU"> F  </i>
  <i type="int" name="I_CONSTRAINED_M">     0</i>
  <separator name="electronic exchange-correlation" >
   <i type="string" name="GGA">--</i>
   <i type="int" name="VOSKOWN">     0</i>
   <i type="logical" name="LHFCALC"> F  </i>
   <i type="string" name="PRECFOCK"></i>
   <i type="logical" name="LSYMGRAD"> F  </i>
   <i type="logical" name="LHFONE"> F  </i>
   <i type="logical" name="LRHFCALC"> F  </i>
   <i type="logical" name="LTHOMAS"> F  </i>
   <i type="logical" name="LMODELHF"> F  </i>
   <i name="ENCUT4O">     -1.00000000</i>
   <i type="int" name="EXXOEP">     0</i>
   <i type="int" name="FOURORBIT">     0</i>
   <i name="AEXX">      0.00000000</i>
   <i name="HFALPHA">      0.00000000</i>
   <i name="MCALPHA">      0.00000000</i>
   <i name="ALDAX">      1.00000000</i>
   <i name="AGGAX">      1.00000000</i>
   <i name="ALDAC">      1.00000000</i>
   <i name="AGGAC">      1.00000000</i>
   <i type="int" name="NKREDX">     1</i>
   <i type="int" name="NKREDY">     1</i>
   <i type="int" name="NKREDZ">     1</i>
   <i type="logical" name="SHIFTRED"> F  </i>
   <i type="logical" name="ODDONLY"> F  </i>
   <i type="logical" name="EVENONLY"> F  </i>
   <i type="int" name="LMAXFOCK">     0</i>
   <i type="int" name="NMAXFOCKAE">     0</i>
   <i type="logical" name="LFOCKAEDFT"> F  </i>
   <i name="HFSCREEN">      0.00000000</i>
   <i name="HFSCREENC">      0.00000000</i>
   <i type="int" name="NBANDSGWLOW">     0</i>
  </separator>
  <separator name="vdW DFT" >
   <i type="logical" name="LUSE_VDW"> F  </i>
   <i name="Zab_VDW">     -0.84910000</i>
   <i name="PARAM1">      0.12340000</i>
   <i name="PARAM2">      1.00000000</i>
   <i name="PARAM3">      0.00000000</i>
  </separator>
  <separator name="model GW" >
   <i type="int" name="MODEL_GW">     0</i>
   <i name="MODEL_EPS0">     12.26549432</i>
   <i name="MODEL_ALPHA">      1.00000000</i>
  </separator>
  <separator name="linear response parameters" >
   <i type="logical" name="LEPSILON"> F  </i>
   <i type="logical" name="LRPA"> F  </i>
   <i type="logical" name="LNABLA"> F  </i>
   <i type="logical" name="LVEL"> F  </i>
   <i type="int" name="KINTER">     0</i>
   <i name="CSHIFT">      0.10000000</i>
   <i name="OMEGAMAX">     -1.00000000</i>
   <i name="DEG_THRESHOLD">      0.00200000</i>
   <i name="RTIME">     -0.10000000</i>
   <i name="WPLASMAI">      0.00000000</i>
   <v name="DFIELD">      0.00000000      0.00000000      0.00000000</v>
   <v name="WPLASMA">      0.00000000      0.00000000      0.00000000      0.00000000      0.00000000      0.00000000      0.00000000      0.00000000      0.00000000</v>
  </separator>
  <separator name="orbital magnetization" >
   <i type="logical" name="NUCIND"> F  </i>
   <v name="MAGPOS">      0.00000000      0.00000000      0.00000000</v>
   <i type="logical" name="LNICSALL"> T  </i>
   <i type="logical" name="ORBITALMAG"> F  </i>
   <i type="logical" name="LMAGBLOCH"> F  </i>
   <i type="logical" name="LCHIMAG"> F  </i>
   <i type="logical" name="LGAUGE"> T  </i>
   <i type="int" name="MAGATOM">     0</i>
   <v name="MAGDIPOL">      0.00000000      0.00000000      0.00000000</v>
   <v name="AVECCONST">      0.00000000      0.00000000      0.00000000</v>
  </separator>
  <separator name="response functions" >
   <i type="logical" name="LADDER"> F  </i>
   <i type="logical" name="LRPAFORCE"> F  </i>
   <i type="logical" name="LFXC"> F  </i>
   <i type="logical" name="LHARTREE"> T  </i>
   <i type="int" name="IBSE">     0</i>
   <v type="int" name="KPOINT">    -1     0     0     0</v>
   <i type="logical" name="LTCTE"> F  </i>
   <i type="logical" name="LTETE"> F  </i>
   <i type="logical" name="LTRIPLET"> F  </i>
   <i type="logical" name="LFXCEPS"> F  </i>
   <i type="logical" name="LFXHEG"> F  </i>
   <i type="int" name="NATURALO">     2</i>
   <i type="logical" name="L2ORDER"> F  </i>
   <i type="logical" name="LMP2LT"> F  </i>
   <i type="logical" name="LUSEW"> F  </i>
   <i name="ENCUTGW">     -2.00000000</i>
   <i name="ENCUTGWSOFT">     -2.00000000</i>
   <i name="ENCUTLF">     -1.00000000</i>
   <i type="int" name="LMAXMP2">    -1</i>
   <i name="SCISSOR">      0.00000000</i>
   <i type="int" name="NOMEGA">     0</i>
   <i type="int" name="NOMEGAR">     0</i>
   <i type="int" name="NBANDSGW">    -1</i>
   <i type="int" name="NBANDSO">    -1</i>
   <i type="int" name="NBANDSV">    -1</i>
   <i type="int" name="NELM">     1</i>
   <i type="int" name="NELMHF">     1</i>
   <i type="int" name="DIM">     3</i>
   <i type="int" name="ANTIRES">     0</i>
   <i name="OMEGAMAX">    -30.00000000</i>
   <i name="OMEGAMIN">    -30.00000000</i>
   <i name="OMEGATL">   -200.00000000</i>
   <i type="int" name="OMEGAGRID">   140</i>
   <i name="CSHIFT">     -0.10000000</i>
   <i type="logical" name="SELFENERGY"> F  </i>
   <i type="logical" name="LSPECTRAL"> F  </i>
   <i type="logical" name="LSPECTRALGW"> F  </i>
   <i type="logical" name="LSINGLES"> F  </i>
   <i type="logical" name="LFERMIGW"> F  </i>
   <i type="logical" name="ODDONLYGW"> F  </i>
   <i type="logical" name="EVENONLYGW"> F  </i>
   <i type="int" name="NKREDLFX">     1</i>
   <i type="int" name="NKREDLFY">     1</i>
   <i type="int" name="NKREDLFZ">     1</i>
   <i type="int" name="MAXMEM">  2800</i>
   <i type="int" name="TELESCOPE">     0</i>
   <i type="int" name="TAUPAR">     1</i>
   <i type="int" name="OMEGAPAR">    -1</i>
   <i name="LAMBDA">      1.00000000</i>
  </separator>
  <separator name="External order field" >
   <i name="OFIELD_KAPPA">      0.00000000</i>
   <v name="OFIELD_K">      0.00000000      0.00000000      0.00000000</v>
   <i name="OFIELD_Q6_NEAR">      0.00000000</i>
   <i name="OFIELD_Q6_FAR">      0.00000000</i>
   <i name="OFIELD_A">      0.00000000</i>
  </separator>
 </parameters>
 <atominfo>
  <atoms>     128 </atoms>
  <types>       1 </types>
  <array name="atoms" >
   <dimension dim="1">ion</dimension>
   <field type="string">element</field>
   <field type="int">atomtype</field>
   <set>
    <rc><c>Si</c><c>   1</c></rc>
    <rc><c>Si</c><c>   1</c></rc>
    <rc><c>Si</c><c>   1</c></rc>
    <rc><c>Si</c><c>   1</c></rc>
    <rc><c>Si</c><c>   1</c></rc>
    <rc><c>Si</c><c>   1</c></rc>
    <rc><c>Si</c><c>   1</c></rc>
    <rc><c>Si</c><c>   1</c></rc>
    <rc><c>Si</c><c>   1</c></rc>
    <rc><c>Si</c><c>   1</c></rc>
    <rc><c>Si</c><c>   1</c></rc>
    <rc><c>Si</c><c>   1</c></rc>
    <rc><c>Si</c><c>   1</c></rc>
    <rc><c>Si</c><c>   1</c></rc>
    <rc><c>Si</c><c>   1</c></rc>
    <rc><c>Si</c><c>   1</c></rc>
    <rc><c>Si</c><c>   1</c></rc>
    <rc><c>Si</c><c>   1</c></rc>
    <rc><c>Si</c><c>   1</c></rc>
    <rc><c>Si</c><c>   1</c></rc>
    <rc><c>Si</c><c>   1</c></rc>
    <rc><c>Si</c><c>   1</c></rc>
    <rc><c>Si</c><c>   1</c></rc>
    <rc><c>Si</c><c>   1</c></rc>
    <rc><c>Si</c><c>   1</c></rc>
    <rc><c>Si</c><c>   1</c></rc>
    <rc><c>Si</c><c>   1</c></rc>
    <rc><c>Si</c><c>   1</c></rc>
    <rc><c>Si</c><c>   1</c></rc>
    <rc><c>Si</c><c>   1</c></rc>
    <rc><c>Si</c><c>   1</c></rc>
    <rc><c>Si</c><c>   1</c></rc>
    <rc><c>Si</c><c>   1</c></rc>
    <rc><c>Si</c><c>   1</c></rc>
    <rc><c>Si</c><c>   1</c></rc>
    <rc><c>Si</c><c>   1</c></rc>
    <rc><c>Si</c><c>   1</c></rc>
    <rc><c>Si</c><c>   1</c></rc>
    <rc><c>Si</c><c>   1</c></rc>
    <rc><c>Si</c><c>   1</c></rc>
    <rc><c>Si</c><c>   1</c></rc>
    <rc><c>Si</c><c>   1</c></rc>
    <rc><c>Si</c><c>   1</c></rc>
    <rc><c>Si</c><c>   1</c></rc>
    <rc><c>Si</c><c>   1</c></rc>
    <rc><c>Si</c><c>   1</c></rc>
    <rc><c>Si</c><c>   1</c></rc>
    <rc><c>Si</c><c>   1</c></rc>
    <rc><c>Si</c><c>   1</c></rc>
    <rc><c>Si</c><c>   1</c></rc>
    <rc><c>Si</c><c>   1</c></rc>
    <rc><c>Si</c><c>   1</c></rc>
    <rc><c>Si</c><c>   1</c></rc>
    <rc><c>Si</c><c>   1</c></rc>
    <rc><c>Si</c><c>   1</c></rc>
    <rc><c>Si</c><c>   1</c></rc>
    <rc><c>Si</c><c>   1</c></rc>
    <rc><c>Si</c><c>   1</c></rc>
    <rc><c>Si</c><c>   1</c></rc>
    <rc><c>Si</c><c>   1</c></rc>
    <rc><c>Si</c><c>   1</c></rc>
    <rc><c>Si</c><c>   1</c></rc>
    <rc><c>Si</c><c>   1</c></rc>
    <rc><c>Si</c><c>   1</c></rc>
    <rc><c>Si</c><c>   1</c></rc>
    <rc><c>Si</c><c>   1</c></rc>
    <rc><c>Si</c><c>   1</c></rc>
    <rc><c>Si</c><c>   1</c></rc>
    <rc><c>Si</c><c>   1</c></rc>
    <rc><c>Si</c><c>   1</c></rc>
    <rc><c>Si</c><c>   1</c></rc>
    <rc><c>Si</c><c>   1</c></rc>
    <rc><c>Si</c><c>   1</c></rc>
    <rc><c>Si</c><c>   1</c></rc>
    <rc><c>Si</c><c>   1</c></rc>
    <rc><c>Si</c><c>   1</c></rc>
    <rc><c>Si</c><c>   1</c></rc>
    <rc><c>Si</c><c>   1</c></rc>
    <rc><c>Si</c><c>   1</c></rc>
    <rc><c>Si</c><c>   1</c></rc>
    <rc><c>Si</c><c>   1</c></rc>
    <rc><c>Si</c><c>   1</c></rc>
    <rc><c>Si</c><c>   1</c></rc>
    <rc><c>Si</c><c>   1</c></rc>
    <rc><c>Si</c><c>   1</c></rc>
    <rc><c>Si</c><c>   1</c></rc>
    <rc><c>Si</c><c>   1</c></rc>
    <rc><c>Si</c><c>   1</c></rc>
    <rc><c>Si</c><c>   1</c></rc>
    <rc><c>Si</c><c>   1</c></rc>
    <rc><c>Si</c><c>   1</c></rc>
    <rc><c>Si</c><c>   1</c></rc>
    <rc><c>Si</c><c>   1</c></rc>
    <rc><c>Si</c><c>   1</c></rc>
    <rc><c>Si</c><c>   1</c></rc>
    <rc><c>Si</c><c>   1</c></rc>
    <rc><c>Si</c><c>   1</c></rc>
    <rc><c>Si</c><c>   1</c></rc>
    <rc><c>Si</c><c>   1</c></rc>
    <rc><c>Si</c><c>   1</c></rc>
    <rc><c>Si</c><c>   1</c></rc>
    <rc><c>Si</c><c>   1</c></rc>
    <rc><c>Si</c><c>   1</c></rc>
    <rc><c>Si</c><c>   1</c></rc>
    <rc><c>Si</c><c>   1</c></rc>
    <rc><c>Si</c><c>   1</c></rc>
    <rc><c>Si</c><c>   1</c></rc>
    <rc><c>Si</c><c>   1</c></rc>
    <rc><c>Si</c><c>   1</c></rc>
    <rc><c>Si</c><c>   1</c></rc>
    <rc><c>Si</c><c>   1</c></rc>
    <rc><c>Si</c><c>   1</c></rc>
    <rc><c>Si</c><c>   1</c></rc>
    <rc><c>Si</c><c>   1</c></rc>
    <rc><c>Si</c><c>   1</c></rc>
    <rc><c>Si</c><c>   1</c></rc>
    <rc><c>Si</c><c>   1</c></rc>
    <rc><c>Si</c><c>   1</c></rc>
    <rc><c>Si</c><c>   1</c></rc>
    <rc><c>Si</c><c>   1</c></rc>
    <rc><c>Si</c><c>   1</c></rc>
    <rc><c>Si</c><c>   1</c></rc>
    <rc><c>Si</c><c>   1</c></rc>
    <rc><c>Si</c><c>   1</c></rc>
    <rc><c>Si</c><c>   1</c></rc>
    <rc><c>Si</c><c>   1</c></rc>
    <rc><c>Si</c><c>   1</c></rc>
    <rc><c>Si</c><c>   1</c></rc>
   </set>
  </array>
  <array name="atomtypes" >
   <dimension dim="1">type</dimension>
   <field type="int">atomspertype</field>
   <field type="string">element</field>
   <field>mass</field>
   <field>valence</field>
   <field type="string">pseudopotential</field>
   <set>
    <rc><c> 128</c><c>Si</c><c>     28.08500000</c><c>      4.00000000</c><c> PAW_PBE Si 05Jan2001                   </c></rc>
   </set>
  </array>
 </atominfo>
 <structure name="initialpos" >
  <crystal>
   <varray name="basis" >
    <v>       0.00000000      10.93716070      10.93716070 </v>
    <v>      10.93716070       0.00000000      10.93716070 </v>
    <v>      10.93716070      10.93716070       0.00000000 </v>
   </varray>
   <i name="volume">   2616.63878844 </i>
   <varray name="rec_basis" >
    <v>      -0.04571570       0.04571570       0.04571570 </v>
    <v>       0.04571570      -0.04571570       0.04571570 </v>
    <v>       0.04571570       0.04571570      -0.04571570 </v>
   </varray>
  </crystal>
  <varray name="positions" >
   <v>       0.06295716       0.06204284       0.06295716 </v>
   <v>       0.31250000       0.06250000       0.06250000 </v>
   <v>       0.56250000       0.06250000       0.06250000 </v>
   <v>       0.81250000       0.06250000       0.06250000 </v>
   <v>       0.06250000       0.31250000       0.06250000 </v>
   <v>       0.31250000       0.31250000       0.06250000 </v>
   <v>       0.56250000       0.31250000       0.06250000 </v>
   <v>       0.81250000       0.31250000       0.06250000 </v>
   <v>       0.06250000       0.56250000       0.06250000 </v>
   <v>       0.31250000       0.56250000       0.06250000 </v>
   <v>       0.56250000       0.56250000       0.06250000 </v>
   <v>       0.81250000       0.56250000       0.06250000 </v>
   <v>       0.06250000       0.81250000       0.06250000 </v>
   <v>       0.31250000       0.81250000       0.06250000 </v>
   <v>       0.56250000       0.81250000       0.06250000 </v>
   <v>       0.81250000       0.81250000       0.06250000 </v>
   <v>       0.06250000       0.06250000       0.31250000 </v>
   <v>       0.31250000       0.06250000       0.31250000 </v>
   <v>       0.56250000       0.06250000       0.31250000 </v>
   <v>       0.81250000       0.06250000       0.31250000 </v>
   <v>       0.06250000       0.31250000       0.31250000 </v>
   <v>       0.31250000       0.31250000       0.31250000 </v>
   <v>       0.56250000       0.31250000       0.31250000 </v>
   <v>       0.81250000       0.31250000       0.31250000 </v>
   <v>       0.06250000       0.56250000       0.31250000 </v>
   <v>       0.31250000       0.56250000       0.31250000 </v>
   <v>       0.56250000       0.56250000       0.31250000 </v>
   <v>       0.81250000       0.56250000       0.31250000 </v>
   <v>       0.06250000       0.81250000       0.31250000 </v>
   <v>       0.31250000       0.81250000       0.31250000 </v>
   <v>       0.56250000       0.81250000       0.31250000 </v>
   <v>       0.81250000       0.81250000       0.31250000 </v>
   <v>       0.06250000       0.06250000       0.56250000 </v>
   <v>       0.31250000       0.06250000       0.56250000 </v>
   <v>       0.56250000       0.06250000       0.56250000 </v>
   <v>       0.81250000       0.06250000       0.56250000 </v>
   <v>       0.06250000       0.31250000       0.56250000 </v>
   <v>       0.31250000       0.31250000       0.56250000 </v>
   <v>       0.56250000       0.31250000       0.56250000 </v>
   <v>       0.81250000       0.31250000       0.56250000 </v>
   <v>       0.06250000       0.56250000       0.56250000 </v>
   <v>       0.31250000       0.56250000       0.56250000 </v>
   <v>       0.56250000       0.56250000       0.56250000 </v>
   <v>       0.81250000       0.56250000       0.56250000 </v>
   <v>       0.06250000       0.81250000       0.56250000 </v>
   <v>       0.31250000       0.81250000       0.56250000 </v>
   <v>       0.56250000       0.81250000       0.56250000 </v>
   <v>       0.81250000       0.81250000       0.56250000 </v>
   <v>       0.06250000       0.06250000       0.81250000 </v>
   <v>       0.31250000       0.06250000       0.81250000 </v>
   <v>       0.56250000       0.06250000       0.81250000 </v>
   <v>       0.81250000       0.06250000       0.81250000 </v>
   <v>       0.06250000       0.31250000       0.81250000 </v>
   <v>       0.31250000       0.31250000       0.81250000 </v>
   <v>       0.56250000       0.31250000       0.81250000 </v>
   <v>       0.81250000       0.31250000       0.81250000 </v>
   <v>       0.06250000       0.56250000       0.81250000 </v>
   <v>       0.31250000       0.56250000       0.81250000 </v>
   <v>       0.56250000       0.56250000       0.81250000 </v>
   <v>       0.81250000       0.56250000       0.81250000 </v>
   <v>       0.06250000       0.81250000       0.81250000 </v>
   <v>       0.31250000       0.81250000       0.81250000 </v>
   <v>       0.56250000       0.81250000       0.81250000 </v>
   <v>       0.81250000       0.81250000       0.81250000 </v>
   <v>       0.00000000       0.00000000       0.00000000 </v>
   <v>       0.25000000       0.00000000       0.00000000 </v>
   <v>       0.49954284       0.00045716       0.99954284 </v>
   <v>       0.75000000       0.00000000       0.00000000 </v>
   <v>       0.00000000       0.25000000       0.00000000 </v>
   <v>       0.25000000       0.25000000       0.00000000 </v>
   <v>       0.50000000       0.25000000       0.00000000 </v>
   <v>       0.75000000       0.25000000       0.00000000 </v>
   <v>       0.00000000       0.50000000       0.00000000 </v>
   <v>       0.25000000       0.50000000       0.00000000 </v>
   <v>       0.50000000       0.50000000       0.00000000 </v>
   <v>       0.75000000       0.50000000       0.00000000 </v>
   <v>       0.00000000       0.75000000       0.00000000 </v>
   <v>       0.25000000       0.75000000       0.00000000 </v>
   <v>       0.50000000       0.75000000       0.00000000 </v>
   <v>       0.75000000       0.75000000       0.00000000 </v>
   <v>       0.00000000       0.00000000       0.25000000 </v>
   <v>       0.25000000       0.00000000       0.25000000 </v>
   <v>       0.50000000       0.00000000       0.25000000 </v>
   <v>       0.75000000       0.00000000       0.25000000 </v>
   <v>       0.00000000       0.25000000       0.25000000 </v>
   <v>       0.25000000       0.25000000       0.25000000 </v>
   <v>       0.50000000       0.25000000       0.25000000 </v>
   <v>       0.75000000       0.25000000       0.25000000 </v>
   <v>       0.00000000       0.50000000       0.25000000 </v>
   <v>       0.25000000       0.50000000       0.25000000 </v>
   <v>       0.50000000       0.50000000       0.25000000 </v>
   <v>       0.75000000       0.50000000       0.25000000 </v>
   <v>       0.00000000       0.75000000       0.25000000 </v>
   <v>       0.25000000       0.75000000       0.25000000 </v>
   <v>       0.50000000       0.75000000       0.25000000 </v>
   <v>       0.75000000       0.75000000       0.25000000 </v>
   <v>       0.00000000       0.00000000       0.50000000 </v>
   <v>       0.25000000       0.00000000       0.50000000 </v>
   <v>       0.50000000       0.00000000       0.50000000 </v>
   <v>       0.75000000       0.00000000       0.50000000 </v>
   <v>       0.00000000       0.25000000       0.50000000 </v>
   <v>       0.25000000       0.25000000       0.50000000 </v>
   <v>       0.50000000       0.25000000       0.50000000 </v>
   <v>       0.75000000       0.25000000       0.50000000 </v>
   <v>       0.00000000       0.50000000       0.50000000 </v>
   <v>       0.25000000       0.50000000       0.50000000 </v>
   <v>       0.50000000       0.50000000       0.50000000 </v>
   <v>       0.75000000       0.50000000       0.50000000 </v>
   <v>       0.00000000       0.75000000       0.50000000 </v>
   <v>       0.25000000       0.75000000       0.50000000 </v>
   <v>       0.50000000       0.75000000       0.50000000 </v>
   <v>       0.75000000       0.75000000       0.50000000 </v>
   <v>       0.00000000       0.00000000       0.75000000 </v>
   <v>       0.25000000       0.00000000       0.75000000 </v>
   <v>       0.50000000       0.00000000       0.75000000 </v>
   <v>       0.75000000       0.00000000       0.75000000 </v>
   <v>       0.00000000       0.25000000       0.75000000 </v>
   <v>       0.25000000       0.25000000       0.75000000 </v>
   <v>       0.50000000       0.25000000       0.75000000 </v>
   <v>       0.75000000       0.25000000       0.75000000 </v>
   <v>       0.00000000       0.50000000       0.75000000 </v>
   <v>       0.25000000       0.50000000       0.75000000 </v>
   <v>       0.50000000       0.50000000       0.75000000 </v>
   <v>       0.75000000       0.50000000       0.75000000 </v>
   <v>       0.00000000       0.75000000       0.75000000 </v>
   <v>       0.25000000       0.75000000       0.75000000 </v>
   <v>       0.50000000       0.75000000       0.75000000 </v>
   <v>       0.75000000       0.75000000       0.75000000 </v>
  </varray>
 </structure>
 <calculation>
  <scstep>
   <time name="dav">    4.80    4.81</time>
   <time name="total">    5.32    5.40</time>
   <energy>
    <i name="alphaZ">    210.78028765 </i>
    <i name="ewald"> -14524.86513590 </i>
    <i name="hartreedc">   -724.62061318 </i>
    <i name="XCdc">  -1195.83148081 </i>
    <i name="pawpsdc">   4221.13331941 </i>
    <i name="pawaedc">  -1969.18571412 </i>
    <i name="eentropy">     -0.01589474 </i>
    <i name="bandstr">   2165.01706818 </i>
    <i name="atom">  13192.48085998 </i>
    <i name="e_fr_energy">   1374.89269648 </i>
    <i name="e_wo_entrp">   1374.90859122 </i>
    <i name="e_0_energy">   1374.90064385 </i>
   </energy>
  </scstep>
  <scstep>
   <time name="dav">    5.43    5.45</time>
   <time name="total">    5.43    5.45</time>
   <energy>
    <i name="e_fr_energy">   -537.02418454 </i>
    <i name="e_wo_entrp">   -537.02418267 </i>
    <i name="e_0_energy">   -537.02418361 </i>
   </energy>
  </scstep>
  <scstep>
   <time name="dav">    5.48    5.50</time>
   <time name="total">    5.48    5.50</time>
   <energy>
    <i name="e_fr_energy">   -690.02437206 </i>
    <i name="e_wo_entrp">   -690.02437206 </i>
    <i name="e_0_energy">   -690.02437206 </i>
   </energy>
  </scstep>
  <scstep>
   <time name="dav">    5.38    5.39</time>
   <time name="total">    5.38    5.39</time>
   <energy>
    <i name="e_fr_energy">   -694.53326750 </i>
    <i name="e_wo_entrp">   -694.53326750 </i>
    <i name="e_0_energy">   -694.53326750 </i>
   </energy>
  </scstep>
  <scstep>
   <time name="dav">    5.37    5.39</time>
   <time name="total">    5.88    5.90</time>
   <energy>
    <i name="e_fr_energy">   -694.69872820 </i>
    <i name="e_wo_entrp">   -694.69872820 </i>
    <i name="e_0_energy">   -694.69872820 </i>
   </energy>
  </scstep>
  <scstep>
   <time name="dav">    5.12    5.13</time>
   <time name="total">    6.11    6.13</time>
   <energy>
    <i name="e_fr_energy">   -686.29989690 </i>
    <i name="e_wo_entrp">   -686.29989690 </i>
    <i name="e_0_energy">   -686.29989690 </i>
   </energy>
  </scstep>
  <scstep>
   <time name="dav">    4.94    4.95</time>
   <time name="total">    5.92    5.94</time>
   <energy>
    <i name="e_fr_energy">   -682.42698567 </i>
    <i name="e_wo_entrp">   -682.42698567 </i>
    <i name="e_0_energy">   -682.42698567 </i>
   </energy>
  </scstep>
  <scstep>
   <time name="dav">    5.02    5.03</time>
   <time name="total">    6.01    6.03</time>
   <energy>
    <i name="e_fr_energy">   -682.55903985 </i>
    <i name="e_wo_entrp">   -682.55903985 </i>
    <i name="e_0_energy">   -682.55903985 </i>
   </energy>
  </scstep>
  <scstep>
   <time name="dav">    5.52    5.53</time>
   <time name="total">    6.51    6.53</time>
   <energy>
    <i name="e_fr_energy">   -682.56549944 </i>
    <i name="e_wo_entrp">   -682.56549944 </i>
    <i name="e_0_energy">   -682.56549944 </i>
   </energy>
  </scstep>
  <scstep>
   <time name="dav">    4.95    4.97</time>
   <time name="total">    5.94    5.96</time>
   <energy>
    <i name="e_fr_energy">   -682.56818049 </i>
    <i name="e_wo_entrp">   -682.56818049 </i>
    <i name="e_0_energy">   -682.56818049 </i>
   </energy>
  </scstep>
  <scstep>
   <time name="dav">    5.44    5.46</time>
   <time name="total">    6.44    6.46</time>
   <energy>
    <i name="e_fr_energy">   -682.56819385 </i>
    <i name="e_wo_entrp">   -682.56819385 </i>
    <i name="e_0_energy">   -682.56819385 </i>
   </energy>
  </scstep>
  <scstep>
   <time name="dav">    5.38    5.39</time>
   <time name="total">    6.37    6.38</time>
   <energy>
    <i name="e_fr_energy">   -682.56819856 </i>
    <i name="e_wo_entrp">   -682.56819856 </i>
    <i name="e_0_energy">   -682.56819856 </i>
   </energy>
  </scstep>
  <scstep>
   <time name="dav">    5.38    5.40</time>
   <time name="total">    6.37    6.39</time>
   <energy>
    <i name="e_fr_energy">   -682.56819487 </i>
    <i name="e_wo_entrp">   -682.56819487 </i>
    <i name="e_0_energy">   -682.56819487 </i>
   </energy>
  </scstep>
  <scstep>
   <time name="dav">    5.20    5.22</time>
   <time name="total">    6.20    6.22</time>
   <energy>
    <i name="e_fr_energy">   -682.56819540 </i>
    <i name="e_wo_entrp">   -682.56819540 </i>
    <i name="e_0_energy">   -682.56819540 </i>
   </energy>
  </scstep>
  <scstep>
   <time name="dav">    4.16    4.18</time>
   <time name="total">    5.16    5.17</time>
   <energy>
    <i name="e_fr_energy">   -682.56819428 </i>
    <i name="e_wo_entrp">   -682.56819428 </i>
    <i name="e_0_energy">   -682.56819428 </i>
   </energy>
  </scstep>
  <scstep>
   <time name="dav">    3.30    3.31</time>
   <time name="total">    4.29    4.30</time>
   <energy>
    <i name="e_fr_energy">   -682.56819438 </i>
    <i name="e_wo_entrp">   -682.56819438 </i>
    <i name="e_0_energy">   -682.56819438 </i>
   </energy>
  </scstep>
  <scstep>
   <time name="dav">    3.21    3.22</time>
   <time name="total">    4.20    4.22</time>
   <energy>
    <i name="e_fr_energy">   -682.56819440 </i>
    <i name="e_wo_entrp">   -682.56819440 </i>
    <i name="e_0_energy">   -682.56819440 </i>
   </energy>
  </scstep>
  <scstep>
   <time name="dav">    3.21    3.22</time>
   <time name="total">    4.21    4.22</time>
   <energy>
    <i name="e_fr_energy">   -682.56819438 </i>
    <i name="e_wo_entrp">   -682.56819438 </i>
    <i name="e_0_energy">   -682.56819438 </i>
   </energy>
  </scstep>
  <scstep>
   <time name="dav">    3.26    3.27</time>
   <time name="total">    3.75    3.76</time>
   <energy>
    <i name="alphaZ">    210.78028765 </i>
    <i name="ewald"> -14524.86513590 </i>
    <i name="hartreedc">   -991.73333102 </i>
    <i name="XCdc">  -1153.28598526 </i>
    <i name="pawpsdc">   4723.40776381 </i>
    <i name="pawaedc">  -2485.14589142 </i>
    <i name="eentropy">     -0.00000000 </i>
    <i name="bandstr">    345.79323778 </i>
    <i name="atom">  13192.48085998 </i>
    <i name="e_fr_energy">   -682.56819438 </i>
    <i name="e_wo_entrp">   -682.56819438 </i>
    <i name="e_0_energy">   -682.56819438 </i>
   </energy>
  </scstep>
  <structure>
   <crystal>
    <varray name="basis" >
     <v>       0.00000000      10.93716070      10.93716070 </v>
     <v>      10.93716070       0.00000000      10.93716070 </v>
     <v>      10.93716070      10.93716070       0.00000000 </v>
    </varray>
    <i name="volume">   2616.63878844 </i>
    <varray name="rec_basis" >
     <v>      -0.04571570       0.04571570       0.04571570 </v>
     <v>       0.04571570      -0.04571570       0.04571570 </v>
     <v>       0.04571570       0.04571570      -0.04571570 </v>
    </varray>
   </crystal>
   <varray name="positions" >
    <v>       0.06295716       0.06204284       0.06295716 </v>
    <v>       0.31250000       0.06250000       0.06250000 </v>
    <v>       0.56250000       0.06250000       0.06250000 </v>
    <v>       0.81250000       0.06250000       0.06250000 </v>
    <v>       0.06250000       0.31250000       0.06250000 </v>
    <v>       0.31250000       0.31250000       0.06250000 </v>
    <v>       0.56250000       0.31250000       0.06250000 </v>
    <v>       0.81250000       0.31250000       0.06250000 </v>
    <v>       0.06250000       0.56250000       0.06250000 </v>
    <v>       0.31250000       0.56250000       0.06250000 </v>
    <v>       0.56250000       0.56250000       0.06250000 </v>
    <v>       0.81250000       0.56250000       0.06250000 </v>
    <v>       0.06250000       0.81250000       0.06250000 </v>
    <v>       0.31250000       0.81250000       0.06250000 </v>
    <v>       0.56250000       0.81250000       0.06250000 </v>
    <v>       0.81250000       0.81250000       0.06250000 </v>
    <v>       0.06250000       0.06250000       0.31250000 </v>
    <v>       0.31250000       0.06250000       0.31250000 </v>
    <v>       0.56250000       0.06250000       0.31250000 </v>
    <v>       0.81250000       0.06250000       0.31250000 </v>
    <v>       0.06250000       0.31250000       0.31250000 </v>
    <v>       0.31250000       0.31250000       0.31250000 </v>
    <v>       0.56250000       0.31250000       0.31250000 </v>
    <v>       0.81250000       0.31250000       0.31250000 </v>
    <v>       0.06250000       0.56250000       0.31250000 </v>
    <v>       0.31250000       0.56250000       0.31250000 </v>
    <v>       0.56250000       0.56250000       0.31250000 </v>
    <v>       0.81250000       0.56250000       0.31250000 </v>
    <v>       0.06250000       0.81250000       0.31250000 </v>
    <v>       0.31250000       0.81250000       0.31250000 </v>
    <v>       0.56250000       0.81250000       0.31250000 </v>
    <v>       0.81250000       0.81250000       0.31250000 </v>
    <v>       0.06250000       0.06250000       0.56250000 </v>
    <v>       0.31250000       0.06250000       0.56250000 </v>
    <v>       0.56250000       0.06250000       0.56250000 </v>
    <v>       0.81250000       0.06250000       0.56250000 </v>
    <v>       0.06250000       0.31250000       0.56250000 </v>
    <v>       0.31250000       0.31250000       0.56250000 </v>
    <v>       0.56250000       0.31250000       0.56250000 </v>
    <v>       0.81250000       0.31250000       0.56250000 </v>
    <v>       0.06250000       0.56250000       0.56250000 </v>
    <v>       0.31250000       0.56250000       0.56250000 </v>
    <v>       0.56250000       0.56250000       0.56250000 </v>
    <v>       0.81250000       0.56250000       0.56250000 </v>
    <v>       0.06250000       0.81250000       0.56250000 </v>
    <v>       0.31250000       0.81250000       0.56250000 </v>
    <v>       0.56250000       0.81250000       0.56250000 </v>
    <v>       0.81250000       0.81250000       0.56250000 </v>
    <v>       0.06250000       0.06250000       0.81250000 </v>
    <v>       0.31250000       0.06250000       0.81250000 </v>
    <v>       0.56250000       0.06250000       0.81250000 </v>
    <v>       0.81250000       0.06250000       0.81250000 </v>
    <v>       0.06250000       0.31250000       0.81250000 </v>
    <v>       0.31250000       0.31250000       0.81250000 </v>
    <v>       0.56250000       0.31250000       0.81250000 </v>
    <v>       0.81250000       0.31250000       0.81250000 </v>
    <v>       0.06250000       0.56250000       0.81250000 </v>
    <v>       0.31250000       0.56250000       0.81250000 </v>
    <v>       0.56250000       0.56250000       0.81250000 </v>
    <v>       0.81250000       0.56250000       0.81250000 </v>
    <v>       0.06250000       0.81250000       0.81250000 </v>
    <v>       0.31250000       0.81250000       0.81250000 </v>
    <v>       0.56250000       0.81250000       0.81250000 </v>
    <v>       0.81250000       0.81250000       0.81250000 </v>
    <v>       0.00000000       0.00000000       0.00000000 </v>
    <v>       0.25000000       0.00000000       0.00000000 </v>
    <v>       0.49954284       0.00045716       0.99954284 </v>
    <v>       0.75000000       0.00000000       0.00000000 </v>
    <v>       0.00000000       0.25000000       0.00000000 </v>
    <v>       0.25000000       0.25000000       0.00000000 </v>
    <v>       0.50000000       0.25000000       0.00000000 </v>
    <v>       0.75000000       0.25000000       0.00000000 </v>
    <v>       0.00000000       0.50000000       0.00000000 </v>
    <v>       0.25000000       0.50000000       0.00000000 </v>
    <v>       0.50000000       0.50000000       0.00000000 </v>
    <v>       0.75000000       0.50000000       0.00000000 </v>
    <v>       0.00000000       0.75000000       0.00000000 </v>
    <v>       0.25000000       0.75000000       0.00000000 </v>
    <v>       0.50000000       0.75000000       0.00000000 </v>
    <v>       0.75000000       0.75000000       0.00000000 </v>
    <v>       0.00000000       0.00000000       0.25000000 </v>
    <v>       0.25000000       0.00000000       0.25000000 </v>
    <v>       0.50000000       0.00000000       0.25000000 </v>
    <v>       0.75000000       0.00000000       0.25000000 </v>
    <v>       0.00000000       0.25000000       0.25000000 </v>
    <v>       0.25000000       0.25000000       0.25000000 </v>
    <v>       0.50000000       0.25000000       0.25000000 </v>
    <v>       0.75000000       0.25000000       0.25000000 </v>
    <v>       0.00000000       0.50000000       0.25000000 </v>
    <v>       0.25000000       0.50000000       0.25000000 </v>
    <v>       0.50000000       0.50000000       0.25000000 </v>
    <v>       0.75000000       0.50000000       0.25000000 </v>
    <v>       0.00000000       0.75000000       0.25000000 </v>
    <v>       0.25000000       0.75000000       0.25000000 </v>
    <v>       0.50000000       0.75000000       0.25000000 </v>
    <v>       0.75000000       0.75000000       0.25000000 </v>
    <v>       0.00000000       0.00000000       0.50000000 </v>
    <v>       0.25000000       0.00000000       0.50000000 </v>
    <v>       0.50000000       0.00000000       0.50000000 </v>
    <v>       0.75000000       0.00000000       0.50000000 </v>
    <v>       0.00000000       0.25000000       0.50000000 </v>
    <v>       0.25000000       0.25000000       0.50000000 </v>
    <v>       0.50000000       0.25000000       0.50000000 </v>
    <v>       0.75000000       0.25000000       0.50000000 </v>
    <v>       0.00000000       0.50000000       0.50000000 </v>
    <v>       0.25000000       0.50000000       0.50000000 </v>
    <v>       0.50000000       0.50000000       0.50000000 </v>
    <v>       0.75000000       0.50000000       0.50000000 </v>
    <v>       0.00000000       0.75000000       0.50000000 </v>
    <v>       0.25000000       0.75000000       0.50000000 </v>
    <v>       0.50000000       0.75000000       0.50000000 </v>
    <v>       0.75000000       0.75000000       0.50000000 </v>
    <v>       0.00000000       0.00000000       0.75000000 </v>
    <v>       0.25000000       0.00000000       0.75000000 </v>
    <v>       0.50000000       0.00000000       0.75000000 </v>
    <v>       0.75000000       0.00000000       0.75000000 </v>
    <v>       0.00000000       0.25000000       0.75000000 </v>
    <v>       0.25000000       0.25000000       0.75000000 </v>
    <v>       0.50000000       0.25000000       0.75000000 </v>
    <v>       0.75000000       0.25000000       0.75000000 </v>
    <v>       0.00000000       0.50000000       0.75000000 </v>
    <v>       0.25000000       0.50000000       0.75000000 </v>
    <v>       0.50000000       0.50000000       0.75000000 </v>
    <v>       0.75000000       0.50000000       0.75000000 </v>
    <v>       0.00000000       0.75000000       0.75000000 </v>
    <v>       0.25000000       0.75000000       0.75000000 </v>
    <v>       0.50000000       0.75000000       0.75000000 </v>
    <v>       0.75000000       0.75000000       0.75000000 </v>
   </varray>
  </structure>
  <varray name="forces" >
   <v>      -0.00047075      -0.13052152      -0.00020041 </v>
   <v>       0.01955570      -0.03127800      -0.01848886 </v>
   <v>      -0.01995076      -0.03241860      -0.01957720 </v>
   <v>       0.00142500       0.00136463       0.00182139 </v>
   <v>       0.00114351      -0.00512342       0.00142187 </v>
   <v>      -0.00061407       0.00035618       0.00048701 </v>
   <v>       0.00026504      -0.00199005       0.00068178 </v>
   <v>      -0.00240467       0.00182071      -0.00056568 </v>
   <v>      -0.00008009      -0.00172543       0.00015676 </v>
   <v>      -0.00030692       0.00018170       0.00042718 </v>
   <v>      -0.00084424      -0.00189366      -0.00047317 </v>
   <v>      -0.00001233      -0.00010168      -0.00020267 </v>
   <v>      -0.00110574      -0.00497024      -0.00086710 </v>
   <v>      -0.00237162       0.00183780       0.00130796 </v>
   <v>       0.01979992      -0.03251719       0.02009819 </v>
   <v>      -0.00061413       0.00018164       0.00055169 </v>
   <v>       0.00155947      -0.00046784      -0.00048640 </v>
   <v>       0.00054819       0.00029688       0.00055168 </v>
   <v>       0.00007600      -0.00010293       0.00062237 </v>
   <v>      -0.00057971      -0.00466890       0.00134964 </v>
   <v>       0.00017143       0.00025980      -0.00027802 </v>
   <v>      -0.00002180       0.00025972      -0.00000699 </v>
   <v>       0.00023733       0.00035554      -0.00065912 </v>
   <v>      -0.00038523       0.00050273      -0.00038553 </v>
   <v>       0.00024575       0.00020952      -0.00012512 </v>
   <v>      -0.00020122       0.00020251      -0.00018618 </v>
   <v>      -0.00047458      -0.00011217       0.00018390 </v>
   <v>       0.00000920       0.00019064       0.00003396 </v>
   <v>       0.00096994       0.00174076      -0.00205637 </v>
   <v>      -0.00034342       0.00041672      -0.00034012 </v>
   <v>       0.00035574       0.00017176      -0.00034219 </v>
   <v>      -0.00002165       0.00031644      -0.00002212 </v>
   <v>       0.00052935       0.00022021       0.00015763 </v>
   <v>       0.00022957       0.00004913       0.00043083 </v>
   <v>      -0.00019865      -0.00188881      -0.00047338 </v>
   <v>       0.00068245      -0.00194888      -0.00020276 </v>
   <v>       0.00023185       0.00015246      -0.00018461 </v>
   <v>      -0.00029420       0.00016912      -0.00012766 </v>
   <v>       0.00048669      -0.00008305       0.00021000 </v>
   <v>      -0.00000630       0.00024945       0.00000966 </v>
   <v>      -0.00002239       0.00024822      -0.00039441 </v>
   <v>      -0.00017128       0.00003934      -0.00008087 </v>
   <v>       0.00015741       0.00005771      -0.00008056 </v>
   <v>       0.00003639       0.00019956      -0.00002583 </v>
   <v>      -0.00000956       0.00012363      -0.00030832 </v>
   <v>      -0.00001770       0.00019305       0.00003119 </v>
   <v>       0.00006815       0.00007119      -0.00016992 </v>
   <v>      -0.00029360       0.00025945      -0.00019991 </v>
   <v>       0.00217647       0.00151561       0.00103039 </v>
   <v>       0.00130398      -0.00484306      -0.00062345 </v>
   <v>      -0.02024806      -0.03275298       0.02072780 </v>
   <v>       0.00049297       0.00029748       0.00048963 </v>
   <v>      -0.00092852       0.00163585      -0.00203991 </v>
   <v>      -0.00034079       0.00032864      -0.00034038 </v>
   <v>       0.00032521       0.00034587      -0.00034237 </v>
   <v>      -0.00000718       0.00032149      -0.00002185 </v>
   <v>       0.00019077       0.00004935      -0.00036792 </v>
   <v>       0.00003070       0.00022526       0.00000630 </v>
   <v>       0.00015596       0.00017151      -0.00014543 </v>
   <v>      -0.00012782       0.00020368      -0.00014251 </v>
   <v>       0.00022761       0.00020286      -0.00028925 </v>
   <v>      -0.00001890       0.00035102      -0.00001844 </v>
   <v>       0.00013631       0.00035578      -0.00060907 </v>
   <v>      -0.00034020       0.00035391      -0.00034345 </v>
   <v>       0.01995076       0.03241862       0.01957724 </v>
   <v>      -0.01955570       0.03127799       0.01848885 </v>
   <v>       0.00047075       0.13052154       0.00020042 </v>
   <v>      -0.00142502      -0.00136460      -0.00182136 </v>
   <v>      -0.01979995       0.03251722      -0.02009822 </v>
   <v>       0.00237162      -0.00183782      -0.00130795 </v>
   <v>       0.00110574       0.00497027       0.00086710 </v>
   <v>       0.00061415      -0.00018165      -0.00055167 </v>
   <v>       0.00084422       0.00189365       0.00047313 </v>
   <v>       0.00030692      -0.00018168      -0.00042716 </v>
   <v>       0.00008012       0.00172541      -0.00015677 </v>
   <v>       0.00001231       0.00010168       0.00020266 </v>
   <v>      -0.00026506       0.00199005      -0.00068177 </v>
   <v>       0.00061407      -0.00035618      -0.00048697 </v>
   <v>      -0.00114351       0.00512340      -0.00142189 </v>
   <v>       0.00240466      -0.00182071       0.00056565 </v>
   <v>       0.02024803       0.03275297      -0.02072780 </v>
   <v>      -0.00130393       0.00484305       0.00062343 </v>
   <v>      -0.00217646      -0.00151560      -0.00103038 </v>
   <v>      -0.00049300      -0.00029747      -0.00048963 </v>
   <v>      -0.00013631      -0.00035581       0.00060902 </v>
   <v>       0.00001891      -0.00035101       0.00001843 </v>
   <v>      -0.00022757      -0.00020284       0.00028928 </v>
   <v>       0.00034019      -0.00035391       0.00034343 </v>
   <v>      -0.00015598      -0.00017153       0.00014542 </v>
   <v>      -0.00003070      -0.00022528      -0.00000630 </v>
   <v>      -0.00019077      -0.00004935       0.00036792 </v>
   <v>       0.00012782      -0.00020367       0.00014250 </v>
   <v>      -0.00032522      -0.00034586       0.00034235 </v>
   <v>       0.00034079      -0.00032866       0.00034038 </v>
   <v>       0.00092853      -0.00163584       0.00203988 </v>
   <v>       0.00000719      -0.00032148       0.00002187 </v>
   <v>       0.00019865       0.00188880       0.00047339 </v>
   <v>      -0.00022960      -0.00004912      -0.00043083 </v>
   <v>      -0.00052938      -0.00022021      -0.00015763 </v>
   <v>      -0.00068245       0.00194888       0.00020276 </v>
   <v>      -0.00006815      -0.00007118       0.00016991 </v>
   <v>       0.00001773      -0.00019306      -0.00003117 </v>
   <v>       0.00000956      -0.00012363       0.00030832 </v>
   <v>       0.00029361      -0.00025946       0.00019990 </v>
   <v>      -0.00015742      -0.00005769       0.00008054 </v>
   <v>       0.00017128      -0.00003936       0.00008086 </v>
   <v>       0.00002237      -0.00024821       0.00039441 </v>
   <v>      -0.00003640      -0.00019952       0.00002583 </v>
   <v>      -0.00048670       0.00008305      -0.00021001 </v>
   <v>       0.00029419      -0.00016914       0.00012766 </v>
   <v>      -0.00023183      -0.00015245       0.00018462 </v>
   <v>       0.00000630      -0.00024944      -0.00000966 </v>
   <v>      -0.00007602       0.00010294      -0.00062236 </v>
   <v>      -0.00054817      -0.00029689      -0.00055169 </v>
   <v>      -0.00155947       0.00046783       0.00048643 </v>
   <v>       0.00057970       0.00466889      -0.00134961 </v>
   <v>      -0.00035572      -0.00017174       0.00034218 </v>
   <v>       0.00034344      -0.00041672       0.00034013 </v>
   <v>      -0.00096995      -0.00174080       0.00205638 </v>
   <v>       0.00002164      -0.00031643       0.00002214 </v>
   <v>       0.00047457       0.00011218      -0.00018392 </v>
   <v>       0.00020124      -0.00020252       0.00018620 </v>
   <v>      -0.00024573      -0.00020952       0.00012513 </v>
   <v>      -0.00000920      -0.00019064      -0.00003395 </v>
   <v>      -0.00023732      -0.00035555       0.00065913 </v>
   <v>       0.00002184      -0.00025974       0.00000702 </v>
   <v>      -0.00017142      -0.00025982       0.00027803 </v>
   <v>       0.00038523      -0.00050271       0.00038552 </v>
  </varray>
  <varray name="stress" >
   <v>       5.73278060      -0.00000586      -0.10676803 </v>
   <v>      -0.00000587       5.73070127       0.00001335 </v>
   <v>      -0.10676804       0.00001334       5.73278430 </v>
  </varray>
  <energy>
   <i name="e_fr_energy">   -682.56819438 </i>
   <i name="e_wo_entrp">   -682.56819438 </i>
   <i name="e_0_energy">     -0.00000000 </i>
  </energy>
  <time name="totalsc">  121.27  121.94</time>
  <eigenvalues>
   <array>
    <dimension dim="1">band</dimension>
    <dimension dim="2">kpoint</dimension>
    <dimension dim="3">spin</dimension>
    <field>eigene</field>
    <field>occ</field>
    <set>
     <set comment="spin 1">
      <set comment="kpoint 1">
       <r>   -6.1630    1.0000 </r>
       <r>   -5.3792    1.0000 </r>
       <r>   -5.3783    1.0000 </r>
       <r>   -5.3778    1.0000 </r>
       <r>   -5.3774    1.0000 </r>
       <r>   -5.3773    1.0000 </r>
       <r>   -5.3772    1.0000 </r>
       <r>   -5.3765    1.0000 </r>
       <r>   -5.3760    1.0000 </r>
       <r>   -5.1011    1.0000 </r>
       <r>   -5.0999    1.0000 </r>
       <r>   -5.0995    1.0000 </r>
       <r>   -5.0995    1.0000 </r>
       <r>   -5.0991    1.0000 </r>
       <r>   -5.0987    1.0000 </r>
       <r>   -4.1590    1.0000 </r>
       <r>   -4.1590    1.0000 </r>
       <r>   -4.1575    1.0000 </r>
       <r>   -4.1572    1.0000 </r>
       <r>   -4.1570    1.0000 </r>
       <r>   -4.1569    1.0000 </r>
       <r>   -4.1569    1.0000 </r>
       <r>   -4.1569    1.0000 </r>
       <r>   -4.1564    1.0000 </r>
       <r>   -4.1564    1.0000 </r>
       <r>   -4.1556    1.0000 </r>
       <r>   -4.1547    1.0000 </r>
       <r>   -3.8816    1.0000 </r>
       <r>   -3.8815    1.0000 </r>
       <r>   -3.8815    1.0000 </r>
       <r>   -3.8800    1.0000 </r>
       <r>   -3.5002    1.0000 </r>
       <r>   -3.5000    1.0000 </r>
       <r>   -3.4984    1.0000 </r>
       <r>   -3.4973    1.0000 </r>
       <r>   -3.4967    1.0000 </r>
       <r>   -3.4967    1.0000 </r>
       <r>   -3.4964    1.0000 </r>
       <r>   -3.4964    1.0000 </r>
       <r>   -3.4964    1.0000 </r>
       <r>   -3.4964    1.0000 </r>
       <r>   -3.4963    1.0000 </r>
       <r>   -3.4963    1.0000 </r>
       <r>   -3.4962    1.0000 </r>
       <r>   -3.4961    1.0000 </r>
       <r>   -3.4961    1.0000 </r>
       <r>   -3.4960    1.0000 </r>
       <r>   -3.4960    1.0000 </r>
       <r>   -3.4959    1.0000 </r>
       <r>   -3.4958    1.0000 </r>
       <r>   -3.4958    1.0000 </r>
       <r>   -3.4948    1.0000 </r>
       <r>   -3.4946    1.0000 </r>
       <r>   -3.4930    1.0000 </r>
       <r>   -3.4917    1.0000 </r>
       <r>   -2.0923    1.0000 </r>
       <r>   -2.0914    1.0000 </r>
       <r>   -2.0914    1.0000 </r>
       <r>   -2.0911    1.0000 </r>
       <r>   -2.0901    1.0000 </r>
       <r>   -2.0893    1.0000 </r>
       <r>   -1.9375    1.0000 </r>
       <r>   -1.9374    1.0000 </r>
       <r>   -1.9362    1.0000 </r>
       <r>   -1.9362    1.0000 </r>
       <r>   -1.9354    1.0000 </r>
       <r>   -1.9354    1.0000 </r>
       <r>   -1.9353    1.0000 </r>
       <r>   -1.9353    1.0000 </r>
       <r>   -1.9347    1.0000 </r>
       <r>   -1.9346    1.0000 </r>
       <r>   -1.9334    1.0000 </r>
       <r>   -1.9334    1.0000 </r>
       <r>   -1.2197    1.0000 </r>
       <r>   -1.2186    1.0000 </r>
       <r>   -1.2176    1.0000 </r>
       <r>   -1.2176    1.0000 </r>
       <r>   -0.6729    1.0000 </r>
       <r>   -0.6719    1.0000 </r>
       <r>   -0.6716    1.0000 </r>
       <r>   -0.6699    1.0000 </r>
       <r>   -0.6691    1.0000 </r>
       <r>   -0.6690    1.0000 </r>
       <r>   -0.6689    1.0000 </r>
       <r>   -0.6689    1.0000 </r>
       <r>   -0.6688    1.0000 </r>
       <r>   -0.6687    1.0000 </r>
       <r>   -0.6687    1.0000 </r>
       <r>   -0.6687    1.0000 </r>
       <r>   -0.6686    1.0000 </r>
       <r>   -0.6686    1.0000 </r>
       <r>   -0.6685    1.0000 </r>
       <r>   -0.6685    1.0000 </r>
       <r>   -0.6684    1.0000 </r>
       <r>   -0.6683    1.0000 </r>
       <r>   -0.6682    1.0000 </r>
       <r>   -0.6682    1.0000 </r>
       <r>   -0.6668    1.0000 </r>
       <r>   -0.6661    1.0000 </r>
       <r>   -0.6655    1.0000 </r>
       <r>   -0.6645    1.0000 </r>
       <r>    0.2145    1.0000 </r>
       <r>    0.2148    1.0000 </r>
       <r>    0.2160    1.0000 </r>
       <r>    0.2161    1.0000 </r>
       <r>    0.2167    1.0000 </r>
       <r>    0.2167    1.0000 </r>
       <r>    0.2168    1.0000 </r>
       <r>    0.2169    1.0000 </r>
       <r>    0.2174    1.0000 </r>
       <r>    0.2176    1.0000 </r>
       <r>    0.2186    1.0000 </r>
       <r>    0.2187    1.0000 </r>
       <r>    1.7669    1.0000 </r>
       <r>    1.7669    1.0000 </r>
       <r>    1.7673    1.0000 </r>
       <r>    1.7676    1.0000 </r>
       <r>    1.7680    1.0000 </r>
       <r>    1.7683    1.0000 </r>
       <r>    1.7687    1.0000 </r>
       <r>    1.7689    1.0000 </r>
       <r>    1.8847    1.0000 </r>
       <r>    1.8848    1.0000 </r>
       <r>    1.8856    1.0000 </r>
       <r>    1.8858    1.0000 </r>
       <r>    1.8859    1.0000 </r>
       <r>    1.8860    1.0000 </r>
       <r>    1.8861    1.0000 </r>
       <r>    1.8861    1.0000 </r>
       <r>    1.8863    1.0000 </r>
       <r>    1.8865    1.0000 </r>
       <r>    1.8871    1.0000 </r>
       <r>    1.8871    1.0000 </r>
       <r>    1.9778    1.0000 </r>
       <r>    1.9779    1.0000 </r>
       <r>    1.9782    1.0000 </r>
       <r>    1.9784    1.0000 </r>
       <r>    1.9785    1.0000 </r>
       <r>    1.9788    1.0000 </r>
       <r>    1.9791    1.0000 </r>
       <r>    1.9792    1.0000 </r>
       <r>    1.9795    1.0000 </r>
       <r>    1.9795    1.0000 </r>
       <r>    1.9798    1.0000 </r>
       <r>    1.9799    1.0000 </r>
       <r>    2.1401    1.0000 </r>
       <r>    2.1403    1.0000 </r>
       <r>    2.1409    1.0000 </r>
       <r>    2.1415    1.0000 </r>
       <r>    2.1418    1.0000 </r>
       <r>    2.1419    1.0000 </r>
       <r>    2.1843    1.0000 </r>
       <r>    2.1843    1.0000 </r>
       <r>    2.1853    1.0000 </r>
       <r>    2.1854    1.0000 </r>
       <r>    2.1863    1.0000 </r>
       <r>    2.1865    1.0000 </r>
       <r>    2.1866    1.0000 </r>
       <r>    2.1866    1.0000 </r>
       <r>    2.1867    1.0000 </r>
       <r>    2.1867    1.0000 </r>
       <r>    2.1867    1.0000 </r>
       <r>    2.1868    1.0000 </r>
       <r>    2.1869    1.0000 </r>
       <r>    2.1870    1.0000 </r>
       <r>    2.1870    1.0000 </r>
       <r>    2.1871    1.0000 </r>
       <r>    2.1872    1.0000 </r>
       <r>    2.1873    1.0000 </r>
       <r>    2.1876    1.0000 </r>
       <r>    2.1878    1.0000 </r>
       <r>    2.1882    1.0000 </r>
       <r>    2.1887    1.0000 </r>
       <r>    2.1892    1.0000 </r>
       <r>    2.1899    1.0000 </r>
       <r>    2.8559    1.0000 </r>
       <r>    2.8564    1.0000 </r>
       <r>    2.8565    1.0000 </r>
       <r>    2.8567    1.0000 </r>
       <r>    2.8569    1.0000 </r>
       <r>    2.8573    1.0000 </r>
       <r>    3.4890    1.0000 </r>
       <r>    3.4908    1.0000 </r>
       <r>    3.4914    1.0000 </r>
       <r>    3.4914    1.0000 </r>
       <r>    3.4919    1.0000 </r>
       <r>    3.4920    1.0000 </r>
       <r>    3.4922    1.0000 </r>
       <r>    3.4922    1.0000 </r>
       <r>    3.4924    1.0000 </r>
       <r>    3.4924    1.0000 </r>
       <r>    3.4924    1.0000 </r>
       <r>    3.4924    1.0000 </r>
       <r>    3.4926    1.0000 </r>
       <r>    3.4926    1.0000 </r>
       <r>    3.4927    1.0000 </r>
       <r>    3.4928    1.0000 </r>
       <r>    3.4928    1.0000 </r>
       <r>    3.4929    1.0000 </r>
       <r>    3.4929    1.0000 </r>
       <r>    3.4930    1.0000 </r>
       <r>    3.4938    1.0000 </r>
       <r>    3.4938    1.0000 </r>
       <r>    3.4950    1.0000 </r>
       <r>    3.4951    1.0000 </r>
       <r>    3.8020    1.0000 </r>
       <r>    3.8028    1.0000 </r>
       <r>    3.8032    1.0000 </r>
       <r>    3.8037    1.0000 </r>
       <r>    3.8038    1.0000 </r>
       <r>    3.8038    1.0000 </r>
       <r>    3.8038    1.0000 </r>
       <r>    3.8039    1.0000 </r>
       <r>    3.8039    1.0000 </r>
       <r>    3.8041    1.0000 </r>
       <r>    3.8046    1.0000 </r>
       <r>    3.8063    1.0000 </r>
       <r>    4.3513    1.0000 </r>
       <r>    4.3513    1.0000 </r>
       <r>    4.3519    1.0000 </r>
       <r>    4.3520    1.0000 </r>
       <r>    4.3525    1.0000 </r>
       <r>    4.3529    1.0000 </r>
       <r>    4.3529    1.0000 </r>
       <r>    4.3529    1.0000 </r>
       <r>    4.3534    1.0000 </r>
       <r>    4.3535    1.0000 </r>
       <r>    4.3537    1.0000 </r>
       <r>    4.3555    1.0000 </r>
       <r>    4.4763    1.0000 </r>
       <r>    4.4767    1.0000 </r>
       <r>    4.4770    1.0000 </r>
       <r>    4.4774    1.0000 </r>
       <r>    4.4776    1.0000 </r>
       <r>    4.4781    1.0000 </r>
       <r>    4.4783    1.0000 </r>
       <r>    4.4801    1.0000 </r>
       <r>    4.9076    1.0000 </r>
       <r>    4.9098    1.0000 </r>
       <r>    4.9113    1.0000 </r>
       <r>    4.9114    1.0000 </r>
       <r>    4.9114    1.0000 </r>
       <r>    4.9114    1.0000 </r>
       <r>    4.9116    1.0000 </r>
       <r>    4.9117    1.0000 </r>
       <r>    4.9118    1.0000 </r>
       <r>    4.9119    1.0000 </r>
       <r>    4.9121    1.0000 </r>
       <r>    4.9121    1.0000 </r>
       <r>    4.9122    1.0000 </r>
       <r>    4.9125    1.0000 </r>
       <r>    4.9148    1.0000 </r>
       <r>    4.9150    1.0000 </r>
       <r>    5.6589    1.0000 </r>
       <r>    5.6604    1.0000 </r>
       <r>    5.6619    1.0000 </r>
       <r>    6.3941    0.0000 </r>
       <r>    6.3944    0.0000 </r>
       <r>    6.3946    0.0000 </r>
       <r>    6.3958    0.0000 </r>
       <r>    6.3958    0.0000 </r>
       <r>    6.3959    0.0000 </r>
       <r>    6.7957    0.0000 </r>
       <r>    6.7957    0.0000 </r>
       <r>    6.7959    0.0000 </r>
       <r>    6.7962    0.0000 </r>
       <r>    6.7968    0.0000 </r>
       <r>    6.7973    0.0000 </r>
       <r>    7.1206    0.0000 </r>
       <r>    7.1206    0.0000 </r>
       <r>    7.1210    0.0000 </r>
       <r>    7.1212    0.0000 </r>
       <r>    7.1826    0.0000 </r>
       <r>    7.1828    0.0000 </r>
       <r>    7.1845    0.0000 </r>
       <r>    7.1848    0.0000 </r>
       <r>    7.1856    0.0000 </r>
       <r>    7.1857    0.0000 </r>
       <r>    7.1857    0.0000 </r>
       <r>    7.1858    0.0000 </r>
       <r>    7.1858    0.0000 </r>
       <r>    7.1858    0.0000 </r>
       <r>    7.1859    0.0000 </r>
       <r>    7.1860    0.0000 </r>
       <r>    7.1860    0.0000 </r>
       <r>    7.1861    0.0000 </r>
       <r>    7.1861    0.0000 </r>
       <r>    7.1862    0.0000 </r>
       <r>    7.1862    0.0000 </r>
       <r>    7.1862    0.0000 </r>
       <r>    7.1863    0.0000 </r>
       <r>    7.1863    0.0000 </r>
       <r>    7.1876    0.0000 </r>
       <r>    7.1881    0.0000 </r>
       <r>    7.1885    0.0000 </r>
       <r>    7.1892    0.0000 </r>
       <r>    7.6112    0.0000 </r>
       <r>    7.6116    0.0000 </r>
       <r>    7.6118    0.0000 </r>
       <r>    7.6120    0.0000 </r>
       <r>    7.6123    0.0000 </r>
       <r>    7.6125    0.0000 </r>
       <r>    7.6131    0.0000 </r>
       <r>    7.6132    0.0000 </r>
       <r>    8.0816    0.0000 </r>
       <r>    8.0817    0.0000 </r>
       <r>    8.0820    0.0000 </r>
       <r>    8.0822    0.0000 </r>
       <r>    8.0827    0.0000 </r>
       <r>    8.0829    0.0000 </r>
       <r>    8.0829    0.0000 </r>
       <r>    8.0831    0.0000 </r>
       <r>    8.0831    0.0000 </r>
       <r>    8.0838    0.0000 </r>
       <r>    8.0841    0.0000 </r>
       <r>    8.0851    0.0000 </r>
       <r>    8.1984    0.0000 </r>
       <r>    8.1993    0.0000 </r>
       <r>    8.2002    0.0000 </r>
       <r>    8.7789    0.0000 </r>
       <r>    8.7791    0.0000 </r>
       <r>    8.7873    0.0000 </r>
      </set>
     </set>
    </set>
   </array>
  </eigenvalues>
  <separator name="orbital magnetization" >
   <v name="MAGDIPOLOUT">      0.00000000      0.00000000      0.00000000</v>
  </separator>
  <dos>
   <i name="efermi">      5.92024929 </i>
   <total>
    <array>
     <dimension dim="1">gridpoints</dimension>
     <dimension dim="2">spin</dimension>
     <field>energy</field>
     <field>total</field>
     <field>integrated</field>
     <set>
      <set comment="spin 1">
       <r>    -6.9105     0.0000     0.0000 </r>
       <r>    -6.8557     0.0000     0.0000 </r>
       <r>    -6.8009     0.0000     0.0000 </r>
       <r>    -6.7461     0.0000     0.0000 </r>
       <r>    -6.6913     0.0000     0.0000 </r>
       <r>    -6.6364     0.0000     0.0000 </r>
       <r>    -6.5816     0.0000     0.0000 </r>
       <r>    -6.5268     0.0000     0.0000 </r>
       <r>    -6.4720     0.0000     0.0000 </r>
       <r>    -6.4172     0.0000     0.0000 </r>
       <r>    -6.3624     0.0000     0.0000 </r>
       <r>    -6.3075     0.0008     0.0000 </r>
       <r>    -6.2527     0.2031     0.0112 </r>
       <r>    -6.1979     5.7031     0.3238 </r>
       <r>    -6.1431    20.1269     1.4271 </r>
       <r>    -6.0883     9.8215     1.9655 </r>
       <r>    -6.0334     0.6247     1.9998 </r>
       <r>    -5.9786     0.0045     2.0000 </r>
       <r>    -5.9238     0.0000     2.0000 </r>
       <r>    -5.8690     0.0000     2.0000 </r>
       <r>    -5.8142     0.0000     2.0000 </r>
       <r>    -5.7594     0.0000     2.0000 </r>
       <r>    -5.7045     0.0000     2.0000 </r>
       <r>    -5.6497     0.0000     2.0000 </r>
       <r>    -5.5949     0.0000     2.0000 </r>
       <r>    -5.5401     0.0006     2.0000 </r>
       <r>    -5.4853     0.3358     2.0184 </r>
       <r>    -5.4305    19.2435     3.0733 </r>
       <r>    -5.3756   132.4192    10.3322 </r>
       <r>    -5.3208   123.9481    17.1268 </r>
       <r>    -5.2660    15.6926    17.9870 </r>
       <r>    -5.2112     0.4121    18.0096 </r>
       <r>    -5.1564    11.7205    18.6521 </r>
       <r>    -5.1015    92.8449    23.7417 </r>
       <r>    -5.0467    99.4320    29.1923 </r>
       <r>    -4.9919    14.4804    29.9861 </r>
       <r>    -4.9371     0.2531    30.0000 </r>
       <r>    -4.8823     0.0005    30.0000 </r>
       <r>    -4.8275     0.0000    30.0000 </r>
       <r>    -4.7726     0.0000    30.0000 </r>
       <r>    -4.7178     0.0000    30.0000 </r>
       <r>    -4.6630     0.0000    30.0000 </r>
       <r>    -4.6082     0.0000    30.0000 </r>
       <r>    -4.5534     0.0000    30.0000 </r>
       <r>    -4.4986     0.0000    30.0000 </r>
       <r>    -4.4437     0.0000    30.0000 </r>
       <r>    -4.3889     0.0000    30.0000 </r>
       <r>    -4.3341     0.0001    30.0000 </r>
       <r>    -4.2793     0.1191    30.0065 </r>
       <r>    -4.2245    12.2205    30.6764 </r>
       <r>    -4.1696   145.2583    38.6392 </r>
       <r>    -4.1148   229.0739    51.1965 </r>
       <r>    -4.0600    49.8004    53.9264 </r>
       <r>    -4.0052     1.3712    54.0016 </r>
       <r>    -3.9504     3.6451    54.2014 </r>
       <r>    -3.8956    46.2507    56.7368 </r>
       <r>    -3.8407    77.5625    60.9886 </r>
       <r>    -3.7859    17.9348    61.9717 </r>
       <r>    -3.7311     0.5141    61.9999 </r>
       <r>    -3.6763     0.0018    62.0000 </r>
       <r>    -3.6215     0.1764    62.0097 </r>
       <r>    -3.5666    20.2519    63.1198 </r>
       <r>    -3.5118   268.2553    77.8250 </r>
       <r>    -3.4570   469.6371   103.5694 </r>
       <r>    -3.4022   113.8501   109.8105 </r>
       <r>    -3.3474     3.4464   109.9994 </r>
       <r>    -3.2926     0.0114   110.0000 </r>
       <r>    -3.2377     0.0000   110.0000 </r>
       <r>    -3.1829     0.0000   110.0000 </r>
       <r>    -3.1281     0.0000   110.0000 </r>
       <r>    -3.0733     0.0000   110.0000 </r>
       <r>    -3.0185     0.0000   110.0000 </r>
       <r>    -2.9637     0.0000   110.0000 </r>
       <r>    -2.9088     0.0000   110.0000 </r>
       <r>    -2.8540     0.0000   110.0000 </r>
       <r>    -2.7992     0.0000   110.0000 </r>
       <r>    -2.7444     0.0000   110.0000 </r>
       <r>    -2.6896     0.0000   110.0000 </r>
       <r>    -2.6347     0.0000   110.0000 </r>
       <r>    -2.5799     0.0000   110.0000 </r>
       <r>    -2.5251     0.0000   110.0000 </r>
       <r>    -2.4703     0.0000   110.0000 </r>
       <r>    -2.4155     0.0000   110.0000 </r>
       <r>    -2.3607     0.0000   110.0000 </r>
       <r>    -2.3058     0.0000   110.0000 </r>
       <r>    -2.2510     0.0007   110.0000 </r>
       <r>    -2.1962     0.3189   110.0175 </r>
       <r>    -2.1414    16.5144   110.9228 </r>
       <r>    -2.0866   103.3939   116.5906 </r>
       <r>    -2.0318    89.7787   121.5121 </r>
       <r>    -1.9769    61.3615   124.8758 </r>
       <r>    -1.9221   230.4767   137.5100 </r>
       <r>    -1.8673   142.9978   145.3488 </r>
       <r>    -1.8125    11.7667   145.9939 </r>
       <r>    -1.7577     0.1120   146.0000 </r>
       <r>    -1.7028     0.0001   146.0000 </r>
       <r>    -1.6480     0.0000   146.0000 </r>
       <r>    -1.5932     0.0000   146.0000 </r>
       <r>    -1.5384     0.0000   146.0000 </r>
       <r>    -1.4836     0.0000   146.0000 </r>
       <r>    -1.4288     0.0000   146.0000 </r>
       <r>    -1.3739     0.0008   146.0000 </r>
       <r>    -1.3191     0.3205   146.0176 </r>
       <r>    -1.2643    13.8640   146.7776 </r>
       <r>    -1.2095    73.3217   150.7969 </r>
       <r>    -1.1547    53.2149   153.7141 </r>
       <r>    -1.0999     5.1577   153.9968 </r>
       <r>    -1.0450     0.0584   154.0000 </r>
       <r>    -0.9902     0.0001   154.0000 </r>
       <r>    -0.9354     0.0000   154.0000 </r>
       <r>    -0.8806     0.0000   154.0000 </r>
       <r>    -0.8258     0.0040   154.0002 </r>
       <r>    -0.7709     1.6815   154.0924 </r>
       <r>    -0.7161    76.9761   158.3120 </r>
       <r>    -0.6613   430.8429   181.9299 </r>
       <r>    -0.6065   331.4353   200.0984 </r>
       <r>    -0.5517    34.2711   201.9771 </r>
       <r>    -0.4969     0.4173   202.0000 </r>
       <r>    -0.4420     0.0005   202.0000 </r>
       <r>    -0.3872     0.0000   202.0000 </r>
       <r>    -0.3324     0.0000   202.0000 </r>
       <r>    -0.2776     0.0000   202.0000 </r>
       <r>    -0.2228     0.0000   202.0000 </r>
       <r>    -0.1679     0.0000   202.0000 </r>
       <r>    -0.1131     0.0000   202.0000 </r>
       <r>    -0.0583     0.0000   202.0000 </r>
       <r>    -0.0035     0.0000   202.0000 </r>
       <r>     0.0513     0.0006   202.0000 </r>
       <r>     0.1061     0.3871   202.0213 </r>
       <r>     0.1610    24.7606   203.3786 </r>
       <r>     0.2158   189.0279   213.7407 </r>
       <r>     0.2706   195.6410   224.4653 </r>
       <r>     0.3254    27.5316   225.9745 </r>
       <r>     0.3802     0.4646   226.0000 </r>
       <r>     0.4350     0.0008   226.0000 </r>
       <r>     0.4899     0.0000   226.0000 </r>
       <r>     0.5447     0.0000   226.0000 </r>
       <r>     0.5995     0.0000   226.0000 </r>
       <r>     0.6543     0.0000   226.0000 </r>
       <r>     0.7091     0.0000   226.0000 </r>
       <r>     0.7640     0.0000   226.0000 </r>
       <r>     0.8188     0.0000   226.0000 </r>
       <r>     0.8736     0.0000   226.0000 </r>
       <r>     0.9284     0.0000   226.0000 </r>
       <r>     0.9832     0.0000   226.0000 </r>
       <r>     1.0380     0.0000   226.0000 </r>
       <r>     1.0929     0.0000   226.0000 </r>
       <r>     1.1477     0.0000   226.0000 </r>
       <r>     1.2025     0.0000   226.0000 </r>
       <r>     1.2573     0.0000   226.0000 </r>
       <r>     1.3121     0.0000   226.0000 </r>
       <r>     1.3669     0.0000   226.0000 </r>
       <r>     1.4218     0.0000   226.0000 </r>
       <r>     1.4766     0.0000   226.0000 </r>
       <r>     1.5314     0.0000   226.0000 </r>
       <r>     1.5862     0.0000   226.0000 </r>
       <r>     1.6410     0.0491   226.0027 </r>
       <r>     1.6959     6.0551   226.3346 </r>
       <r>     1.7507    85.5179   231.0225 </r>
       <r>     1.8055   163.3876   239.9791 </r>
       <r>     1.8603   138.1078   247.5498 </r>
       <r>     1.9151   262.4424   261.9363 </r>
       <r>     1.9699   245.5211   275.3953 </r>
       <r>     2.0248   223.9501   287.6717 </r>
       <r>     2.0796    51.5395   290.4970 </r>
       <r>     2.1344   144.2182   298.4027 </r>
       <r>     2.1892   507.0320   326.1971 </r>
       <r>     2.2440   387.1995   347.4225 </r>
       <r>     2.2989    46.3369   349.9625 </r>
       <r>     2.3537     0.6821   349.9999 </r>
       <r>     2.4085     0.0011   350.0000 </r>
       <r>     2.4633     0.0000   350.0000 </r>
       <r>     2.5181     0.0000   350.0000 </r>
       <r>     2.5729     0.0000   350.0000 </r>
       <r>     2.6278     0.0000   350.0000 </r>
       <r>     2.6826     0.0001   350.0000 </r>
       <r>     2.7374     0.0817   350.0045 </r>
       <r>     2.7922     7.4225   350.4114 </r>
       <r>     2.8470    78.5746   354.7186 </r>
       <r>     2.9018   110.8560   360.7955 </r>
       <r>     2.9567    21.4625   361.9721 </r>
       <r>     3.0115     0.5085   361.9999 </r>
       <r>     3.0663     0.0013   362.0000 </r>
       <r>     3.1211     0.0000   362.0000 </r>
       <r>     3.1759     0.0000   362.0000 </r>
       <r>     3.2308     0.0000   362.0000 </r>
       <r>     3.2856     0.0000   362.0000 </r>
       <r>     3.3404     0.0075   362.0004 </r>
       <r>     3.3952     2.5961   362.1427 </r>
       <r>     3.4500    97.9556   367.5124 </r>
       <r>     3.5048   456.5346   392.5386 </r>
       <r>     3.5597   293.2711   408.6151 </r>
       <r>     3.6145    25.0160   409.9864 </r>
       <r>     3.6693     0.2786   410.0017 </r>
       <r>     3.7241     5.2648   410.2903 </r>
       <r>     3.7789   100.0706   415.7759 </r>
       <r>     3.8337   245.3873   429.2275 </r>
       <r>     3.8886    83.4283   433.8009 </r>
       <r>     3.9434     3.6149   433.9990 </r>
       <r>     3.9982     0.0174   434.0000 </r>
       <r>     4.0530     0.0000   434.0000 </r>
       <r>     4.1078     0.0000   434.0000 </r>
       <r>     4.1627     0.0000   434.0000 </r>
       <r>     4.2175     0.0285   434.0016 </r>
       <r>     4.2723     4.9662   434.2738 </r>
       <r>     4.3271    97.3207   439.6087 </r>
       <r>     4.3819   246.6213   453.1279 </r>
       <r>     4.4367   121.0409   459.7631 </r>
       <r>     4.4916   158.2323   468.4371 </r>
       <r>     4.5464    93.8623   473.5824 </r>
       <r>     4.6012     7.5482   473.9962 </r>
       <r>     4.6560     0.0701   474.0000 </r>
       <r>     4.7108     0.0001   474.0000 </r>
       <r>     4.7657     0.0106   474.0006 </r>
       <r>     4.8205     2.8724   474.1580 </r>
       <r>     4.8753    85.3830   478.8385 </r>
       <r>     4.9301   318.9686   496.3237 </r>
       <r>     4.9849   165.1959   505.3794 </r>
       <r>     5.0397    11.2343   505.9952 </r>
       <r>     5.0946     0.0875   506.0000 </r>
       <r>     5.1494     0.0001   506.0000 </r>
       <r>     5.2042     0.0000   506.0000 </r>
       <r>     5.2590     0.0000   506.0000 </r>
       <r>     5.3138     0.0000   506.0000 </r>
       <r>     5.3686     0.0000   506.0000 </r>
       <r>     5.4235     0.0000   506.0000 </r>
       <r>     5.4783     0.0000   506.0000 </r>
       <r>     5.5331     0.0174   506.0010 </r>
       <r>     5.5879     2.1920   506.1211 </r>
       <r>     5.6427    31.5470   507.8505 </r>
       <r>     5.6976    59.6025   511.1177 </r>
       <r>     5.7524    15.5826   511.9719 </r>
       <r>     5.8072     0.5102   511.9999 </r>
       <r>     5.8620     0.0018   512.0000 </r>
       <r>     5.9168     0.0000   512.0000 </r>
       <r>     5.9716     0.0000   512.0000 </r>
       <r>     6.0265     0.0000   512.0000 </r>
       <r>     6.0813     0.0000   512.0000 </r>
       <r>     6.1361     0.0000   512.0000 </r>
       <r>     6.1909     0.0000   512.0000 </r>
       <r>     6.2457     0.0026   512.0001 </r>
       <r>     6.3005     0.8169   512.0449 </r>
       <r>     6.3554    27.7375   513.5654 </r>
       <r>     6.4102   116.9936   519.9788 </r>
       <r>     6.4650    68.0856   523.7111 </r>
       <r>     6.5198     5.2248   523.9975 </r>
       <r>     6.5746     0.0461   524.0000 </r>
       <r>     6.6295     0.0003   524.0000 </r>
       <r>     6.6843     0.1684   524.0092 </r>
       <r>     6.7391    11.4285   524.6357 </r>
       <r>     6.7939    92.0623   529.6824 </r>
       <r>     6.8487   100.1597   535.1729 </r>
       <r>     6.9035    14.8239   535.9855 </r>
       <r>     6.9584     0.2639   536.0000 </r>
       <r>     7.0132     0.1704   536.0093 </r>
       <r>     7.0680    10.0550   536.5605 </r>
       <r>     7.1228    98.4621   541.9580 </r>
       <r>     7.1776   385.3534   563.0822 </r>
       <r>     7.2324   444.5549   587.4517 </r>
       <r>     7.2873    81.1280   591.8990 </r>
       <r>     7.3421     1.8386   591.9998 </r>
       <r>     7.3969     0.0045   592.0000 </r>
       <r>     7.4517     0.0008   592.0000 </r>
       <r>     7.5065     0.4077   592.0224 </r>
       <r>     7.5614    21.5148   593.2018 </r>
       <r>     7.6162   136.9679   600.7101 </r>
       <r>     7.6710   118.8908   607.2274 </r>
       <r>     7.7258    13.9017   607.9895 </r>
       <r>     7.7806     0.1922   608.0000 </r>
       <r>     7.8354     0.0003   608.0000 </r>
       <r>     7.8903     0.0000   608.0000 </r>
       <r>     7.9451     0.0213   608.0012 </r>
       <r>     7.9999     4.1139   608.2267 </r>
       <r>     8.0547    88.8989   613.0999 </r>
       <r>     8.1095   246.4393   626.6092 </r>
       <r>     8.1644   111.3205   632.7115 </r>
       <r>     8.2192    64.9869   636.2739 </r>
       <r>     8.2740    29.5843   637.8957 </r>
       <r>     8.3288     1.8891   637.9992 </r>
       <r>     8.3836     0.0137   638.0000 </r>
       <r>     8.4384     0.0000   638.0000 </r>
       <r>     8.4933     0.0000   638.0000 </r>
       <r>     8.5481     0.0000   638.0000 </r>
       <r>     8.6029     0.0000   638.0000 </r>
       <r>     8.6577     0.0265   638.0015 </r>
       <r>     8.7125     2.8004   638.1550 </r>
       <r>     8.7673    34.7127   640.0578 </r>
       <r>     8.8222    57.9167   643.2327 </r>
       <r>     8.8770    13.5903   643.9777 </r>
       <r>     8.9318     0.4055   643.9999 </r>
       <r>     8.9866     0.0014   644.0000 </r>
       <r>     9.0414     0.0000   644.0000 </r>
       <r>     9.0963     0.0000   644.0000 </r>
       <r>     9.1511     0.0000   644.0000 </r>
       <r>     9.2059     0.0000   644.0000 </r>
       <r>     9.2607     0.0000   644.0000 </r>
       <r>     9.3155     0.0000   644.0000 </r>
       <r>     9.3703     0.0000   644.0000 </r>
       <r>     9.4252     0.0000   644.0000 </r>
       <r>     9.4800     0.0000   644.0000 </r>
       <r>     9.5348     0.0000   644.0000 </r>
      </set>
     </set>
    </array>
   </total>
  </dos>
 </calculation>
 <structure name="finalpos" >
  <crystal>
   <varray name="basis" >
    <v>       0.00000000      10.93716070      10.93716070 </v>
    <v>      10.93716070       0.00000000      10.93716070 </v>
    <v>      10.93716070      10.93716070       0.00000000 </v>
   </varray>
   <i name="volume">   2616.63878844 </i>
   <varray name="rec_basis" >
    <v>      -0.04571570       0.04571570       0.04571570 </v>
    <v>       0.04571570      -0.04571570       0.04571570 </v>
    <v>       0.04571570       0.04571570      -0.04571570 </v>
   </varray>
  </crystal>
  <varray name="positions" >
   <v>       0.06295716       0.06204284       0.06295716 </v>
   <v>       0.31250000       0.06250000       0.06250000 </v>
   <v>       0.56250000       0.06250000       0.06250000 </v>
   <v>       0.81250000       0.06250000       0.06250000 </v>
   <v>       0.06250000       0.31250000       0.06250000 </v>
   <v>       0.31250000       0.31250000       0.06250000 </v>
   <v>       0.56250000       0.31250000       0.06250000 </v>
   <v>       0.81250000       0.31250000       0.06250000 </v>
   <v>       0.06250000       0.56250000       0.06250000 </v>
   <v>       0.31250000       0.56250000       0.06250000 </v>
   <v>       0.56250000       0.56250000       0.06250000 </v>
   <v>       0.81250000       0.56250000       0.06250000 </v>
   <v>       0.06250000       0.81250000       0.06250000 </v>
   <v>       0.31250000       0.81250000       0.06250000 </v>
   <v>       0.56250000       0.81250000       0.06250000 </v>
   <v>       0.81250000       0.81250000       0.06250000 </v>
   <v>       0.06250000       0.06250000       0.31250000 </v>
   <v>       0.31250000       0.06250000       0.31250000 </v>
   <v>       0.56250000       0.06250000       0.31250000 </v>
   <v>       0.81250000       0.06250000       0.31250000 </v>
   <v>       0.06250000       0.31250000       0.31250000 </v>
   <v>       0.31250000       0.31250000       0.31250000 </v>
   <v>       0.56250000       0.31250000       0.31250000 </v>
   <v>       0.81250000       0.31250000       0.31250000 </v>
   <v>       0.06250000       0.56250000       0.31250000 </v>
   <v>       0.31250000       0.56250000       0.31250000 </v>
   <v>       0.56250000       0.56250000       0.31250000 </v>
   <v>       0.81250000       0.56250000       0.31250000 </v>
   <v>       0.06250000       0.81250000       0.31250000 </v>
   <v>       0.31250000       0.81250000       0.31250000 </v>
   <v>       0.56250000       0.81250000       0.31250000 </v>
   <v>       0.81250000       0.81250000       0.31250000 </v>
   <v>       0.06250000       0.06250000       0.56250000 </v>
   <v>       0.31250000       0.06250000       0.56250000 </v>
   <v>       0.56250000       0.06250000       0.56250000 </v>
   <v>       0.81250000       0.06250000       0.56250000 </v>
   <v>       0.06250000       0.31250000       0.56250000 </v>
   <v>       0.31250000       0.31250000       0.56250000 </v>
   <v>       0.56250000       0.31250000       0.56250000 </v>
   <v>       0.81250000       0.31250000       0.56250000 </v>
   <v>       0.06250000       0.56250000       0.56250000 </v>
   <v>       0.31250000       0.56250000       0.56250000 </v>
   <v>       0.56250000       0.56250000       0.56250000 </v>
   <v>       0.81250000       0.56250000       0.56250000 </v>
   <v>       0.06250000       0.81250000       0.56250000 </v>
   <v>       0.31250000       0.81250000       0.56250000 </v>
   <v>       0.56250000       0.81250000       0.56250000 </v>
   <v>       0.81250000       0.81250000       0.56250000 </v>
   <v>       0.06250000       0.06250000       0.81250000 </v>
   <v>       0.31250000       0.06250000       0.81250000 </v>
   <v>       0.56250000       0.06250000       0.81250000 </v>
   <v>       0.81250000       0.06250000       0.81250000 </v>
   <v>       0.06250000       0.31250000       0.81250000 </v>
   <v>       0.31250000       0.31250000       0.81250000 </v>
   <v>       0.56250000       0.31250000       0.81250000 </v>
   <v>       0.81250000       0.31250000       0.81250000 </v>
   <v>       0.06250000       0.56250000       0.81250000 </v>
   <v>       0.31250000       0.56250000       0.81250000 </v>
   <v>       0.56250000       0.56250000       0.81250000 </v>
   <v>       0.81250000       0.56250000       0.81250000 </v>
   <v>       0.06250000       0.81250000       0.81250000 </v>
   <v>       0.31250000       0.81250000       0.81250000 </v>
   <v>       0.56250000       0.81250000       0.81250000 </v>
   <v>       0.81250000       0.81250000       0.81250000 </v>
   <v>       0.00000000       0.00000000       0.00000000 </v>
   <v>       0.25000000       0.00000000       0.00000000 </v>
   <v>       0.49954284       0.00045716       0.99954284 </v>
   <v>       0.75000000       0.00000000       0.00000000 </v>
   <v>       0.00000000       0.25000000       0.00000000 </v>
   <v>       0.25000000       0.25000000       0.00000000 </v>
   <v>       0.50000000       0.25000000       0.00000000 </v>
   <v>       0.75000000       0.25000000       0.00000000 </v>
   <v>       0.00000000       0.50000000       0.00000000 </v>
   <v>       0.25000000       0.50000000       0.00000000 </v>
   <v>       0.50000000       0.50000000       0.00000000 </v>
   <v>       0.75000000       0.50000000       0.00000000 </v>
   <v>       0.00000000       0.75000000       0.00000000 </v>
   <v>       0.25000000       0.75000000       0.00000000 </v>
   <v>       0.50000000       0.75000000       0.00000000 </v>
   <v>       0.75000000       0.75000000       0.00000000 </v>
   <v>       0.00000000       0.00000000       0.25000000 </v>
   <v>       0.25000000       0.00000000       0.25000000 </v>
   <v>       0.50000000       0.00000000       0.25000000 </v>
   <v>       0.75000000       0.00000000       0.25000000 </v>
   <v>       0.00000000       0.25000000       0.25000000 </v>
   <v>       0.25000000       0.25000000       0.25000000 </v>
   <v>       0.50000000       0.25000000       0.25000000 </v>
   <v>       0.75000000       0.25000000       0.25000000 </v>
   <v>       0.00000000       0.50000000       0.25000000 </v>
   <v>       0.25000000       0.50000000       0.25000000 </v>
   <v>       0.50000000       0.50000000       0.25000000 </v>
   <v>       0.75000000       0.50000000       0.25000000 </v>
   <v>       0.00000000       0.75000000       0.25000000 </v>
   <v>       0.25000000       0.75000000       0.25000000 </v>
   <v>       0.50000000       0.75000000       0.25000000 </v>
   <v>       0.75000000       0.75000000       0.25000000 </v>
   <v>       0.00000000       0.00000000       0.50000000 </v>
   <v>       0.25000000       0.00000000       0.50000000 </v>
   <v>       0.50000000       0.00000000       0.50000000 </v>
   <v>       0.75000000       0.00000000       0.50000000 </v>
   <v>       0.00000000       0.25000000       0.50000000 </v>
   <v>       0.25000000       0.25000000       0.50000000 </v>
   <v>       0.50000000       0.25000000       0.50000000 </v>
   <v>       0.75000000       0.25000000       0.50000000 </v>
   <v>       0.00000000       0.50000000       0.50000000 </v>
   <v>       0.25000000       0.50000000       0.50000000 </v>
   <v>       0.50000000       0.50000000       0.50000000 </v>
   <v>       0.75000000       0.50000000       0.50000000 </v>
   <v>       0.00000000       0.75000000       0.50000000 </v>
   <v>       0.25000000       0.75000000       0.50000000 </v>
   <v>       0.50000000       0.75000000       0.50000000 </v>
   <v>       0.75000000       0.75000000       0.50000000 </v>
   <v>       0.00000000       0.00000000       0.75000000 </v>
   <v>       0.25000000       0.00000000       0.75000000 </v>
   <v>       0.50000000       0.00000000       0.75000000 </v>
   <v>       0.75000000       0.00000000       0.75000000 </v>
   <v>       0.00000000       0.25000000       0.75000000 </v>
   <v>       0.25000000       0.25000000       0.75000000 </v>
   <v>       0.50000000       0.25000000       0.75000000 </v>
   <v>       0.75000000       0.25000000       0.75000000 </v>
   <v>       0.00000000       0.50000000       0.75000000 </v>
   <v>       0.25000000       0.50000000       0.75000000 </v>
   <v>       0.50000000       0.50000000       0.75000000 </v>
   <v>       0.75000000       0.50000000       0.75000000 </v>
   <v>       0.00000000       0.75000000       0.75000000 </v>
   <v>       0.25000000       0.75000000       0.75000000 </v>
   <v>       0.50000000       0.75000000       0.75000000 </v>
   <v>       0.75000000       0.75000000       0.75000000 </v>
  </varray>
 </structure>
</modeling>
