 vasp.5.4.4.18Apr17-6-g9f103f2a35 (build Aug 16 2020 16:33:06) complex          
  
 executed on             LinuxIFC date 2026.08.15  14:52:28
 running on   40 total cores
 distrk:  each k-point on   40 cores,    1 groups
 distr:  one band on NCORES_PER_BAND=  20 cores,    2 groups


--------------------------------------------------------------------------------------------------------


 INCAR:
 POTCAR:   PAW_PBE Si 05Jan2001                   

 ----------------------------------------------------------------------------- 
|                                                                             |
|           W    W    AA    RRRRR   N    N  II  N    N   GGGG   !!!           |
|           W    W   A  A   R    R  NN   N  II  NN   N  G    G  !!!           |
|           W    W  A    A  R    R  N N  N  II  N N  N  G       !!!           |
|           W WW W  AAAAAA  RRRRR   N  N N  II  N  N N  G  GGG   !            |
|           WW  WW  A    A  R   R   N   NN  II  N   NN  G    G                |
|           W    W  A    A  R    R  N    N  II  N    N   GGGG   !!!           |
|                                                                             |
|      For optimal performance we recommend to set                            |
|        NCORE= 4 - approx SQRT( number of cores)                             |
|      NCORE specifies how many cores store one orbital (NPAR=cpu/NCORE).     |
|      This setting can  greatly improve the performance of VASP for DFT.     |
|      The default,   NCORE=1            might be grossly inefficient         |
|      on modern multi-core architectures or massively parallel machines.     |
|      Do your own testing !!!!                                               |
|      Unfortunately you need to use the default for GW and RPA calculations. |
|      (for HF NCORE is supported but not extensively tested yet)             |
|                                                                             |
 ----------------------------------------------------------------------------- 

 POTCAR:   PAW_PBE Si 05Jan2001                   
   VRHFIN =Si: s2p2                                                             
   LEXCH  = PE                                                                  
   EATOM  =   103.0669 eV,    7.5752 Ry                                         
                                                                                
   TITEL  = PAW_PBE Si 05Jan2001                                                
   LULTRA =        F    use ultrasoft PP ?                                      
   IUNSCR =        1    unscreen: 0-lin 1-nonlin 2-no                           
   RPACOR =    1.500    partial core radius                                     
   POMASS =   28.085; ZVAL   =    4.000    mass and valenz                      
   RCORE  =    1.900    outmost cutoff radius                                   
   RWIGS  =    2.480; RWIGS  =    1.312    wigner-seitz radius (au A)           
   ENMAX  =  245.345; ENMIN  =  184.009 eV                                      
   ICORE  =        2    local potential                                         
   LCOR   =        T    correct aug charges                                     
   LPAW   =        T    paw PP                                                  
   EAUG   =  322.069                                                            
   DEXC   =    -.007                                                            
   RMAX   =    2.944    core radius for proj-oper                               
   RAUG   =    1.300    factor for augmentation sphere                          
   RDEP   =    1.993    radius for radial grids                                 
   QCUT   =   -4.246; QGAM   =    8.493    optimization parameters              
                                                                                
   Description                                                                  
     l     E      TYP  RCUT    TYP  RCUT                                        
     0   .000     23  1.900                                                     
     0   .000     23  1.900                                                     
     1   .000     23  1.900                                                     
     1   .000     23  1.900                                                     
     2   .000      7  1.900                                                     
  local pseudopotential read in
  partial core-charges read in
  atomic valenz-charges read in
  non local Contribution for L=           0  read in
    real space projection operators read in
  non local Contribution for L=           0  read in
    real space projection operators read in
  non local Contribution for L=           1  read in
    real space projection operators read in
  non local Contribution for L=           1  read in
    real space projection operators read in
    PAW grid and wavefunctions read in
 
   number of l-projection  operators is LMAX  =           4
   number of lm-projection operators is LMMAX =           8
 

 ----------------------------------------------------------------------------- 
|                                                                             |
|  ADVICE TO THIS USER RUNNING 'VASP/VAMP'   (HEAR YOUR MASTER'S VOICE ...):  |
|                                                                             |
|      You have a (more or less) 'large supercell' and for larger cells       |
|      it might be more efficient to use real space projection operators      |
|      So try LREAL= Auto  in the INCAR   file.                               |
|      Mind: If you want to do a very accurate calculations keep the          |
|      reciprocal projection scheme          (i.e. LREAL=.FALSE.)             |
|                                                                             |
 ----------------------------------------------------------------------------- 

 PAW_PBE Si 05Jan2001                   :
 energy of atom  1       EATOM= -103.0669
 kinetic energy error for atom=    0.0006 (will be added to EATOM!!)
 
 
 POSCAR: Si                                      
  positions in direct lattice
  No initial velocities read in
 exchange correlation table for  LEXCH =        8
   RHO(1)=    0.500       N(1)  =     2000
   RHO(2)=  100.500       N(2)  =     4000
 


--------------------------------------------------------------------------------------------------------


 ion  position               nearest neighbor table
   1  0.063  0.062  0.063-   4 2.36  34 2.36  10 2.37   2 2.37
   2  0.000  0.000  0.000-   7 2.37  25 2.37  97 2.37   1 2.37
   3  0.312  0.062  0.062-   6 2.36   4 2.37  12 2.37  36 2.37
   4  0.250  0.000  0.000-   1 2.36   3 2.37  27 2.37  99 2.37
   5  0.562  0.062  0.062-   8 2.37  14 2.37  38 2.37   6 2.37
   6  0.500  0.000  1.000-   3 2.36 101 2.36  29 2.37   5 2.37
   7  0.812  0.062  0.062-   2 2.37   8 2.37  16 2.37  40 2.37
   8  0.750  0.000  0.000-   5 2.37   7 2.37  31 2.37 103 2.37
   9  0.062  0.312  0.062-  10 2.37  12 2.37  18 2.37  42 2.37
  10  0.000  0.250  0.000-   9 2.37  15 2.37 105 2.37   1 2.37
  11  0.312  0.312  0.062-  12 2.37  14 2.37  20 2.37  44 2.37
  12  0.250  0.250  0.000-   3 2.37   9 2.37  11 2.37 107 2.37
  13  0.562  0.312  0.062-  14 2.37  16 2.37  22 2.37  46 2.37
  14  0.500  0.250  0.000-   5 2.37  11 2.37  13 2.37 109 2.37
  15  0.812  0.312  0.062-  10 2.37  16 2.37  24 2.37  48 2.37
  16  0.750  0.250  0.000-   7 2.37  13 2.37  15 2.37 111 2.37
  17  0.062  0.562  0.062-  18 2.37  20 2.37  26 2.37  50 2.37
  18  0.000  0.500  0.000-   9 2.37  17 2.37  23 2.37 113 2.37
  19  0.312  0.562  0.062-  20 2.37  22 2.37  28 2.37  52 2.37
  20  0.250  0.500  0.000-  11 2.37  17 2.37  19 2.37 115 2.37
  21  0.562  0.562  0.062-  22 2.37  24 2.37  30 2.37  54 2.37
  22  0.500  0.500  0.000-  13 2.37  19 2.37  21 2.37 117 2.37
  23  0.812  0.562  0.062-  18 2.37  24 2.37  32 2.37  56 2.37
  24  0.750  0.500  0.000-  15 2.37  21 2.37  23 2.37 119 2.37
  25  0.062  0.812  0.062-   2 2.37  26 2.37  28 2.37  58 2.37
  26  0.000  0.750  0.000-  17 2.37  25 2.37  31 2.37 121 2.37
  27  0.312  0.812  0.062-   4 2.37  28 2.37  30 2.37  60 2.37
  28  0.250  0.750  0.000-  19 2.37  25 2.37  27 2.37 123 2.37
  29  0.562  0.812  0.062-  30 2.37  32 2.37  62 2.37   6 2.37
  30  0.500  0.750  0.000-  21 2.37  27 2.37  29 2.37 125 2.37
  31  0.812  0.812  0.062-   8 2.37  26 2.37  32 2.37  64 2.37
  32  0.750  0.750  0.000-  23 2.37  29 2.37  31 2.37 127 2.37
  33  0.062  0.062  0.312-  34 2.37  36 2.37  42 2.37  66 2.37
  34  0.000  0.000  0.250-   1 2.36  33 2.37  39 2.37  57 2.37
  35  0.312  0.062  0.312-  36 2.37  38 2.37  44 2.37  68 2.37
  36  0.250  0.000  0.250-   3 2.37  33 2.37  35 2.37  59 2.37
  37  0.562  0.062  0.312-  38 2.37  40 2.37  46 2.37  70 2.37
  38  0.500  0.000  0.250-   5 2.37  35 2.37  37 2.37  61 2.37
  39  0.812  0.062  0.312-  34 2.37  40 2.37  48 2.37  72 2.37
  40  0.750  0.000  0.250-   7 2.37  37 2.37  39 2.37  63 2.37
  41  0.062  0.312  0.312-  42 2.37  44 2.37  50 2.37  74 2.37
  42  0.000  0.250  0.250-   9 2.37  33 2.37  41 2.37  47 2.37
  43  0.312  0.312  0.312-  44 2.37  46 2.37  52 2.37  76 2.37
  44  0.250  0.250  0.250-  11 2.37  35 2.37  41 2.37  43 2.37
  45  0.562  0.312  0.312-  46 2.37  48 2.37  54 2.37  78 2.37
  46  0.500  0.250  0.250-  13 2.37  37 2.37  43 2.37  45 2.37
  47  0.812  0.312  0.312-  42 2.37  48 2.37  56 2.37  80 2.37
  48  0.750  0.250  0.250-  15 2.37  39 2.37  45 2.37  47 2.37
  49  0.062  0.562  0.312-  50 2.37  52 2.37  58 2.37  82 2.37
  50  0.000  0.500  0.250-  17 2.37  41 2.37  49 2.37  55 2.37
  51  0.312  0.562  0.312-  52 2.37  54 2.37  60 2.37  84 2.37
  52  0.250  0.500  0.250-  19 2.37  43 2.37  49 2.37  51 2.37
  53  0.562  0.562  0.312-  54 2.37  56 2.37  62 2.37  86 2.37
  54  0.500  0.500  0.250-  21 2.37  45 2.37  51 2.37  53 2.37
  55  0.812  0.562  0.312-  50 2.37  56 2.37  64 2.37  88 2.37
  56  0.750  0.500  0.250-  23 2.37  47 2.37  53 2.37  55 2.37
  57  0.062  0.812  0.312-  34 2.37  58 2.37  60 2.37  90 2.37
  58  0.000  0.750  0.250-  25 2.37  49 2.37  57 2.37  63 2.37
  59  0.312  0.812  0.312-  36 2.37  60 2.37  62 2.37  92 2.37
  60  0.250  0.750  0.250-  27 2.37  51 2.37  57 2.37  59 2.37
  61  0.562  0.812  0.312-  38 2.37  62 2.37  64 2.37  94 2.37
  62  0.500  0.750  0.250-  29 2.37  53 2.37  59 2.37  61 2.37
  63  0.812  0.812  0.312-  40 2.37  58 2.37  64 2.37  96 2.37
  64  0.750  0.750  0.250-  31 2.37  55 2.37  61 2.37  63 2.37
  65  0.062  0.062  0.562-  66 2.37  68 2.37  74 2.37  98 2.37
  66  0.000  0.000  0.500-  33 2.37  65 2.37  71 2.37  89 2.37
  67  0.312  0.062  0.562-  68 2.37  70 2.37  76 2.37 100 2.37
  68  0.250  0.000  0.500-  35 2.37  65 2.37  67 2.37  91 2.37
  69  0.562  0.062  0.562-  70 2.37  72 2.37  78 2.37 102 2.37
  70  0.500  0.000  0.500-  37 2.37  67 2.37  69 2.37  93 2.37
  71  0.812  0.062  0.562-  66 2.37  72 2.37  80 2.37 104 2.37
  72  0.750  0.000  0.500-  39 2.37  69 2.37  71 2.37  95 2.37
  73  0.062  0.312  0.562-  74 2.37  76 2.37  82 2.37 106 2.37
  74  0.000  0.250  0.500-  41 2.37  65 2.37  73 2.37  79 2.37
  75  0.312  0.312  0.562-  76 2.37  78 2.37  84 2.37 108 2.37
  76  0.250  0.250  0.500-  43 2.37  67 2.37  73 2.37  75 2.37
  77  0.562  0.312  0.562-  78 2.37  80 2.37  86 2.37 110 2.37
  78  0.500  0.250  0.500-  45 2.37  69 2.37  75 2.37  77 2.37
  79  0.812  0.312  0.562-  74 2.37  80 2.37  88 2.37 112 2.37
  80  0.750  0.250  0.500-  47 2.37  71 2.37  77 2.37  79 2.37
  81  0.062  0.562  0.562-  82 2.37  84 2.37  90 2.37 114 2.37
  82  0.000  0.500  0.500-  49 2.37  73 2.37  81 2.37  87 2.37
  83  0.312  0.562  0.562-  84 2.37  86 2.37  92 2.37 116 2.37
  84  0.250  0.500  0.500-  51 2.37  75 2.37  81 2.37  83 2.37
  85  0.562  0.562  0.562-  86 2.37  88 2.37  94 2.37 118 2.37
  86  0.500  0.500  0.500-  53 2.37  77 2.37  83 2.37  85 2.37
  87  0.812  0.562  0.562-  82 2.37  88 2.37  96 2.37 120 2.37
  88  0.750  0.500  0.500-  55 2.37  79 2.37  85 2.37  87 2.37
  89  0.062  0.812  0.562-  66 2.37  90 2.37  92 2.37 122 2.37
  90  0.000  0.750  0.500-  57 2.37  81 2.37  89 2.37  95 2.37
  91  0.312  0.812  0.562-  68 2.37  92 2.37  94 2.37 124 2.37
  92  0.250  0.750  0.500-  59 2.37  83 2.37  89 2.37  91 2.37
  93  0.562  0.812  0.562-  70 2.37  94 2.37  96 2.37 126 2.37
  94  0.500  0.750  0.500-  61 2.37  85 2.37  91 2.37  93 2.37
  95  0.812  0.812  0.562-  72 2.37  90 2.37  96 2.37 128 2.37
  96  0.750  0.750  0.500-  63 2.37  87 2.37  93 2.37  95 2.37
  97  0.062  0.062  0.812-   2 2.37  98 2.37 100 2.37 106 2.37
  98  0.000  0.000  0.750-  65 2.37  97 2.37 103 2.37 121 2.37
  99  0.312  0.062  0.812-   4 2.37 100 2.37 102 2.37 108 2.37
 100  0.250  0.000  0.750-  67 2.37  97 2.37  99 2.37 123 2.37
 101  0.562  0.062  0.812-   6 2.36 102 2.37 104 2.37 110 2.37
 102  0.500  0.000  0.750-  69 2.37  99 2.37 101 2.37 125 2.37
 103  0.812  0.062  0.812-   8 2.37  98 2.37 104 2.37 112 2.37
 104  0.750  0.000  0.750-  71 2.37 101 2.37 103 2.37 127 2.37
 105  0.062  0.312  0.812-  10 2.37 106 2.37 108 2.37 114 2.37
 106  0.000  0.250  0.750-  73 2.37  97 2.37 105 2.37 111 2.37
 107  0.312  0.312  0.812-  12 2.37 108 2.37 110 2.37 116 2.37
 108  0.250  0.250  0.750-  75 2.37  99 2.37 105 2.37 107 2.37
 109  0.562  0.312  0.812-  14 2.37 110 2.37 112 2.37 118 2.37
 110  0.500  0.250  0.750-  77 2.37 101 2.37 107 2.37 109 2.37
 111  0.812  0.312  0.812-  16 2.37 106 2.37 112 2.37 120 2.37
 112  0.750  0.250  0.750-  79 2.37 103 2.37 109 2.37 111 2.37
 113  0.062  0.562  0.812-  18 2.37 114 2.37 116 2.37 122 2.37
 114  0.000  0.500  0.750-  81 2.37 105 2.37 113 2.37 119 2.37
 115  0.312  0.562  0.812-  20 2.37 116 2.37 118 2.37 124 2.37
 116  0.250  0.500  0.750-  83 2.37 107 2.37 113 2.37 115 2.37
 117  0.562  0.562  0.812-  22 2.37 118 2.37 120 2.37 126 2.37
 118  0.500  0.500  0.750-  85 2.37 109 2.37 115 2.37 117 2.37
 119  0.812  0.562  0.812-  24 2.37 114 2.37 120 2.37 128 2.37
 120  0.750  0.500  0.750-  87 2.37 111 2.37 117 2.37 119 2.37
 121  0.062  0.812  0.812-  26 2.37  98 2.37 122 2.37 124 2.37
 122  0.000  0.750  0.750-  89 2.37 113 2.37 121 2.37 127 2.37
 123  0.312  0.812  0.812-  28 2.37 100 2.37 124 2.37 126 2.37
 124  0.250  0.750  0.750-  91 2.37 115 2.37 121 2.37 123 2.37
 125  0.562  0.812  0.812-  30 2.37 102 2.37 126 2.37 128 2.37
 126  0.500  0.750  0.750-  93 2.37 117 2.37 123 2.37 125 2.37
 127  0.812  0.812  0.812-  32 2.37 104 2.37 122 2.37 128 2.37
 128  0.750  0.750  0.750-  95 2.37 119 2.37 125 2.37 127 2.37
 

IMPORTANT INFORMATION: All symmetrisations will be switched off!
NOSYMM: (Re-)initialisation of all symmetry stuff for point group C_1.

 
 
 KPOINTS: K-Spacing Value to Generate K-Mesh: 0.03

Automatic generation of k-mesh.
Space group operators:
 irot       det(A)        alpha          n_x          n_y          n_z        tau_x        tau_y        tau_z
    1     1.000000     0.000000     1.000000     0.000000     0.000000     0.000000     0.000000     0.000000
 
 Subroutine IBZKPT returns following result:
 ===========================================
 
 Found      1 irreducible k-points:
 
 Following reciprocal coordinates:
            Coordinates               Weight
  0.000000  0.000000  0.000000      1.000000
 
 Following cartesian coordinates:
            Coordinates               Weight
  0.000000  0.000000  0.000000      1.000000
 


--------------------------------------------------------------------------------------------------------




 Dimension of arrays:
   k-points           NKPTS =      1   k-points in BZ     NKDIM =      1   number of bands    NBANDS=    322
   number of dos      NEDOS =    301   number of ions     NIONS =    128
   non local maximal  LDIM  =      4   non local SUM 2l+1 LMDIM =      8
   total plane-waves  NPLWV = ******
   max r-space proj   IRMAX =      1   max aug-charges    IRDMAX= 176819
   dimension x,y,z NGX =   120 NGY =  120 NGZ =  120
   dimension x,y,z NGXF=   240 NGYF=  240 NGZF=  240
   support grid    NGXF=   480 NGYF=  480 NGZF=  480
   ions per type =             128
   NGX,Y,Z   is equivalent  to a cutoff of  12.90, 12.90, 12.90 a.u.
   NGXF,Y,Z  is equivalent  to a cutoff of  25.80, 25.80, 25.80 a.u.

 SYSTEM =  unknown system                          
 POSCAR =  Si                                      

 Startparameter for this run:
   NWRITE =      2    write-flag & timer
   PREC   = accura    normal or accurate (medium, high low for compatibility)
   ISTART =      0    job   : 0-new  1-cont  2-samecut
   ICHARG =      2    charge: 1-file 2-atom 10-const
   ISPIN  =      1    spin polarized calculation?
   LNONCOLLINEAR =      F non collinear calculations
   LSORBIT =      F    spin-orbit coupling
   INIWAV =      1    electr: 0-lowe 1-rand  2-diag
   LASPH  =      F    aspherical Exc in radial PAW
   METAGGA=      F    non-selfconsistent MetaGGA calc.

 Electronic Relaxation 1
   ENCUT  =  500.0 eV  36.75 Ry    6.06 a.u.  28.20 28.20 28.20*2*pi/ulx,y,z
   ENINI  =  500.0     initial cutoff
   ENAUG  =  322.1 eV  augmentation charge cutoff
   NELM   =     60;   NELMIN=  2; NELMDL= -5     # of ELM steps 
   EDIFF  = 0.1E-07   stopping-criterion for ELM
   LREAL  =      F    real-space projection
   NLSPLINE    = F    spline interpolate recip. space projectors
   LCOMPAT=      F    compatible to vasp.4.4
   GGA_COMPAT  = T    GGA compatible to vasp.4.4-vasp.4.6
   LMAXPAW     = -100 max onsite density
   LMAXMIX     =    2 max onsite mixed and CHGCAR
   VOSKOWN=      0    Vosko Wilk Nusair interpolation
   ROPT   =    0.00000
 Ionic relaxation
   EDIFFG = 0.1E-06   stopping-criterion for IOM
   NSW    =      0    number of steps for IOM
   NBLOCK =      1;   KBLOCK =      1    inner block; outer block 
   IBRION =     -1    ionic relax: 0-MD 1-quasi-New 2-CG
   NFREE  =      0    steps in history (QN), initial steepest desc. (CG)
   ISIF   =      2    stress and relaxation
   IWAVPR =     10    prediction:  0-non 1-charg 2-wave 3-comb
   ISYM   =      0    0-nonsym 1-usesym 2-fastsym
   LCORR  =      T    Harris-Foulkes like correction to forces

   POTIM  = 0.5000    time-step for ionic-motion
   TEIN   =    0.0    initial temperature
   TEBEG  =    0.0;   TEEND  =   0.0 temperature during run
   SMASS  =  -3.00    Nose mass-parameter (am)
   estimated Nose-frequenzy (Omega)   =  0.10E-29 period in steps =****** mass=  -0.547E-26a.u.
   SCALEE = 1.0000    scale energy and forces
   NPACO  =    256;   APACO  = 16.0  distance and # of slots for P.C.
   PSTRESS=    0.0 pullay stress

  Mass of Ions in am
   POMASS =  28.09
  Ionic Valenz
   ZVAL   =   4.00
  Atomic Wigner-Seitz radii
   RWIGS  =  -1.00
  virtual crystal weights 
   VCA    =   1.00
   NELECT =     512.0000    total number of electrons
   NUPDOWN=      -1.0000    fix difference up-down

 DOS related values:
   EMIN   =  10.00;   EMAX   =-10.00  energy-range for DOS
   EFERMI =   0.00
   ISMEAR =     0;   SIGMA  =   0.05  broadening in eV -4-tet -1-fermi 0-gaus

 Electronic relaxation 2 (details)
   IALGO  =     38    algorithm
   LDIAG  =      T    sub-space diagonalisation (order eigenvalues)
   LSUBROT=      F    optimize rotation matrix (better conditioning)
   TURBO    =      0    0=normal 1=particle mesh
   IRESTART =      0    0=no restart 2=restart with 2 vectors
   NREBOOT  =      0    no. of reboots
   NMIN     =      0    reboot dimension
   EREF     =   0.00    reference energy to select bands
   IMIX   =      4    mixing-type and parameters
     AMIX     =   0.40;   BMIX     =  1.00
     AMIX_MAG =   1.60;   BMIX_MAG =  1.00
     AMIN     =   0.10
     WC   =   100.;   INIMIX=   1;  MIXPRE=   1;  MAXMIX= -45

 Intra band minimization:
   WEIMIN = 0.0000     energy-eigenvalue tresh-hold
   EBREAK =  0.78E-11  absolut break condition
   DEPER  =   0.30     relativ break condition  

   TIME   =   0.40     timestep for ELM

  volume/ion in A,a.u.               =      20.44       137.95
  Fermi-wavevector in a.u.,A,eV,Ry     =   0.950423  1.796039 12.290193  0.903304
  Thomas-Fermi vector in A             =   2.078798
 
 Write flags
   LWAVE        =      F    write WAVECAR
   LDOWNSAMPLE  =      F    k-point downsampling of WAVECAR
   LCHARG       =      F    write CHGCAR
   LVTOT        =      F    write LOCPOT, total local potential
   LVHAR        =      F    write LOCPOT, Hartree potential only
   LELF         =      F    write electronic localiz. function (ELF)
   LORBIT       =      0    0 simple, 1 ext, 2 COOP (PROOUT), +10 PAW based schemes


 Dipole corrections
   LMONO  =      F    monopole corrections only (constant potential shift)
   LDIPOL =      F    correct potential (dipole corrections)
   IDIPOL =      0    1-x, 2-y, 3-z, 4-all directions 
   EPSILON=  1.0000000 bulk dielectric constant

 Exchange correlation treatment:
   GGA     =    --    GGA type
   LEXCH   =     8    internal setting for exchange type
   VOSKOWN=      0    Vosko Wilk Nusair interpolation
   LHFCALC =     F    Hartree Fock is set to
   LHFONE  =     F    Hartree Fock one center treatment
   AEXX    =    0.0000 exact exchange contribution

 Linear response parameters
   LEPSILON=     F    determine dielectric tensor
   LRPA    =     F    only Hartree local field effects (RPA)
   LNABLA  =     F    use nabla operator in PAW spheres
   LVEL    =     F    velocity operator in full k-point grid
   LINTERFAST=   F  fast interpolation
   KINTER  =     0    interpolate to denser k-point grid
   CSHIFT  =0.1000    complex shift for real part using Kramers Kronig
   OMEGAMAX=  -1.0    maximum frequency
   DEG_THRESHOLD= 0.2000000E-02 threshold for treating states as degnerate
   RTIME   =   -0.100 relaxation time in fs
  (WPLASMAI=    0.000 imaginary part of plasma frequency in eV, 0.658/RTIME)
   DFIELD  = 0.0000000 0.0000000 0.0000000 field for delta impulse in time
 
 Orbital magnetization related:
   ORBITALMAG=     F  switch on orbital magnetization
   LCHIMAG   =     F  perturbation theory with respect to B field
   DQ        =  0.001000  dq finite difference perturbation B field
   LLRAUG    =     F  two centre corrections for induced B field



--------------------------------------------------------------------------------------------------------


 Static calculation
 charge density and potential will be updated during run
 non-spin polarized calculation
 Variant of blocked Davidson
 Davidson routine will perform the subspace rotation
 perform sub-space diagonalisation
    after iterative eigenvector-optimisation
 modified Broyden-mixing scheme, WC =      100.0
 initial mixing is a Kerker type mixing with AMIX =  0.4000 and BMIX =      1.0000
 Hartree-type preconditioning will be used
 using additional bands           66
 reciprocal scheme for non local part
 use partial core corrections
 calculate Harris-corrections to forces 
   (improved forces if not selfconsistent)
 use gradient corrections 
 use of overlap-Matrix (Vanderbilt PP)
 Gauss-broadening in eV      SIGMA  =   0.05


--------------------------------------------------------------------------------------------------------


  energy-cutoff  :      500.00
  volume of cell :     2616.64
      direct lattice vectors                 reciprocal lattice vectors
     0.000000000 10.937160696 10.937160696    -0.045715704  0.045715704  0.045715704
    10.937160696  0.000000000 10.937160696     0.045715704 -0.045715704  0.045715704
    10.937160696 10.937160696  0.000000000     0.045715704  0.045715704 -0.045715704

  length of vectors
    15.467480990 15.467480990 15.467480990     0.079181922  0.079181922  0.079181922


 
 k-points in units of 2pi/SCALE and weight: K-Spacing Value to Generate K-Mesh: 0.03
   0.00000000  0.00000000  0.00000000       1.000
 
 k-points in reciprocal lattice and weights: K-Spacing Value to Generate K-Mesh: 0.03
   0.00000000  0.00000000  0.00000000       1.000
 
 position of ions in fractional coordinates (direct lattice) 
   0.06295716  0.06204284  0.06295716
   0.00000000  0.00000000  0.00000000
   0.31250000  0.06250000  0.06250000
   0.25000000  0.00000000  0.00000000
   0.56250000  0.06250000  0.06250000
   0.49954284  0.00045716  0.99954284
   0.81250000  0.06250000  0.06250000
   0.75000000  0.00000000  0.00000000
   0.06250000  0.31250000  0.06250000
   0.00000000  0.25000000  0.00000000
   0.31250000  0.31250000  0.06250000
   0.25000000  0.25000000  0.00000000
   0.56250000  0.31250000  0.06250000
   0.50000000  0.25000000  0.00000000
   0.81250000  0.31250000  0.06250000
   0.75000000  0.25000000  0.00000000
   0.06250000  0.56250000  0.06250000
   0.00000000  0.50000000  0.00000000
   0.31250000  0.56250000  0.06250000
   0.25000000  0.50000000  0.00000000
   0.56250000  0.56250000  0.06250000
   0.50000000  0.50000000  0.00000000
   0.81250000  0.56250000  0.06250000
   0.75000000  0.50000000  0.00000000
   0.06250000  0.81250000  0.06250000
   0.00000000  0.75000000  0.00000000
   0.31250000  0.81250000  0.06250000
   0.25000000  0.75000000  0.00000000
   0.56250000  0.81250000  0.06250000
   0.50000000  0.75000000  0.00000000
   0.81250000  0.81250000  0.06250000
   0.75000000  0.75000000  0.00000000
   0.06250000  0.06250000  0.31250000
   0.00000000  0.00000000  0.25000000
   0.31250000  0.06250000  0.31250000
   0.25000000  0.00000000  0.25000000
   0.56250000  0.06250000  0.31250000
   0.50000000  0.00000000  0.25000000
   0.81250000  0.06250000  0.31250000
   0.75000000  0.00000000  0.25000000
   0.06250000  0.31250000  0.31250000
   0.00000000  0.25000000  0.25000000
   0.31250000  0.31250000  0.31250000
   0.25000000  0.25000000  0.25000000
   0.56250000  0.31250000  0.31250000
   0.50000000  0.25000000  0.25000000
   0.81250000  0.31250000  0.31250000
   0.75000000  0.25000000  0.25000000
   0.06250000  0.56250000  0.31250000
   0.00000000  0.50000000  0.25000000
   0.31250000  0.56250000  0.31250000
   0.25000000  0.50000000  0.25000000
   0.56250000  0.56250000  0.31250000
   0.50000000  0.50000000  0.25000000
   0.81250000  0.56250000  0.31250000
   0.75000000  0.50000000  0.25000000
   0.06250000  0.81250000  0.31250000
   0.00000000  0.75000000  0.25000000
   0.31250000  0.81250000  0.31250000
   0.25000000  0.75000000  0.25000000
   0.56250000  0.81250000  0.31250000
   0.50000000  0.75000000  0.25000000
   0.81250000  0.81250000  0.31250000
   0.75000000  0.75000000  0.25000000
   0.06250000  0.06250000  0.56250000
   0.00000000  0.00000000  0.50000000
   0.31250000  0.06250000  0.56250000
   0.25000000  0.00000000  0.50000000
   0.56250000  0.06250000  0.56250000
   0.50000000  0.00000000  0.50000000
   0.81250000  0.06250000  0.56250000
   0.75000000  0.00000000  0.50000000
   0.06250000  0.31250000  0.56250000
   0.00000000  0.25000000  0.50000000
   0.31250000  0.31250000  0.56250000
   0.25000000  0.25000000  0.50000000
   0.56250000  0.31250000  0.56250000
   0.50000000  0.25000000  0.50000000
   0.81250000  0.31250000  0.56250000
   0.75000000  0.25000000  0.50000000
   0.06250000  0.56250000  0.56250000
   0.00000000  0.50000000  0.50000000
   0.31250000  0.56250000  0.56250000
   0.25000000  0.50000000  0.50000000
   0.56250000  0.56250000  0.56250000
   0.50000000  0.50000000  0.50000000
   0.81250000  0.56250000  0.56250000
   0.75000000  0.50000000  0.50000000
   0.06250000  0.81250000  0.56250000
   0.00000000  0.75000000  0.50000000
   0.31250000  0.81250000  0.56250000
   0.25000000  0.75000000  0.50000000
   0.56250000  0.81250000  0.56250000
   0.50000000  0.75000000  0.50000000
   0.81250000  0.81250000  0.56250000
   0.75000000  0.75000000  0.50000000
   0.06250000  0.06250000  0.81250000
   0.00000000  0.00000000  0.75000000
   0.31250000  0.06250000  0.81250000
   0.25000000  0.00000000  0.75000000
   0.56250000  0.06250000  0.81250000
   0.50000000  0.00000000  0.75000000
   0.81250000  0.06250000  0.81250000
   0.75000000  0.00000000  0.75000000
   0.06250000  0.31250000  0.81250000
   0.00000000  0.25000000  0.75000000
   0.31250000  0.31250000  0.81250000
   0.25000000  0.25000000  0.75000000
   0.56250000  0.31250000  0.81250000
   0.50000000  0.25000000  0.75000000
   0.81250000  0.31250000  0.81250000
   0.75000000  0.25000000  0.75000000
   0.06250000  0.56250000  0.81250000
   0.00000000  0.50000000  0.75000000
   0.31250000  0.56250000  0.81250000
   0.25000000  0.50000000  0.75000000
   0.56250000  0.56250000  0.81250000
   0.50000000  0.50000000  0.75000000
   0.81250000  0.56250000  0.81250000
   0.75000000  0.50000000  0.75000000
   0.06250000  0.81250000  0.81250000
   0.00000000  0.75000000  0.75000000
   0.31250000  0.81250000  0.81250000
   0.25000000  0.75000000  0.75000000
   0.56250000  0.81250000  0.81250000
   0.50000000  0.75000000  0.75000000
   0.81250000  0.81250000  0.81250000
   0.75000000  0.75000000  0.75000000
 
 position of ions in cartesian coordinates  (Angst):
   1.36714509  1.37714509  1.36714509
   0.00000000  0.00000000  0.00000000
   1.36714509  4.10143526  4.10143526
   0.00000000  2.73429017  2.73429017
   1.36714509  6.83572544  6.83572544
  10.93716070 16.39574104  5.46858035
   1.36714509  9.57001561  9.57001561
   0.00000000  8.20287052  8.20287052
   4.10143526  1.36714509  4.10143526
   2.73429017  0.00000000  2.73429017
   4.10143526  4.10143526  6.83572544
   2.73429017  2.73429017  5.46858035
   4.10143526  6.83572544  9.57001561
   2.73429017  5.46858035  8.20287052
   4.10143526  9.57001561 12.30430578
   2.73429017  8.20287052 10.93716070
   6.83572544  1.36714509  6.83572544
   5.46858035  0.00000000  5.46858035
   6.83572544  4.10143526  9.57001561
   5.46858035  2.73429017  8.20287052
   6.83572544  6.83572544 12.30430578
   5.46858035  5.46858035 10.93716070
   6.83572544  9.57001561 15.03859596
   5.46858035  8.20287052 13.67145087
   9.57001561  1.36714509  9.57001561
   8.20287052  0.00000000  8.20287052
   9.57001561  4.10143526 12.30430578
   8.20287052  2.73429017 10.93716070
   9.57001561  6.83572544 15.03859596
   8.20287052  5.46858035 13.67145087
   9.57001561  9.57001561 17.77288613
   8.20287052  8.20287052 16.40574104
   4.10143526  4.10143526  1.36714509
   2.73429017  2.73429017  0.00000000
   4.10143526  6.83572544  4.10143526
   2.73429017  5.46858035  2.73429017
   4.10143526  9.57001561  6.83572544
   2.73429017  8.20287052  5.46858035
   4.10143526 12.30430578  9.57001561
   2.73429017 10.93716070  8.20287052
   6.83572544  4.10143526  4.10143526
   5.46858035  2.73429017  2.73429017
   6.83572544  6.83572544  6.83572544
   5.46858035  5.46858035  5.46858035
   6.83572544  9.57001561  9.57001561
   5.46858035  8.20287052  8.20287052
   6.83572544 12.30430578 12.30430578
   5.46858035 10.93716070 10.93716070
   9.57001561  4.10143526  6.83572544
   8.20287052  2.73429017  5.46858035
   9.57001561  6.83572544  9.57001561
   8.20287052  5.46858035  8.20287052
   9.57001561  9.57001561 12.30430578
   8.20287052  8.20287052 10.93716070
   9.57001561 12.30430578 15.03859596
   8.20287052 10.93716070 13.67145087
  12.30430578  4.10143526  9.57001561
  10.93716070  2.73429017  8.20287052
  12.30430578  6.83572544 12.30430578
  10.93716070  5.46858035 10.93716070
  12.30430578  9.57001561 15.03859596
  10.93716070  8.20287052 13.67145087
  12.30430578 12.30430578 17.77288613
  10.93716070 10.93716070 16.40574104
   6.83572544  6.83572544  1.36714509
   5.46858035  5.46858035  0.00000000
   6.83572544  9.57001561  4.10143526
   5.46858035  8.20287052  2.73429017
   6.83572544 12.30430578  6.83572544
   5.46858035 10.93716070  5.46858035
   6.83572544 15.03859596  9.57001561
   5.46858035 13.67145087  8.20287052
   9.57001561  6.83572544  4.10143526
   8.20287052  5.46858035  2.73429017
   9.57001561  9.57001561  6.83572544
   8.20287052  8.20287052  5.46858035
   9.57001561 12.30430578  9.57001561
   8.20287052 10.93716070  8.20287052
   9.57001561 15.03859596 12.30430578
   8.20287052 13.67145087 10.93716070
  12.30430578  6.83572544  6.83572544
  10.93716070  5.46858035  5.46858035
  12.30430578  9.57001561  9.57001561
  10.93716070  8.20287052  8.20287052
  12.30430578 12.30430578 12.30430578
  10.93716070 10.93716070 10.93716070
  12.30430578 15.03859596 15.03859596
  10.93716070 13.67145087 13.67145087
  15.03859596  6.83572544  9.57001561
  13.67145087  5.46858035  8.20287052
  15.03859596  9.57001561 12.30430578
  13.67145087  8.20287052 10.93716070
  15.03859596 12.30430578 15.03859596
  13.67145087 10.93716070 13.67145087
  15.03859596 15.03859596 17.77288613
  13.67145087 13.67145087 16.40574104
   9.57001561  9.57001561  1.36714509
   8.20287052  8.20287052  0.00000000
   9.57001561 12.30430578  4.10143526
   8.20287052 10.93716070  2.73429017
   9.57001561 15.03859596  6.83572544
   8.20287052 13.67145087  5.46858035
   9.57001561 17.77288613  9.57001561
   8.20287052 16.40574104  8.20287052
  12.30430578  9.57001561  4.10143526
  10.93716070  8.20287052  2.73429017
  12.30430578 12.30430578  6.83572544
  10.93716070 10.93716070  5.46858035
  12.30430578 15.03859596  9.57001561
  10.93716070 13.67145087  8.20287052
  12.30430578 17.77288613 12.30430578
  10.93716070 16.40574104 10.93716070
  15.03859596  9.57001561  6.83572544
  13.67145087  8.20287052  5.46858035
  15.03859596 12.30430578  9.57001561
  13.67145087 10.93716070  8.20287052
  15.03859596 15.03859596 12.30430578
  13.67145087 13.67145087 10.93716070
  15.03859596 17.77288613 15.03859596
  13.67145087 16.40574104 13.67145087
  17.77288613  9.57001561  9.57001561
  16.40574104  8.20287052  8.20287052
  17.77288613 12.30430578 12.30430578
  16.40574104 10.93716070 10.93716070
  17.77288613 15.03859596 15.03859596
  16.40574104 13.67145087 13.67145087
  17.77288613 17.77288613 17.77288613
  16.40574104 16.40574104 16.40574104
 


--------------------------------------------------------------------------------------------------------


 k-point  1 :   0.0000 0.0000 0.0000  plane waves:   66299

 maximum and minimum number of plane-waves per node :      3320     3310

 maximum number of plane-waves:     66299
 maximum index in each direction: 
   IXMAX=   28   IYMAX=   28   IZMAX=   28
   IXMIN=  -28   IYMIN=  -28   IZMIN=  -28


 parallel 3D FFT for wavefunctions:
    minimum data exchange during FFTs selected (reduces bandwidth)
 parallel 3D FFT for charge:
    minimum data exchange during FFTs selected (reduces bandwidth)


 total amount of memory used by VASP MPI-rank0   118934. kBytes
=======================================================================

   base      :      30000. kBytes
   nonl-proj :       7011. kBytes
   fftplans  :      53058. kBytes
   grid      :      20148. kBytes
   one-center:         21. kBytes
   wavefun   :       8696. kBytes
 
     INWAV:  cpu time    0.0000: real time    0.0000
 Broyden mixing: mesh for mixing (old mesh)
   NGX = 57   NGY = 57   NGZ = 57
  (NGX  =240   NGY  =240   NGZ  =240)
  gives a total of 185193 points

 initial charge density was supplied:
 charge density of overlapping atoms calculated
 number of electron     512.0000000 magnetization 
 keeping initial charge density in first step


--------------------------------------------------------------------------------------------------------


 Maximum index for augmentation-charges         4417 (set IRDMAX)


--------------------------------------------------------------------------------------------------------


 First call to EWALD:  gamma=   0.129
 Maximum number of real-space cells 3x 3x 3
 Maximum number of reciprocal cells 3x 3x 3

    FEWALD:  cpu time    0.0050: real time    0.0050


--------------------------------------- Iteration      1(   1)  ---------------------------------------


    POTLOK:  cpu time    0.2281: real time    0.2340
    SETDIJ:  cpu time    0.2842: real time    0.2851
     EDDAV:  cpu time    4.7858: real time    4.7993
       DOS:  cpu time    0.0006: real time    0.0006
    --------------------------------------------
      LOOP:  cpu time    5.2987: real time    5.3190

 eigenvalue-minimisations  :   644
 total energy-change (2. order) : 0.1374893E+04  (-0.1908716E+05)
 number of electron     512.0000000 magnetization 
 augmentation part      512.0000000 magnetization 

 Free energy of the ion-electron system (eV)
  ---------------------------------------------------
  alpha Z        PSCENC =       210.78028765
  Ewald energy   TEWEN  =    -14524.86513590
  -Hartree energ DENC   =      -724.62061318
  -exchange      EXHF   =         0.00000000
  -V(xc)+E(xc)   XCENC  =     -1195.83148081
  PAW double counting   =      4221.13331941    -1969.18571412
  entropy T*S    EENTRO =        -0.01589474
  eigenvalues    EBANDS =      2165.01706818
  atomic energy  EATOM  =     13192.48085998
  Solvation  Ediel_sol  =         0.00000000
  ---------------------------------------------------
  free energy    TOTEN  =      1374.89269648 eV

  energy without entropy =     1374.90859122  energy(sigma->0) =     1374.90064385


--------------------------------------------------------------------------------------------------------




--------------------------------------- Iteration      1(   2)  ---------------------------------------


     EDDAV:  cpu time    5.4020: real time    5.4161
       DOS:  cpu time    0.0005: real time    0.0005
    --------------------------------------------
      LOOP:  cpu time    5.4025: real time    5.4166

 eigenvalue-minimisations  :   758
 total energy-change (2. order) :-0.1911917E+04  (-0.1811845E+04)
 number of electron     512.0000000 magnetization 
 augmentation part      512.0000000 magnetization 

 Free energy of the ion-electron system (eV)
  ---------------------------------------------------
  alpha Z        PSCENC =       210.78028765
  Ewald energy   TEWEN  =    -14524.86513590
  -Hartree energ DENC   =      -724.62061318
  -exchange      EXHF   =         0.00000000
  -V(xc)+E(xc)   XCENC  =     -1195.83148081
  PAW double counting   =      4221.13331941    -1969.18571412
  entropy T*S    EENTRO =        -0.00000186
  eigenvalues    EBANDS =       253.08429429
  atomic energy  EATOM  =     13192.48085998
  Solvation  Ediel_sol  =         0.00000000
  ---------------------------------------------------
  free energy    TOTEN  =      -537.02418454 eV

  energy without entropy =     -537.02418267  energy(sigma->0) =     -537.02418361


--------------------------------------------------------------------------------------------------------




--------------------------------------- Iteration      1(   3)  ---------------------------------------


     EDDAV:  cpu time    5.4514: real time    5.4665
       DOS:  cpu time    0.0004: real time    0.0004
    --------------------------------------------
      LOOP:  cpu time    5.4518: real time    5.4669

 eigenvalue-minimisations  :   768
 total energy-change (2. order) :-0.1530002E+03  (-0.1483191E+03)
 number of electron     512.0000000 magnetization 
 augmentation part      512.0000000 magnetization 

 Free energy of the ion-electron system (eV)
  ---------------------------------------------------
  alpha Z        PSCENC =       210.78028765
  Ewald energy   TEWEN  =    -14524.86513590
  -Hartree energ DENC   =      -724.62061318
  -exchange      EXHF   =         0.00000000
  -V(xc)+E(xc)   XCENC  =     -1195.83148081
  PAW double counting   =      4221.13331941    -1969.18571412
  entropy T*S    EENTRO =        -0.00000000
  eigenvalues    EBANDS =       100.08410490
  atomic energy  EATOM  =     13192.48085998
  Solvation  Ediel_sol  =         0.00000000
  ---------------------------------------------------
  free energy    TOTEN  =      -690.02437206 eV

  energy without entropy =     -690.02437206  energy(sigma->0) =     -690.02437206


--------------------------------------------------------------------------------------------------------




--------------------------------------- Iteration      1(   4)  ---------------------------------------


     EDDAV:  cpu time    5.3511: real time    5.3656
       DOS:  cpu time    0.0004: real time    0.0004
    --------------------------------------------
      LOOP:  cpu time    5.3515: real time    5.3660

 eigenvalue-minimisations  :   752
 total energy-change (2. order) :-0.4508895E+01  (-0.4453081E+01)
 number of electron     512.0000000 magnetization 
 augmentation part      512.0000000 magnetization 

 Free energy of the ion-electron system (eV)
  ---------------------------------------------------
  alpha Z        PSCENC =       210.78028765
  Ewald energy   TEWEN  =    -14524.86513590
  -Hartree energ DENC   =      -724.62061318
  -exchange      EXHF   =         0.00000000
  -V(xc)+E(xc)   XCENC  =     -1195.83148081
  PAW double counting   =      4221.13331941    -1969.18571412
  entropy T*S    EENTRO =        -0.00000000
  eigenvalues    EBANDS =        95.57520946
  atomic energy  EATOM  =     13192.48085998
  Solvation  Ediel_sol  =         0.00000000
  ---------------------------------------------------
  free energy    TOTEN  =      -694.53326750 eV

  energy without entropy =     -694.53326750  energy(sigma->0) =     -694.53326750


--------------------------------------------------------------------------------------------------------




--------------------------------------- Iteration      1(   5)  ---------------------------------------


     EDDAV:  cpu time    5.3313: real time    5.3473
       DOS:  cpu time    0.0004: real time    0.0004
    CHARGE:  cpu time    0.5035: real time    0.5050
    MIXING:  cpu time    0.0106: real time    0.0108
    --------------------------------------------
      LOOP:  cpu time    5.8458: real time    5.8635

 eigenvalue-minimisations  :   744
 total energy-change (2. order) :-0.1654607E+00  (-0.1647005E+00)
 number of electron     511.9999999 magnetization 
 augmentation part      -29.7895815 magnetization 

 Broyden mixing:
  rms(total) = 0.24757E+01    rms(broyden)= 0.24757E+01
  rms(prec ) = 0.29957E+01
  weight for this iteration     100.00

 Free energy of the ion-electron system (eV)
  ---------------------------------------------------
  alpha Z        PSCENC =       210.78028765
  Ewald energy   TEWEN  =    -14524.86513590
  -Hartree energ DENC   =      -724.62061318
  -exchange      EXHF   =         0.00000000
  -V(xc)+E(xc)   XCENC  =     -1195.83148081
  PAW double counting   =      4221.13331941    -1969.18571412
  entropy T*S    EENTRO =        -0.00000000
  eigenvalues    EBANDS =        95.40974876
  atomic energy  EATOM  =     13192.48085998
  Solvation  Ediel_sol  =         0.00000000
  ---------------------------------------------------
  free energy    TOTEN  =      -694.69872820 eV

  energy without entropy =     -694.69872820  energy(sigma->0) =     -694.69872820


--------------------------------------------------------------------------------------------------------




--------------------------------------- Iteration      1(   6)  ---------------------------------------


    POTLOK:  cpu time    0.2254: real time    0.2266
    SETDIJ:  cpu time    0.2728: real time    0.2734
     EDDAV:  cpu time    4.9632: real time    4.9763
       DOS:  cpu time    0.0004: real time    0.0004
    CHARGE:  cpu time    0.4929: real time    0.4944
    MIXING:  cpu time    0.0118: real time    0.0118
    --------------------------------------------
      LOOP:  cpu time    5.9666: real time    5.9829

 eigenvalue-minimisations  :   680
 total energy-change (2. order) : 0.8398831E+01  (-0.4784150E+00)
 number of electron     511.9999999 magnetization 
 augmentation part      -29.4083340 magnetization 

 Broyden mixing:
  rms(total) = 0.14788E+01    rms(broyden)= 0.14788E+01
  rms(prec ) = 0.17864E+01
  weight for this iteration     100.00

 eigenvalues of (default mixing * dielectric matrix)
  average eigenvalue GAMMA=   2.4618
  2.4618

 Free energy of the ion-electron system (eV)
  ---------------------------------------------------
  alpha Z        PSCENC =       210.78028765
  Ewald energy   TEWEN  =    -14524.86513590
  -Hartree energ DENC   =      -824.84922454
  -exchange      EXHF   =         0.00000000
  -V(xc)+E(xc)   XCENC  =     -1180.31915978
  PAW double counting   =      4464.76485826    -2219.65180097
  entropy T*S    EENTRO =        -0.00000000
  eigenvalues    EBANDS =       195.35941841
  atomic energy  EATOM  =     13192.48085998
  Solvation  Ediel_sol  =         0.00000000
  ---------------------------------------------------
  free energy    TOTEN  =      -686.29989690 eV

  energy without entropy =     -686.29989690  energy(sigma->0) =     -686.29989690


--------------------------------------------------------------------------------------------------------




--------------------------------------- Iteration      1(   7)  ---------------------------------------


    POTLOK:  cpu time    0.2241: real time    0.2248
    SETDIJ:  cpu time    0.2727: real time    0.2734
     EDDAV:  cpu time    4.9181: real time    4.9309
       DOS:  cpu time    0.0004: real time    0.0004
    CHARGE:  cpu time    0.4941: real time    0.4954
    MIXING:  cpu time    0.0099: real time    0.0099
    --------------------------------------------
      LOOP:  cpu time    5.9194: real time    5.9348

 eigenvalue-minimisations  :   672
 total energy-change (2. order) : 0.3872911E+01  (-0.9698407E+00)
 number of electron     511.9999999 magnetization 
 augmentation part      -28.9142411 magnetization 

 Broyden mixing:
  rms(total) = 0.13038E+00    rms(broyden)= 0.13038E+00
  rms(prec ) = 0.15181E+00
  weight for this iteration     100.00

 eigenvalues of (default mixing * dielectric matrix)
  average eigenvalue GAMMA=   2.4927
  2.4927  2.4927

 Free energy of the ion-electron system (eV)
  ---------------------------------------------------
  alpha Z        PSCENC =       210.78028765
  Ewald energy   TEWEN  =    -14524.86513590
  -Hartree energ DENC   =      -991.88282232
  -exchange      EXHF   =         0.00000000
  -V(xc)+E(xc)   XCENC  =     -1153.93891129
  PAW double counting   =      4789.66783197    -2553.36632441
  entropy T*S    EENTRO =        -0.00000000
  eigenvalues    EBANDS =       348.69722864
  atomic energy  EATOM  =     13192.48085998
  Solvation  Ediel_sol  =         0.00000000
  ---------------------------------------------------
  free energy    TOTEN  =      -682.42698567 eV

  energy without entropy =     -682.42698567  energy(sigma->0) =     -682.42698567


--------------------------------------------------------------------------------------------------------




--------------------------------------- Iteration      1(   8)  ---------------------------------------


    POTLOK:  cpu time    0.2241: real time    0.2250
    SETDIJ:  cpu time    0.2727: real time    0.2734
     EDDAV:  cpu time    4.9574: real time    4.9704
       DOS:  cpu time    0.0004: real time    0.0004
    CHARGE:  cpu time    0.4948: real time    0.4960
    MIXING:  cpu time    0.0163: real time    0.0163
    --------------------------------------------
      LOOP:  cpu time    5.9658: real time    5.9815

 eigenvalue-minimisations  :   680
 total energy-change (2. order) :-0.1320542E+00  (-0.4946104E-01)
 number of electron     511.9999999 magnetization 
 augmentation part      -28.9853381 magnetization 

 Broyden mixing:
  rms(total) = 0.28117E-01    rms(broyden)= 0.28117E-01
  rms(prec ) = 0.37980E-01
  weight for this iteration     100.00

 eigenvalues of (default mixing * dielectric matrix)
  average eigenvalue GAMMA=   2.1012
  1.4518  2.7608  2.0909

 Free energy of the ion-electron system (eV)
  ---------------------------------------------------
  alpha Z        PSCENC =       210.78028765
  Ewald energy   TEWEN  =    -14524.86513590
  -Hartree energ DENC   =      -986.33373776
  -exchange      EXHF   =         0.00000000
  -V(xc)+E(xc)   XCENC  =     -1153.99548824
  PAW double counting   =      4718.76710842    -2480.24903351
  entropy T*S    EENTRO =        -0.00000000
  eigenvalues    EBANDS =       340.85609951
  atomic energy  EATOM  =     13192.48085998
  Solvation  Ediel_sol  =         0.00000000
  ---------------------------------------------------
  free energy    TOTEN  =      -682.55903985 eV

  energy without entropy =     -682.55903985  energy(sigma->0) =     -682.55903985


--------------------------------------------------------------------------------------------------------




--------------------------------------- Iteration      1(   9)  ---------------------------------------


    POTLOK:  cpu time    0.2266: real time    0.2342
    SETDIJ:  cpu time    0.2768: real time    0.2776
     EDDAV:  cpu time    5.4534: real time    5.4678
       DOS:  cpu time    0.0004: real time    0.0004
    CHARGE:  cpu time    0.4962: real time    0.4975
    MIXING:  cpu time    0.0123: real time    0.0123
    --------------------------------------------
      LOOP:  cpu time    6.4658: real time    6.4899

 eigenvalue-minimisations  :   768
 total energy-change (2. order) :-0.6459592E-02  (-0.2455413E-02)
 number of electron     511.9999999 magnetization 
 augmentation part      -28.9800592 magnetization 

 Broyden mixing:
  rms(total) = 0.15916E-01    rms(broyden)= 0.15916E-01
  rms(prec ) = 0.18139E-01
  weight for this iteration     100.00

 eigenvalues of (default mixing * dielectric matrix)
  average eigenvalue GAMMA=   2.2877
  1.0207  3.3897  2.7007  2.0397

 Free energy of the ion-electron system (eV)
  ---------------------------------------------------
  alpha Z        PSCENC =       210.78028765
  Ewald energy   TEWEN  =    -14524.86513590
  -Hartree energ DENC   =      -991.21459899
  -exchange      EXHF   =         0.00000000
  -V(xc)+E(xc)   XCENC  =     -1153.27691579
  PAW double counting   =      4725.23684772    -2486.95562782
  entropy T*S    EENTRO =        -0.00000000
  eigenvalues    EBANDS =       345.24878371
  atomic energy  EATOM  =     13192.48085998
  Solvation  Ediel_sol  =         0.00000000
  ---------------------------------------------------
  free energy    TOTEN  =      -682.56549944 eV

  energy without entropy =     -682.56549944  energy(sigma->0) =     -682.56549944


--------------------------------------------------------------------------------------------------------




--------------------------------------- Iteration      1(  10)  ---------------------------------------


    POTLOK:  cpu time    0.2247: real time    0.2271
    SETDIJ:  cpu time    0.2736: real time    0.2744
     EDDAV:  cpu time    4.9119: real time    4.9263
       DOS:  cpu time    0.0004: real time    0.0004
    CHARGE:  cpu time    0.4943: real time    0.4956
    MIXING:  cpu time    0.0123: real time    0.0124
    --------------------------------------------
      LOOP:  cpu time    5.9172: real time    5.9362

 eigenvalue-minimisations  :   672
 total energy-change (2. order) :-0.2681049E-02  (-0.5901147E-03)
 number of electron     511.9999999 magnetization 
 augmentation part      -28.9811191 magnetization 

 Broyden mixing:
  rms(total) = 0.47982E-02    rms(broyden)= 0.47982E-02
  rms(prec ) = 0.57480E-02
  weight for this iteration     100.00

 eigenvalues of (default mixing * dielectric matrix)
  average eigenvalue GAMMA=   1.9831
  3.2374  2.6109  2.1601  1.0581  0.8488

 Free energy of the ion-electron system (eV)
  ---------------------------------------------------
  alpha Z        PSCENC =       210.78028765
  Ewald energy   TEWEN  =    -14524.86513590
  -Hartree energ DENC   =      -991.21997166
  -exchange      EXHF   =         0.00000000
  -V(xc)+E(xc)   XCENC  =     -1153.35169939
  PAW double counting   =      4721.46297538    -2483.16351881
  entropy T*S    EENTRO =        -0.00000000
  eigenvalues    EBANDS =       345.30802225
  atomic energy  EATOM  =     13192.48085998
  Solvation  Ediel_sol  =         0.00000000
  ---------------------------------------------------
  free energy    TOTEN  =      -682.56818049 eV

  energy without entropy =     -682.56818049  energy(sigma->0) =     -682.56818049


--------------------------------------------------------------------------------------------------------




--------------------------------------- Iteration      1(  11)  ---------------------------------------


    POTLOK:  cpu time    0.2294: real time    0.2320
    SETDIJ:  cpu time    0.2738: real time    0.2747
     EDDAV:  cpu time    5.4490: real time    5.4661
       DOS:  cpu time    0.0004: real time    0.0004
    CHARGE:  cpu time    0.4962: real time    0.4975
    MIXING:  cpu time    0.0125: real time    0.0126
    --------------------------------------------
      LOOP:  cpu time    6.4613: real time    6.4832

 eigenvalue-minimisations  :   760
 total energy-change (2. order) :-0.1336600E-04  (-0.2011041E-04)
 number of electron     511.9999999 magnetization 
 augmentation part      -28.9796236 magnetization 

 Broyden mixing:
  rms(total) = 0.49925E-03    rms(broyden)= 0.49915E-03
  rms(prec ) = 0.57497E-03
  weight for this iteration     100.00

 eigenvalues of (default mixing * dielectric matrix)
  average eigenvalue GAMMA=   2.0325
  3.3653  2.6895  2.1985  1.9761  0.9828  0.9828

 Free energy of the ion-electron system (eV)
  ---------------------------------------------------
  alpha Z        PSCENC =       210.78028765
  Ewald energy   TEWEN  =    -14524.86513590
  -Hartree energ DENC   =      -991.69309030
  -exchange      EXHF   =         0.00000000
  -V(xc)+E(xc)   XCENC  =     -1153.28806617
  PAW double counting   =      4723.31501717    -2485.06052588
  entropy T*S    EENTRO =        -0.00000000
  eigenvalues    EBANDS =       345.76245959
  atomic energy  EATOM  =     13192.48085998
  Solvation  Ediel_sol  =         0.00000000
  ---------------------------------------------------
  free energy    TOTEN  =      -682.56819385 eV

  energy without entropy =     -682.56819385  energy(sigma->0) =     -682.56819385


--------------------------------------------------------------------------------------------------------




--------------------------------------- Iteration      1(  12)  ---------------------------------------


    POTLOK:  cpu time    0.2234: real time    0.2248
    SETDIJ:  cpu time    0.2733: real time    0.2740
     EDDAV:  cpu time    5.3443: real time    5.3600
       DOS:  cpu time    0.0004: real time    0.0004
    CHARGE:  cpu time    0.4959: real time    0.4975
    MIXING:  cpu time    0.0110: real time    0.0110
    --------------------------------------------
      LOOP:  cpu time    6.3482: real time    6.3676

 eigenvalue-minimisations  :   752
 total energy-change (2. order) :-0.4706193E-05  (-0.1289522E-05)
 number of electron     511.9999999 magnetization 
 augmentation part      -28.9793468 magnetization 

 Broyden mixing:
  rms(total) = 0.22435E-03    rms(broyden)= 0.22414E-03
  rms(prec ) = 0.25553E-03
  weight for this iteration     100.00

 eigenvalues of (default mixing * dielectric matrix)
  average eigenvalue GAMMA=   1.9200
  3.3090  2.6907  2.2534  2.2534  1.0210  1.0210  0.8913

 Free energy of the ion-electron system (eV)
  ---------------------------------------------------
  alpha Z        PSCENC =       210.78028765
  Ewald energy   TEWEN  =    -14524.86513590
  -Hartree energ DENC   =      -991.73924101
  -exchange      EXHF   =         0.00000000
  -V(xc)+E(xc)   XCENC  =     -1153.28653213
  PAW double counting   =      4723.43619171    -2485.17818435
  entropy T*S    EENTRO =        -0.00000000
  eigenvalues    EBANDS =       345.80355548
  atomic energy  EATOM  =     13192.48085998
  Solvation  Ediel_sol  =         0.00000000
  ---------------------------------------------------
  free energy    TOTEN  =      -682.56819856 eV

  energy without entropy =     -682.56819856  energy(sigma->0) =     -682.56819856


--------------------------------------------------------------------------------------------------------




--------------------------------------- Iteration      1(  13)  ---------------------------------------


    POTLOK:  cpu time    0.2238: real time    0.2246
    SETDIJ:  cpu time    0.2737: real time    0.2745
     EDDAV:  cpu time    5.3419: real time    5.3577
       DOS:  cpu time    0.0004: real time    0.0004
    CHARGE:  cpu time    0.4960: real time    0.4976
    MIXING:  cpu time    0.0112: real time    0.0112
    --------------------------------------------
      LOOP:  cpu time    6.3469: real time    6.3659

 eigenvalue-minimisations  :   752
 total energy-change (2. order) : 0.3689755E-05  (-0.5733146E-07)
 number of electron     511.9999999 magnetization 
 augmentation part      -28.9794638 magnetization 

 Broyden mixing:
  rms(total) = 0.71393E-04    rms(broyden)= 0.70748E-04
  rms(prec ) = 0.83727E-04
  weight for this iteration     100.00

 eigenvalues of (default mixing * dielectric matrix)
  average eigenvalue GAMMA=   1.8693
  3.3113  2.7001  2.4738  2.1338  0.9623  0.9623  1.2054  1.2054

 Free energy of the ion-electron system (eV)
  ---------------------------------------------------
  alpha Z        PSCENC =       210.78028765
  Ewald energy   TEWEN  =    -14524.86513590
  -Hartree energ DENC   =      -991.73062766
  -exchange      EXHF   =         0.00000000
  -V(xc)+E(xc)   XCENC  =     -1153.28651565
  PAW double counting   =      4723.40123270    -2485.13989014
  entropy T*S    EENTRO =        -0.00000000
  eigenvalues    EBANDS =       345.79159415
  atomic energy  EATOM  =     13192.48085998
  Solvation  Ediel_sol  =         0.00000000
  ---------------------------------------------------
  free energy    TOTEN  =      -682.56819487 eV

  energy without entropy =     -682.56819487  energy(sigma->0) =     -682.56819487


--------------------------------------------------------------------------------------------------------




--------------------------------------- Iteration      1(  14)  ---------------------------------------


    POTLOK:  cpu time    0.2245: real time    0.2260
    SETDIJ:  cpu time    0.2737: real time    0.2745
     EDDAV:  cpu time    5.1452: real time    5.1607
       DOS:  cpu time    0.0005: real time    0.0005
    CHARGE:  cpu time    0.4991: real time    0.5007
    MIXING:  cpu time    0.0119: real time    0.0119
    --------------------------------------------
      LOOP:  cpu time    6.1548: real time    6.1742

 eigenvalue-minimisations  :   712
 total energy-change (2. order) :-0.5344227E-06  (-0.1109204E-07)
 number of electron     511.9999999 magnetization 
 augmentation part      -28.9794360 magnetization 

 Broyden mixing:
  rms(total) = 0.40083E-04    rms(broyden)= 0.38923E-04
  rms(prec ) = 0.50755E-04
  weight for this iteration     100.00

 eigenvalues of (default mixing * dielectric matrix)
  average eigenvalue GAMMA=   1.8139
  3.2920  2.7280  2.4283  2.2637  1.3219  1.3219  0.9330  1.0182  1.0182

 Free energy of the ion-electron system (eV)
  ---------------------------------------------------
  alpha Z        PSCENC =       210.78028765
  Ewald energy   TEWEN  =    -14524.86513590
  -Hartree energ DENC   =      -991.73925686
  -exchange      EXHF   =         0.00000000
  -V(xc)+E(xc)   XCENC  =     -1153.28543690
  PAW double counting   =      4723.43067909    -2485.16946160
  entropy T*S    EENTRO =        -0.00000000
  eigenvalues    EBANDS =       345.79926912
  atomic energy  EATOM  =     13192.48085998
  Solvation  Ediel_sol  =         0.00000000
  ---------------------------------------------------
  free energy    TOTEN  =      -682.56819540 eV

  energy without entropy =     -682.56819540  energy(sigma->0) =     -682.56819540


--------------------------------------------------------------------------------------------------------




--------------------------------------- Iteration      1(  15)  ---------------------------------------


    POTLOK:  cpu time    0.2246: real time    0.2261
    SETDIJ:  cpu time    0.2734: real time    0.2742
     EDDAV:  cpu time    4.1047: real time    4.1168
       DOS:  cpu time    0.0004: real time    0.0004
    CHARGE:  cpu time    0.4993: real time    0.5011
    MIXING:  cpu time    0.0129: real time    0.0129
    --------------------------------------------
      LOOP:  cpu time    5.1152: real time    5.1315

 eigenvalue-minimisations  :   520
 total energy-change (2. order) : 0.1120814E-05  (-0.3191350E-08)
 number of electron     511.9999999 magnetization 
 augmentation part      -28.9794677 magnetization 

 Broyden mixing:
  rms(total) = 0.11674E-04    rms(broyden)= 0.66778E-05
  rms(prec ) = 0.72934E-05
  weight for this iteration     100.00
  WARNING: grid for Broyden might be to small

 eigenvalues of (default mixing * dielectric matrix)
  average eigenvalue GAMMA=   1.8198
  3.2942  2.6700  2.5894  2.1006  2.0515  0.9399  0.9867  1.0372  1.2643  1.2643

 Free energy of the ion-electron system (eV)
  ---------------------------------------------------
  alpha Z        PSCENC =       210.78028765
  Ewald energy   TEWEN  =    -14524.86513590
  -Hartree energ DENC   =      -991.73318467
  -exchange      EXHF   =         0.00000000
  -V(xc)+E(xc)   XCENC  =     -1153.28602639
  PAW double counting   =      4723.40756733    -2485.14554303
  entropy T*S    EENTRO =        -0.00000000
  eigenvalues    EBANDS =       345.79298075
  atomic energy  EATOM  =     13192.48085998
  Solvation  Ediel_sol  =         0.00000000
  ---------------------------------------------------
  free energy    TOTEN  =      -682.56819428 eV

  energy without entropy =     -682.56819428  energy(sigma->0) =     -682.56819428


--------------------------------------------------------------------------------------------------------




--------------------------------------- Iteration      1(  16)  ---------------------------------------


    POTLOK:  cpu time    0.2243: real time    0.2253
    SETDIJ:  cpu time    0.2757: real time    0.2765
     EDDAV:  cpu time    3.2849: real time    3.2949
       DOS:  cpu time    0.0004: real time    0.0004
    CHARGE:  cpu time    0.4957: real time    0.4970
    MIXING:  cpu time    0.0119: real time    0.0119
    --------------------------------------------
      LOOP:  cpu time    4.2929: real time    4.3060

 eigenvalue-minimisations  :   368
 total energy-change (2. order) :-0.9385440E-07  (-0.1908042E-09)
 number of electron     511.9999999 magnetization 
 augmentation part      -28.9794687 magnetization 

 Broyden mixing:
  rms(total) = 0.10116E-04    rms(broyden)= 0.32646E-05
  rms(prec ) = 0.40654E-05
  weight for this iteration     100.00
  WARNING: grid for Broyden might be to small

 eigenvalues of (default mixing * dielectric matrix)
  average eigenvalue GAMMA=   1.8012
  3.2817  2.7804  2.5454  2.2819  2.2819  1.3098  1.3098  1.1662  0.9843  0.9362
  0.9362

 Free energy of the ion-electron system (eV)
  ---------------------------------------------------
  alpha Z        PSCENC =       210.78028765
  Ewald energy   TEWEN  =    -14524.86513590
  -Hartree energ DENC   =      -991.73363508
  -exchange      EXHF   =         0.00000000
  -V(xc)+E(xc)   XCENC  =     -1153.28594150
  PAW double counting   =      4723.40859091    -2485.14669816
  entropy T*S    EENTRO =        -0.00000000
  eigenvalues    EBANDS =       345.79347772
  atomic energy  EATOM  =     13192.48085998
  Solvation  Ediel_sol  =         0.00000000
  ---------------------------------------------------
  free energy    TOTEN  =      -682.56819438 eV

  energy without entropy =     -682.56819438  energy(sigma->0) =     -682.56819438


--------------------------------------------------------------------------------------------------------




--------------------------------------- Iteration      1(  17)  ---------------------------------------


    POTLOK:  cpu time    0.2238: real time    0.2247
    SETDIJ:  cpu time    0.2755: real time    0.2769
     EDDAV:  cpu time    3.2000: real time    3.2093
       DOS:  cpu time    0.0004: real time    0.0004
    CHARGE:  cpu time    0.4983: real time    0.5000
    MIXING:  cpu time    0.0123: real time    0.0123
    --------------------------------------------
      LOOP:  cpu time    4.2103: real time    4.2237

 eigenvalue-minimisations  :   352
 total energy-change (2. order) :-0.1749322E-07  (-0.2689943E-10)
 number of electron     511.9999999 magnetization 
 augmentation part      -28.9794699 magnetization 

 Broyden mixing:
  rms(total) = 0.96299E-05    rms(broyden)= 0.10273E-05
  rms(prec ) = 0.12964E-05
  weight for this iteration     100.00
  WARNING: grid for Broyden might be to small

 eigenvalues of (default mixing * dielectric matrix)
  average eigenvalue GAMMA=   1.7929
  3.2921  2.7176  2.6065  2.1565  2.1565  2.1048  1.2451  1.2451  1.0426  1.0426
  0.9376  0.9682

 Free energy of the ion-electron system (eV)
  ---------------------------------------------------
  alpha Z        PSCENC =       210.78028765
  Ewald energy   TEWEN  =    -14524.86513590
  -Hartree energ DENC   =      -991.73337030
  -exchange      EXHF   =         0.00000000
  -V(xc)+E(xc)   XCENC  =     -1153.28597904
  PAW double counting   =      4723.40837040    -2485.14650548
  entropy T*S    EENTRO =        -0.00000000
  eigenvalues    EBANDS =       345.79327829
  atomic energy  EATOM  =     13192.48085998
  Solvation  Ediel_sol  =         0.00000000
  ---------------------------------------------------
  free energy    TOTEN  =      -682.56819440 eV

  energy without entropy =     -682.56819440  energy(sigma->0) =     -682.56819440


--------------------------------------------------------------------------------------------------------




--------------------------------------- Iteration      1(  18)  ---------------------------------------


    POTLOK:  cpu time    0.2228: real time    0.2237
    SETDIJ:  cpu time    0.2748: real time    0.2756
     EDDAV:  cpu time    3.2052: real time    3.2149
       DOS:  cpu time    0.0004: real time    0.0004
    CHARGE:  cpu time    0.4959: real time    0.4975
    MIXING:  cpu time    0.0125: real time    0.0125
    --------------------------------------------
      LOOP:  cpu time    4.2116: real time    4.2245

 eigenvalue-minimisations  :   352
 total energy-change (2. order) : 0.1669468E-07  (-0.7166212E-11)
 number of electron     511.9999999 magnetization 
 augmentation part      -28.9794704 magnetization 

 Broyden mixing:
  rms(total) = 0.95865E-05    rms(broyden)= 0.47126E-06
  rms(prec ) = 0.58835E-06
  weight for this iteration     100.00
  WARNING: grid for Broyden might be to small

 eigenvalues of (default mixing * dielectric matrix)
  average eigenvalue GAMMA=   1.7921
  3.2918  2.6883  2.6883  2.4091  2.4091  2.1582  1.2901  1.2901  1.1429  1.1164
  1.0045  0.9332  0.8758

 Free energy of the ion-electron system (eV)
  ---------------------------------------------------
  alpha Z        PSCENC =       210.78028765
  Ewald energy   TEWEN  =    -14524.86513590
  -Hartree energ DENC   =      -991.73334828
  -exchange      EXHF   =         0.00000000
  -V(xc)+E(xc)   XCENC  =     -1153.28598163
  PAW double counting   =      4723.40786726    -2485.14599334
  entropy T*S    EENTRO =        -0.00000000
  eigenvalues    EBANDS =       345.79324987
  atomic energy  EATOM  =     13192.48085998
  Solvation  Ediel_sol  =         0.00000000
  ---------------------------------------------------
  free energy    TOTEN  =      -682.56819438 eV

  energy without entropy =     -682.56819438  energy(sigma->0) =     -682.56819438


--------------------------------------------------------------------------------------------------------




--------------------------------------- Iteration      1(  19)  ---------------------------------------


    POTLOK:  cpu time    0.2232: real time    0.2243
    SETDIJ:  cpu time    0.2737: real time    0.2749
     EDDAV:  cpu time    3.2138: real time    3.2233
       DOS:  cpu time    0.0004: real time    0.0004
    --------------------------------------------
      LOOP:  cpu time    3.7110: real time    3.7228

 eigenvalue-minimisations  :   352
 total energy-change (2. order) : 0.2213710E-08  ( 0.6272205E-12)
 number of electron     511.9999999 magnetization 
 augmentation part      -28.9794704 magnetization 

 Free energy of the ion-electron system (eV)
  ---------------------------------------------------
  alpha Z        PSCENC =       210.78028765
  Ewald energy   TEWEN  =    -14524.86513590
  -Hartree energ DENC   =      -991.73333085
  -exchange      EXHF   =         0.00000000
  -V(xc)+E(xc)   XCENC  =     -1153.28598529
  PAW double counting   =      4723.40776146    -2485.14588906
  entropy T*S    EENTRO =        -0.00000000
  eigenvalues    EBANDS =       345.79323763
  atomic energy  EATOM  =     13192.48085998
  Solvation  Ediel_sol  =         0.00000000
  ---------------------------------------------------
  free energy    TOTEN  =      -682.56819438 eV

  energy without entropy =     -682.56819438  energy(sigma->0) =     -682.56819438


--------------------------------------------------------------------------------------------------------




 average (electrostatic) potential at core
  the test charge radii are     0.9892
  (the norm of the test charge is              1.0000)
       1 -83.4137       2 -83.4139       3 -83.4135       4 -83.4135       5 -83.4139
       6 -83.4137       7 -83.4139       8 -83.4139       9 -83.4114      10 -83.4138
      11 -83.4132      12 -83.4133      13 -83.4120      14 -83.4113      15 -83.4136
      16 -83.4131      17 -83.4124      18 -83.4122      19 -83.4132      20 -83.4132
      21 -83.4122      22 -83.4124      23 -83.4135      24 -83.4135      25 -83.4113
      26 -83.4120      27 -83.4133      28 -83.4132      29 -83.4138      30 -83.4114
      31 -83.4131      32 -83.4136      33 -83.4151      34 -83.4139      35 -83.4142
      36 -83.4163      37 -83.4140      38 -83.4140      39 -83.4162      40 -83.4141
      41 -83.4136      42 -83.4137      43 -83.4137      44 -83.4137      45 -83.4137
      46 -83.4135      47 -83.4139      48 -83.4140      49 -83.4135      50 -83.4134
      51 -83.4138      52 -83.4136      53 -83.4138      54 -83.4136      55 -83.4136
      56 -83.4138      57 -83.4137      58 -83.4134      59 -83.4141      60 -83.4140
      61 -83.4134      62 -83.4138      63 -83.4137      64 -83.4135      65 -83.4140
      66 -83.4148      67 -83.4141      68 -83.4141      69 -83.4148      70 -83.4140
      71 -83.4156      72 -83.4156      73 -83.4136      74 -83.4136      75 -83.4140
      76 -83.4138      77 -83.4137      78 -83.4139      79 -83.4138      80 -83.4141
      81 -83.4137      82 -83.4135      83 -83.4139      84 -83.4139      85 -83.4135
      86 -83.4137      87 -83.4137      88 -83.4137      89 -83.4139      90 -83.4137
      91 -83.4138      92 -83.4140      93 -83.4136      94 -83.4136      95 -83.4141
      96 -83.4138      97 -83.4140      98 -83.4140      99 -83.4163     100 -83.4142
     101 -83.4139     102 -83.4151     103 -83.4141     104 -83.4162     105 -83.4138
     106 -83.4134     107 -83.4140     108 -83.4141     109 -83.4134     110 -83.4137
     111 -83.4135     112 -83.4137     113 -83.4136     114 -83.4138     115 -83.4136
     116 -83.4138     117 -83.4134     118 -83.4135     119 -83.4138     120 -83.4136
     121 -83.4135     122 -83.4137     123 -83.4137     124 -83.4137     125 -83.4137
     126 -83.4136     127 -83.4140     128 -83.4139
 
 
 
 E-fermi :   5.9202     XC(G=0):  -9.3007     alpha+bet :-11.7327


 k-point     1 :       0.0000    0.0000    0.0000
  band No.  band energies     occupation 
      1      -6.1630      2.00000
      2      -5.3792      2.00000
      3      -5.3783      2.00000
      4      -5.3778      2.00000
      5      -5.3774      2.00000
      6      -5.3773      2.00000
      7      -5.3772      2.00000
      8      -5.3765      2.00000
      9      -5.3760      2.00000
     10      -5.1011      2.00000
     11      -5.0999      2.00000
     12      -5.0995      2.00000
     13      -5.0995      2.00000
     14      -5.0991      2.00000
     15      -5.0987      2.00000
     16      -4.1590      2.00000
     17      -4.1590      2.00000
     18      -4.1575      2.00000
     19      -4.1572      2.00000
     20      -4.1570      2.00000
     21      -4.1569      2.00000
     22      -4.1569      2.00000
     23      -4.1569      2.00000
     24      -4.1564      2.00000
     25      -4.1564      2.00000
     26      -4.1556      2.00000
     27      -4.1547      2.00000
     28      -3.8816      2.00000
     29      -3.8815      2.00000
     30      -3.8815      2.00000
     31      -3.8800      2.00000
     32      -3.5002      2.00000
     33      -3.5000      2.00000
     34      -3.4984      2.00000
     35      -3.4973      2.00000
     36      -3.4967      2.00000
     37      -3.4967      2.00000
     38      -3.4964      2.00000
     39      -3.4964      2.00000
     40      -3.4964      2.00000
     41      -3.4964      2.00000
     42      -3.4963      2.00000
     43      -3.4963      2.00000
     44      -3.4962      2.00000
     45      -3.4961      2.00000
     46      -3.4961      2.00000
     47      -3.4960      2.00000
     48      -3.4960      2.00000
     49      -3.4959      2.00000
     50      -3.4958      2.00000
     51      -3.4958      2.00000
     52      -3.4948      2.00000
     53      -3.4946      2.00000
     54      -3.4930      2.00000
     55      -3.4917      2.00000
     56      -2.0923      2.00000
     57      -2.0914      2.00000
     58      -2.0914      2.00000
     59      -2.0911      2.00000
     60      -2.0901      2.00000
     61      -2.0893      2.00000
     62      -1.9375      2.00000
     63      -1.9374      2.00000
     64      -1.9362      2.00000
     65      -1.9362      2.00000
     66      -1.9354      2.00000
     67      -1.9354      2.00000
     68      -1.9353      2.00000
     69      -1.9353      2.00000
     70      -1.9347      2.00000
     71      -1.9346      2.00000
     72      -1.9334      2.00000
     73      -1.9334      2.00000
     74      -1.2197      2.00000
     75      -1.2186      2.00000
     76      -1.2176      2.00000
     77      -1.2176      2.00000
     78      -0.6729      2.00000
     79      -0.6719      2.00000
     80      -0.6716      2.00000
     81      -0.6699      2.00000
     82      -0.6691      2.00000
     83      -0.6690      2.00000
     84      -0.6689      2.00000
     85      -0.6689      2.00000
     86      -0.6688      2.00000
     87      -0.6687      2.00000
     88      -0.6687      2.00000
     89      -0.6687      2.00000
     90      -0.6686      2.00000
     91      -0.6686      2.00000
     92      -0.6685      2.00000
     93      -0.6685      2.00000
     94      -0.6684      2.00000
     95      -0.6683      2.00000
     96      -0.6682      2.00000
     97      -0.6682      2.00000
     98      -0.6668      2.00000
     99      -0.6661      2.00000
    100      -0.6655      2.00000
    101      -0.6645      2.00000
    102       0.2145      2.00000
    103       0.2148      2.00000
    104       0.2160      2.00000
    105       0.2161      2.00000
    106       0.2167      2.00000
    107       0.2167      2.00000
    108       0.2168      2.00000
    109       0.2169      2.00000
    110       0.2174      2.00000
    111       0.2176      2.00000
    112       0.2186      2.00000
    113       0.2187      2.00000
    114       1.7669      2.00000
    115       1.7669      2.00000
    116       1.7673      2.00000
    117       1.7676      2.00000
    118       1.7680      2.00000
    119       1.7683      2.00000
    120       1.7687      2.00000
    121       1.7689      2.00000
    122       1.8847      2.00000
    123       1.8848      2.00000
    124       1.8856      2.00000
    125       1.8858      2.00000
    126       1.8859      2.00000
    127       1.8860      2.00000
    128       1.8861      2.00000
    129       1.8861      2.00000
    130       1.8863      2.00000
    131       1.8865      2.00000
    132       1.8871      2.00000
    133       1.8871      2.00000
    134       1.9778      2.00000
    135       1.9779      2.00000
    136       1.9782      2.00000
    137       1.9784      2.00000
    138       1.9785      2.00000
    139       1.9788      2.00000
    140       1.9791      2.00000
    141       1.9792      2.00000
    142       1.9795      2.00000
    143       1.9795      2.00000
    144       1.9798      2.00000
    145       1.9799      2.00000
    146       2.1401      2.00000
    147       2.1403      2.00000
    148       2.1409      2.00000
    149       2.1415      2.00000
    150       2.1418      2.00000
    151       2.1419      2.00000
    152       2.1843      2.00000
    153       2.1843      2.00000
    154       2.1853      2.00000
    155       2.1854      2.00000
    156       2.1863      2.00000
    157       2.1865      2.00000
    158       2.1866      2.00000
    159       2.1866      2.00000
    160       2.1867      2.00000
    161       2.1867      2.00000
    162       2.1867      2.00000
    163       2.1868      2.00000
    164       2.1869      2.00000
    165       2.1870      2.00000
    166       2.1870      2.00000
    167       2.1871      2.00000
    168       2.1872      2.00000
    169       2.1873      2.00000
    170       2.1876      2.00000
    171       2.1878      2.00000
    172       2.1882      2.00000
    173       2.1887      2.00000
    174       2.1892      2.00000
    175       2.1899      2.00000
    176       2.8559      2.00000
    177       2.8564      2.00000
    178       2.8565      2.00000
    179       2.8567      2.00000
    180       2.8569      2.00000
    181       2.8573      2.00000
    182       3.4890      2.00000
    183       3.4908      2.00000
    184       3.4914      2.00000
    185       3.4914      2.00000
    186       3.4919      2.00000
    187       3.4920      2.00000
    188       3.4922      2.00000
    189       3.4922      2.00000
    190       3.4924      2.00000
    191       3.4924      2.00000
    192       3.4924      2.00000
    193       3.4924      2.00000
    194       3.4926      2.00000
    195       3.4926      2.00000
    196       3.4927      2.00000
    197       3.4928      2.00000
    198       3.4928      2.00000
    199       3.4929      2.00000
    200       3.4929      2.00000
    201       3.4930      2.00000
    202       3.4938      2.00000
    203       3.4938      2.00000
    204       3.4950      2.00000
    205       3.4951      2.00000
    206       3.8020      2.00000
    207       3.8028      2.00000
    208       3.8032      2.00000
    209       3.8037      2.00000
    210       3.8038      2.00000
    211       3.8038      2.00000
    212       3.8038      2.00000
    213       3.8039      2.00000
    214       3.8039      2.00000
    215       3.8041      2.00000
    216       3.8046      2.00000
    217       3.8063      2.00000
    218       4.3513      2.00000
    219       4.3513      2.00000
    220       4.3519      2.00000
    221       4.3520      2.00000
    222       4.3525      2.00000
    223       4.3529      2.00000
    224       4.3529      2.00000
    225       4.3529      2.00000
    226       4.3534      2.00000
    227       4.3535      2.00000
    228       4.3537      2.00000
    229       4.3555      2.00000
    230       4.4763      2.00000
    231       4.4767      2.00000
    232       4.4770      2.00000
    233       4.4774      2.00000
    234       4.4776      2.00000
    235       4.4781      2.00000
    236       4.4783      2.00000
    237       4.4801      2.00000
    238       4.9076      2.00000
    239       4.9098      2.00000
    240       4.9113      2.00000
    241       4.9114      2.00000
    242       4.9114      2.00000
    243       4.9114      2.00000
    244       4.9116      2.00000
    245       4.9117      2.00000
    246       4.9118      2.00000
    247       4.9119      2.00000
    248       4.9121      2.00000
    249       4.9121      2.00000
    250       4.9122      2.00000
    251       4.9125      2.00000
    252       4.9148      2.00000
    253       4.9150      2.00000
    254       5.6589      2.00000
    255       5.6604      2.00000
    256       5.6619      2.00000
    257       6.3941      0.00000
    258       6.3944      0.00000
    259       6.3946      0.00000
    260       6.3958      0.00000
    261       6.3958      0.00000
    262       6.3959      0.00000
    263       6.7957      0.00000
    264       6.7957      0.00000
    265       6.7959      0.00000
    266       6.7962      0.00000
    267       6.7968      0.00000
    268       6.7973      0.00000
    269       7.1206      0.00000
    270       7.1206      0.00000
    271       7.1210      0.00000
    272       7.1212      0.00000
    273       7.1826      0.00000
    274       7.1828      0.00000
    275       7.1845      0.00000
    276       7.1848      0.00000
    277       7.1856      0.00000
    278       7.1857      0.00000
    279       7.1857      0.00000
    280       7.1858      0.00000
    281       7.1858      0.00000
    282       7.1858      0.00000
    283       7.1859      0.00000
    284       7.1860      0.00000
    285       7.1860      0.00000
    286       7.1861      0.00000
    287       7.1861      0.00000
    288       7.1862      0.00000
    289       7.1862      0.00000
    290       7.1862      0.00000
    291       7.1863      0.00000
    292       7.1863      0.00000
    293       7.1876      0.00000
    294       7.1881      0.00000
    295       7.1885      0.00000
    296       7.1892      0.00000
    297       7.6112      0.00000
    298       7.6116      0.00000
    299       7.6118      0.00000
    300       7.6120      0.00000
    301       7.6123      0.00000
    302       7.6125      0.00000
    303       7.6131      0.00000
    304       7.6132      0.00000
    305       8.0816      0.00000
    306       8.0817      0.00000
    307       8.0820      0.00000
    308       8.0822      0.00000
    309       8.0827      0.00000
    310       8.0829      0.00000
    311       8.0829      0.00000
    312       8.0831      0.00000
    313       8.0831      0.00000
    314       8.0838      0.00000
    315       8.0841      0.00000
    316       8.0851      0.00000
    317       8.1984      0.00000
    318       8.1993      0.00000
    319       8.2002      0.00000
    320       8.7789      0.00000
    321       8.7791      0.00000
    322       8.7873      0.00000


--------------------------------------------------------------------------------------------------------


 soft charge-density along one line, spin component           1
         0         1         2         3         4         5         6         7         8         9
 total charge-density along one line
 
 pseudopotential strength for first ion, spin component:           1
 18.431  -0.001   0.000  -0.000   0.000  -0.000  -0.000   0.000
 -0.001   0.006  -0.000  -0.000  -0.000   0.000   0.000   0.000
  0.000  -0.000   4.180  -0.000   0.000  -0.005   0.000  -0.000
 -0.000  -0.000  -0.000   4.180  -0.000   0.000  -0.005   0.000
  0.000  -0.000   0.000  -0.000   4.180  -0.000   0.000  -0.005
 -0.000   0.000  -0.005   0.000  -0.000   0.005   0.000  -0.000
 -0.000   0.000   0.000  -0.005   0.000   0.000   0.005  -0.000
  0.000   0.000  -0.000   0.000  -0.005  -0.000  -0.000   0.005
 total augmentation occupancy for first ion, spin component:           1
  1.463  -0.793   0.003   0.000  -0.000  -0.004  -0.000   0.000
 -0.793   0.732  -0.003   0.000  -0.000   0.004  -0.000   0.000
  0.003  -0.003   1.037   0.000  -0.000  -0.551  -0.000   0.000
  0.000   0.000   0.000   1.037  -0.004  -0.000  -0.551   0.005
 -0.000  -0.000  -0.000  -0.004   1.037   0.000   0.005  -0.551
 -0.004   0.004  -0.551  -0.000   0.000   0.351  -0.000   0.000
 -0.000  -0.000  -0.000  -0.551   0.005  -0.000   0.351  -0.004
  0.000   0.000   0.000   0.005  -0.551   0.000  -0.004   0.351


------------------------ aborting loop because EDIFF is reached ----------------------------------------


    CHARGE:  cpu time    0.4953: real time    0.4970
    FORLOC:  cpu time    0.2004: real time    0.2013
    FORNL :  cpu time    5.4019: real time    5.4168
    STRESS:  cpu time    8.7141: real time    8.7413
    FORCOR:  cpu time    0.4066: real time    0.4078
    FORHAR:  cpu time    0.2424: real time    0.2433
    MIXING:  cpu time    0.0099: real time    0.0099
    OFIELD:  cpu time    0.0001: real time    0.0001

  FORCE on cell =-STRESS in cart. coord.  units (eV):
  Direction    XX          YY          ZZ          XY          YZ          ZX
  --------------------------------------------------------------------------------------
  Alpha Z   210.78029   210.78029   210.78029
  Ewald   -4841.66441 -4841.68333 -4841.66418     0.00003    -0.00009    -1.54976
  Hartree   330.57895   330.57523   330.57913     0.00002    -0.00011    -0.17692
  E(xc)   -1619.14457 -1619.14439 -1619.14457     0.00001     0.00001     0.01327
  Local   -1899.81371 -1899.79202 -1899.81413     0.00021     0.00048     1.63735
  n-local  4936.76855  4936.76482  4936.76855     0.00001     0.00000    -0.31828
  augment  -736.53103  -736.53084  -736.53103    -0.00027    -0.00027     0.01376
  Kinetic  3628.38858  3628.38950  3628.38859    -0.00001    -0.00000     0.20620
  Fock        0.00000     0.00000     0.00000     0.00000     0.00000     0.00000
  -------------------------------------------------------------------------------------
  Total       9.36264     9.35925     9.36265    -0.00001     0.00002    -0.17437
  in kB       5.73278     5.73070     5.73278    -0.00001     0.00001    -0.10677
  external pressure =        5.73 kB  Pullay stress =        0.00 kB


 VOLUME and BASIS-vectors are now :
 -----------------------------------------------------------------------------
  energy-cutoff  :      500.00
  volume of cell :     2616.64
      direct lattice vectors                 reciprocal lattice vectors
     0.000000000 10.937160696 10.937160696    -0.045715704  0.045715704  0.045715704
    10.937160696  0.000000000 10.937160696     0.045715704 -0.045715704  0.045715704
    10.937160696 10.937160696  0.000000000     0.045715704  0.045715704 -0.045715704

  length of vectors
    15.467480990 15.467480990 15.467480990     0.079181922  0.079181922  0.079181922


 FORCES acting on ions
    electron-ion (+dipol)            ewald-force                    non-local-force                 convergence-correction
 -----------------------------------------------------------------------------------------------
   -.574E-02 0.534E+00 0.184E-01   0.467E-02 -.477E+00 -.170E-01   0.603E-03 -.187E+00 -.160E-02   0.769E-07 -.199E-05 -.384E-06
   -.201E+00 0.256E-02 -.188E+00   0.173E+00 -.298E-02 0.160E+00   0.476E-01 0.328E-01 0.477E-01   0.796E-06 -.509E-06 0.610E-06
   -.203E+00 -.216E-01 0.142E+00   0.174E+00 0.207E-01 -.114E+00   0.481E-01 -.303E-01 -.468E-01   0.743E-06 0.695E-06 -.233E-07
   0.203E+00 0.216E-01 -.142E+00   -.174E+00 -.207E-01 0.114E+00   -.481E-01 0.303E-01 0.468E-01   -.726E-06 -.835E-06 -.220E-06
   0.201E+00 -.256E-02 0.188E+00   -.173E+00 0.298E-02 -.160E+00   -.476E-01 -.328E-01 -.477E-01   -.635E-06 0.591E-06 -.471E-06
   0.574E-02 -.534E+00 -.184E-01   -.467E-02 0.477E+00 0.170E-01   -.603E-03 0.187E+00 0.160E-02   -.921E-08 0.187E-05 0.744E-07
   0.645E-02 -.164E-01 -.413E-01   -.463E-02 0.152E-01 0.432E-01   -.389E-03 0.261E-02 -.975E-04   0.712E-07 0.347E-06 0.905E-06
   -.645E-02 0.164E-01 0.413E-01   0.463E-02 -.152E-01 -.432E-01   0.389E-03 -.261E-02 0.973E-04   0.968E-07 -.223E-06 -.412E-06
   -.239E-01 0.334E-01 0.126E-03   0.168E-01 -.445E-01 -.476E-02   0.825E-02 0.594E-02 0.606E-02   0.177E-07 0.390E-07 -.383E-06
   0.193E+00 0.407E-02 0.208E+00   -.165E+00 -.562E-02 -.181E+00   -.481E-01 0.341E-01 -.471E-01   -.544E-06 -.545E-06 -.100E-05
   -.241E-01 -.135E-01 -.123E-01   0.227E-01 0.144E-01 0.146E-01   0.763E-03 -.550E-03 -.172E-02   0.236E-06 -.126E-06 -.341E-06
   -.644E-01 0.376E-01 -.224E-01   0.670E-01 -.375E-01 0.204E-01   -.163E-03 -.195E-02 0.625E-03   0.561E-06 0.758E-07 0.208E-06
   0.943E-02 -.219E-01 -.528E-02   -.127E-01 0.159E-01 0.336E-02   0.351E-02 0.402E-02 0.259E-02   0.230E-06 0.494E-06 0.227E-06
   -.389E-02 -.312E-01 -.149E-01   -.120E-02 0.424E-01 0.888E-02   0.619E-02 -.625E-02 0.693E-02   -.938E-07 0.311E-06 -.120E-06
   0.559E-01 -.217E-01 0.289E-02   -.571E-01 0.199E-01 -.304E-02   -.127E-02 0.355E-02 -.422E-03   -.772E-06 0.374E-06 -.126E-06
   0.242E-01 -.383E-01 -.138E-01   -.227E-01 0.383E-01 0.124E-01   -.904E-03 -.186E-03 0.920E-03   -.343E-06 0.613E-06 0.240E-06
   -.933E-02 0.561E-02 0.172E-02   0.898E-02 -.103E-01 -.109E-02   0.268E-03 0.293E-02 -.475E-03   0.249E-07 0.590E-07 0.151E-07
   -.103E-01 0.201E-01 0.208E-02   0.808E-02 -.133E-01 -.465E-02   0.302E-02 -.492E-02 0.305E-02   0.248E-06 -.591E-07 0.447E-07
   0.593E-02 -.203E-02 0.442E-02   -.694E-02 0.205E-02 -.338E-02   0.706E-03 0.159E-03 -.612E-03   0.127E-06 -.113E-07 0.223E-06
   -.593E-02 0.203E-02 -.442E-02   0.694E-02 -.205E-02 0.338E-02   -.706E-03 -.159E-03 0.612E-03   0.117E-06 -.902E-07 -.138E-06
   0.103E-01 -.201E-01 -.208E-02   -.808E-02 0.133E-01 0.465E-02   -.302E-02 0.492E-02 -.305E-02   -.177E-06 0.225E-06 -.210E-06
   0.933E-02 -.561E-02 -.172E-02   -.898E-02 0.103E-01 0.109E-02   -.268E-03 -.293E-02 0.475E-03   0.294E-07 0.188E-06 0.505E-07
   -.111E-01 0.874E-02 -.248E-02   0.886E-02 -.795E-02 0.235E-02   0.227E-02 -.893E-03 -.705E-04   0.134E-06 -.130E-07 -.301E-06
   0.111E-01 -.874E-02 0.248E-02   -.886E-02 0.795E-02 -.235E-02   -.227E-02 0.893E-03 0.706E-04   -.121E-06 0.303E-07 -.163E-08
   0.389E-02 0.312E-01 0.149E-01   0.120E-02 -.424E-01 -.888E-02   -.619E-02 0.625E-02 -.693E-02   0.223E-06 -.182E-06 0.412E-06
   -.943E-02 0.219E-01 0.528E-02   0.127E-01 -.159E-01 -.336E-02   -.351E-02 -.402E-02 -.259E-02   -.174E-06 -.193E-06 0.243E-07
   0.644E-01 -.376E-01 0.224E-01   -.670E-01 0.375E-01 -.204E-01   0.163E-03 0.195E-02 -.625E-03   -.536E-06 -.142E-06 -.442E-06
   0.241E-01 0.135E-01 0.123E-01   -.227E-01 -.144E-01 -.146E-01   -.763E-03 0.550E-03 0.172E-02   -.499E-07 0.101E-06 0.262E-06
   -.193E+00 -.407E-02 -.208E+00   0.165E+00 0.562E-02 0.181E+00   0.481E-01 -.341E-01 0.471E-01   0.412E-06 0.555E-06 0.597E-06
   0.239E-01 -.334E-01 -.126E-03   -.168E-01 0.445E-01 0.476E-02   -.825E-02 -.594E-02 -.606E-02   -.387E-07 0.273E-07 0.132E-06
   -.242E-01 0.383E-01 0.138E-01   0.227E-01 -.383E-01 -.124E-01   0.904E-03 0.186E-03 -.920E-03   0.311E-06 -.428E-06 -.195E-06
   -.559E-01 0.217E-01 -.289E-02   0.571E-01 -.199E-01 0.304E-02   0.127E-02 -.355E-02 0.422E-03   0.637E-06 -.343E-06 -.114E-06
   -.620E-01 -.372E-01 0.127E-02   0.651E-01 0.293E-01 -.463E-02   -.154E-02 0.741E-02 0.287E-02   0.695E-06 0.191E-06 -.577E-07
   -.205E+00 -.346E-02 0.209E+00   0.176E+00 0.239E-02 -.182E+00   0.489E-01 0.338E-01 -.476E-01   0.848E-06 -.624E-06 -.820E-06
   0.143E-01 -.223E-01 -.119E-01   -.125E-01 0.240E-01 0.146E-01   -.126E-02 -.145E-02 -.211E-02   -.466E-07 -.332E-06 -.307E-06
   -.153E-01 -.632E-01 -.270E-01   0.205E-01 0.751E-01 0.207E-01   -.650E-02 -.702E-02 0.697E-02   0.421E-06 0.319E-06 -.644E-07
   0.208E-01 0.772E-02 -.212E-02   -.192E-01 -.795E-02 0.340E-02   -.155E-02 0.128E-03 -.662E-03   0.215E-06 0.250E-06 0.400E-06
   0.578E-01 0.187E-01 -.101E-01   -.590E-01 -.173E-01 0.900E-02   -.100E-02 -.290E-02 0.571E-04   -.718E-06 -.208E-06 0.241E-06
   0.951E-02 0.282E-01 -.225E-02   -.314E-02 -.397E-01 -.292E-02   -.695E-02 0.690E-02 0.653E-02   0.221E-06 0.450E-07 -.393E-07
   0.119E-01 0.219E-01 -.143E-01   -.146E-01 -.240E-01 0.125E-01   0.217E-02 0.178E-02 0.131E-02   0.345E-06 0.450E-06 0.530E-06
   -.118E-01 -.116E-02 -.210E-02   0.121E-01 0.112E-02 0.227E-02   -.125E-03 0.307E-03 -.444E-03   -.518E-07 0.112E-06 -.337E-06
   -.287E-01 0.125E-01 -.131E-02   0.285E-01 -.144E-01 0.424E-02   0.103E-03 0.157E-02 -.232E-02   0.266E-06 0.222E-06 -.545E-06
   0.398E-02 -.394E-02 0.436E-03   -.406E-02 0.434E-02 -.233E-04   0.560E-04 -.140E-03 -.420E-03   -.280E-07 0.251E-06 -.469E-07
   -.549E-02 -.145E-01 -.507E-02   0.557E-02 0.132E-01 0.561E-02   -.609E-04 0.875E-03 -.522E-03   0.594E-07 -.111E-06 -.187E-06
   0.115E-01 0.250E-02 -.617E-02   -.111E-01 -.322E-02 0.533E-02   -.148E-03 0.107E-02 0.189E-03   -.246E-06 0.174E-06 -.469E-07
   0.127E-01 -.419E-02 -.229E-02   -.136E-01 0.322E-02 0.331E-02   0.749E-03 0.765E-03 -.730E-03   0.904E-08 0.293E-06 0.171E-06
   -.358E-02 0.138E-01 -.316E-02   0.299E-02 -.132E-01 0.303E-02   0.208E-03 -.536E-04 -.253E-03   -.217E-06 0.173E-06 -.362E-06
   0.217E-01 0.155E-01 -.456E-02   -.205E-01 -.175E-01 0.655E-02   -.797E-03 0.171E-02 -.165E-02   -.308E-06 0.595E-06 -.332E-06
   0.141E-02 0.303E-02 0.893E-02   -.127E-02 -.323E-02 -.904E-02   0.108E-03 0.412E-03 -.130E-04   0.180E-06 0.563E-07 -.797E-07
   -.651E-02 0.627E-02 0.202E-02   0.584E-02 -.711E-02 -.109E-02   0.513E-03 0.670E-03 -.787E-03   -.508E-07 -.717E-07 -.167E-06
   0.695E-02 -.100E-01 0.340E-02   -.803E-02 0.108E-01 -.399E-02   0.878E-03 -.594E-03 0.403E-03   -.567E-08 0.216E-07 0.775E-07
   0.533E-02 -.463E-02 0.572E-02   -.561E-02 0.366E-02 -.560E-02   0.247E-03 0.748E-03 -.127E-03   0.462E-07 0.144E-06 0.117E-06
   -.106E-02 0.349E-02 -.181E-01   -.136E-03 -.289E-02 0.169E-01   0.724E-03 -.707E-03 0.143E-02   -.224E-06 0.105E-06 0.225E-07
   0.612E-02 -.651E-02 -.541E-02   -.671E-02 0.586E-02 0.694E-02   0.397E-03 0.595E-03 -.116E-02   -.112E-06 0.102E-06 -.699E-07
   -.417E-02 0.129E-01 -.379E-02   0.403E-02 -.123E-01 0.404E-02   0.155E-03 -.400E-03 -.218E-03   0.999E-08 -.843E-07 -.737E-07
   -.337E-02 0.966E-02 -.692E-02   0.396E-02 -.108E-01 0.800E-02   -.462E-03 0.917E-03 -.937E-03   -.976E-07 0.330E-07 -.133E-06
   0.364E-03 -.253E-01 0.638E-01   0.241E-04 0.242E-01 -.645E-01   0.582E-03 0.281E-02 -.143E-02   0.273E-06 0.100E-06 -.640E-06
   0.440E-02 0.178E-01 0.262E-01   -.653E-02 -.195E-01 -.252E-01   0.180E-02 0.138E-02 -.663E-03   0.570E-06 0.113E-06 -.821E-07
   0.456E-02 -.422E-01 -.217E-01   -.655E-02 0.441E-01 0.205E-01   0.165E-02 -.149E-02 0.797E-03   0.310E-06 0.618E-07 0.341E-07
   0.207E-01 -.488E-01 0.211E-01   -.206E-01 0.485E-01 -.205E-01   0.226E-03 -.702E-04 -.236E-03   -.562E-07 0.184E-06 -.320E-06
   0.209E-01 0.331E-01 -.256E-01   -.204E-01 -.333E-01 0.252E-01   -.853E-04 0.370E-03 0.109E-03   -.303E-06 -.126E-06 0.179E-06
   0.473E-02 0.127E-01 -.636E-01   -.405E-02 -.112E-01 0.642E-01   0.248E-03 -.308E-02 0.144E-02   -.157E-06 -.136E-06 0.627E-06
   0.352E-02 0.228E-01 0.394E-02   -.403E-02 -.219E-01 -.399E-02   0.493E-03 -.527E-03 0.319E-04   0.361E-06 0.170E-06 0.946E-07
   -.435E-03 0.298E-01 -.398E-02   0.233E-04 -.307E-01 0.406E-02   0.419E-03 0.632E-03 -.561E-04   0.644E-07 -.195E-06 -.585E-07
   -.104E-01 -.903E-02 0.189E-02   0.116E-01 0.909E-02 -.110E-02   -.670E-03 0.160E-03 -.638E-03   0.105E-06 -.971E-07 -.905E-07
   -.183E-01 -.786E-02 0.573E-02   0.169E-01 0.124E-01 -.465E-02   0.159E-02 -.260E-02 -.607E-03   0.173E-06 -.166E-06 -.680E-07
   0.152E-02 0.549E-02 0.427E-02   -.962E-03 -.586E-02 -.338E-02   -.333E-03 0.423E-03 -.455E-03   0.176E-06 0.164E-07 0.390E-07
   -.153E-02 -.549E-02 -.427E-02   0.962E-03 0.586E-02 0.338E-02   0.333E-03 -.423E-03 0.455E-03   0.296E-06 -.887E-07 -.331E-06
   0.183E-01 0.786E-02 -.573E-02   -.169E-01 -.124E-01 0.465E-02   -.159E-02 0.260E-02 0.607E-03   -.196E-06 0.195E-06 0.282E-07
   0.104E-01 0.903E-02 -.189E-02   -.116E-01 -.909E-02 0.110E-02   0.670E-03 -.160E-03 0.639E-03   0.187E-06 0.269E-06 0.167E-06
   -.507E-02 -.121E-01 0.116E-02   0.340E-02 0.624E-02 0.234E-02   0.235E-02 0.389E-02 -.371E-02   -.192E-07 -.154E-07 -.154E-06
   0.507E-02 0.121E-01 -.116E-02   -.340E-02 -.624E-02 -.234E-02   -.235E-02 -.389E-02 0.371E-02   -.228E-06 -.114E-06 0.396E-06
   -.623E-02 -.580E-02 0.848E-02   0.700E-02 0.643E-02 -.904E-02   -.538E-03 -.482E-03 0.376E-03   -.139E-06 0.837E-07 -.171E-06
   -.913E-02 -.695E-02 0.193E-02   0.898E-02 0.630E-02 -.109E-02   0.802E-04 0.576E-03 -.664E-03   -.164E-06 0.174E-06 -.234E-06
   0.146E-02 0.115E-01 0.383E-02   -.176E-02 -.119E-01 -.399E-02   0.123E-04 0.599E-03 0.285E-04   -.301E-06 -.128E-07 -.159E-06
   -.873E-03 0.107E-02 0.565E-02   0.828E-03 -.184E-02 -.560E-02   0.632E-04 0.581E-03 -.875E-04   -.257E-07 0.735E-07 -.219E-06
   0.594E-02 0.920E-02 -.181E-01   -.466E-02 -.839E-02 0.169E-01   -.794E-03 -.888E-03 0.140E-02   -.188E-06 0.277E-06 0.763E-07
   0.928E-02 0.105E-01 -.549E-02   -.914E-02 -.117E-01 0.695E-02   -.121E-03 0.107E-02 -.116E-02   -.379E-06 0.166E-06 0.450E-07
   -.419E-02 -.541E-02 -.382E-02   0.473E-02 0.618E-02 0.403E-02   -.543E-03 -.521E-03 -.205E-03   -.280E-06 0.180E-06 -.202E-06
   -.719E-03 0.148E-03 -.670E-02   0.174E-02 -.112E-02 0.801E-02   -.727E-03 0.709E-03 -.110E-02   -.403E-06 0.936E-07 -.177E-06
   -.112E-02 -.397E-02 0.112E-01   0.102E-02 0.381E-02 -.117E-01   0.776E-04 0.415E-03 0.108E-03   0.796E-07 -.249E-06 0.220E-07
   -.172E-02 -.315E-02 0.933E-02   0.109E-02 0.263E-02 -.898E-02   0.476E-03 0.458E-03 -.268E-03   0.829E-07 0.130E-06 -.162E-07
   -.160E-02 0.125E-02 -.471E-02   0.110E-02 -.804E-03 0.423E-02   0.328E-03 -.411E-03 0.395E-03   0.134E-06 -.330E-08 0.186E-06
   0.159E-02 -.125E-02 0.471E-02   -.110E-02 0.804E-03 -.423E-02   -.328E-03 0.411E-03 -.395E-03   0.351E-07 -.161E-06 0.858E-07
   0.172E-02 0.315E-02 -.933E-02   -.109E-02 -.263E-02 0.898E-02   -.476E-03 -.458E-03 0.268E-03   0.464E-07 -.138E-06 0.318E-07
   0.112E-02 0.397E-02 -.112E-01   -.102E-02 -.381E-02 0.117E-01   -.777E-04 -.415E-03 -.107E-03   0.715E-07 0.120E-06 0.267E-07
   0.985E-03 -.121E-02 0.350E-02   -.102E-02 0.183E-02 -.374E-02   0.668E-04 -.417E-03 0.207E-03   0.132E-06 -.185E-07 0.192E-06
   -.985E-03 0.121E-02 -.350E-02   0.102E-02 -.183E-02 0.374E-02   -.668E-04 0.417E-03 -.207E-03   -.522E-07 -.142E-06 -.611E-07
   -.928E-02 -.105E-01 0.549E-02   0.914E-02 0.117E-01 -.695E-02   0.121E-03 -.107E-02 0.116E-02   0.141E-06 -.175E-06 0.900E-07
   -.594E-02 -.920E-02 0.181E-01   0.466E-02 0.839E-02 -.169E-01   0.795E-03 0.887E-03 -.140E-02   0.136E-06 -.307E-06 0.683E-07
   0.873E-03 -.107E-02 -.565E-02   -.828E-03 0.184E-02 0.560E-02   -.632E-04 -.581E-03 0.876E-04   0.303E-07 -.285E-07 -.190E-06
   -.146E-02 -.115E-01 -.383E-02   0.176E-02 0.119E-01 0.399E-02   -.124E-04 -.599E-03 -.286E-04   0.246E-06 0.182E-07 -.247E-07
   0.913E-02 0.695E-02 -.193E-02   -.898E-02 -.630E-02 0.109E-02   -.802E-04 -.576E-03 0.664E-03   0.904E-07 0.181E-06 0.130E-06
   0.623E-02 0.580E-02 -.848E-02   -.700E-02 -.643E-02 0.904E-02   0.537E-03 0.482E-03 -.376E-03   0.168E-07 0.137E-06 -.192E-06
   0.719E-03 -.148E-03 0.670E-02   -.174E-02 0.112E-02 -.801E-02   0.727E-03 -.709E-03 0.110E-02   0.143E-06 -.210E-06 0.236E-06
   0.419E-02 0.541E-02 0.381E-02   -.473E-02 -.618E-02 -.403E-02   0.543E-03 0.521E-03 0.205E-03   0.181E-06 -.359E-07 0.303E-06
   -.578E-01 -.187E-01 0.101E-01   0.590E-01 0.173E-01 -.900E-02   0.100E-02 0.290E-02 -.570E-04   0.726E-06 0.909E-07 -.179E-06
   -.208E-01 -.772E-02 0.212E-02   0.192E-01 0.795E-02 -.340E-02   0.155E-02 -.128E-03 0.662E-03   -.755E-07 -.246E-06 0.541E-07
   0.153E-01 0.632E-01 0.270E-01   -.205E-01 -.751E-01 -.207E-01   0.650E-02 0.702E-02 -.697E-02   -.597E-06 -.455E-06 -.136E-06
   -.143E-01 0.223E-01 0.119E-01   0.125E-01 -.240E-01 -.146E-01   0.126E-02 0.145E-02 0.211E-02   0.237E-06 0.178E-06 0.258E-06
   0.205E+00 0.346E-02 -.209E+00   -.176E+00 -.239E-02 0.182E+00   -.489E-01 -.338E-01 0.476E-01   -.951E-06 0.361E-06 0.730E-06
   0.620E-01 0.372E-01 -.127E-02   -.651E-01 -.293E-01 0.463E-02   0.154E-02 -.741E-02 -.287E-02   -.785E-06 -.411E-06 -.218E-06
   -.119E-01 -.219E-01 0.143E-01   0.146E-01 0.240E-01 -.125E-01   -.217E-02 -.178E-02 -.131E-02   -.329E-06 -.198E-06 0.967E-08
   -.950E-02 -.282E-01 0.225E-02   0.314E-02 0.397E-01 0.292E-02   0.695E-02 -.690E-02 -.653E-02   -.402E-06 -.350E-07 0.245E-06
   -.473E-02 -.127E-01 0.636E-01   0.405E-02 0.112E-01 -.642E-01   -.248E-03 0.308E-02 -.144E-02   0.222E-07 0.419E-07 -.980E-06
   -.209E-01 -.331E-01 0.256E-01   0.204E-01 0.333E-01 -.252E-01   0.853E-04 -.370E-03 -.109E-03   0.160E-06 0.293E-06 -.412E-06
   -.207E-01 0.488E-01 -.211E-01   0.206E-01 -.485E-01 0.205E-01   -.226E-03 0.702E-04 0.236E-03   0.773E-07 -.199E-06 0.314E-06
   -.456E-02 0.422E-01 0.217E-01   0.655E-02 -.441E-01 -.205E-01   -.165E-02 0.149E-02 -.796E-03   -.420E-06 -.778E-07 -.379E-06
   -.440E-02 -.178E-01 -.262E-01   0.653E-02 0.195E-01 0.252E-01   -.180E-02 -.138E-02 0.663E-03   -.473E-06 -.193E-06 0.324E-06
   -.364E-03 0.253E-01 -.638E-01   -.241E-04 -.242E-01 0.645E-01   -.582E-03 -.281E-02 0.143E-02   -.195E-06 -.207E-06 0.782E-06
   0.435E-03 -.298E-01 0.398E-02   -.233E-04 0.307E-01 -.406E-02   -.419E-03 -.632E-03 0.562E-04   -.117E-06 0.575E-06 -.561E-07
   -.352E-02 -.228E-01 -.394E-02   0.403E-02 0.219E-01 0.399E-02   -.493E-03 0.527E-03 -.319E-04   -.296E-06 0.129E-06 0.433E-07
   -.612E-02 0.651E-02 0.541E-02   0.671E-02 -.586E-02 -.694E-02   -.397E-03 -.595E-03 0.116E-02   -.225E-07 -.180E-06 0.143E-06
   0.106E-02 -.349E-02 0.181E-01   0.136E-03 0.289E-02 -.169E-01   -.724E-03 0.707E-03 -.143E-02   0.855E-07 -.299E-06 -.159E-06
   -.533E-02 0.463E-02 -.572E-02   0.561E-02 -.366E-02 0.560E-02   -.247E-03 -.748E-03 0.127E-03   0.521E-08 -.223E-06 0.115E-06
   -.695E-02 0.100E-01 -.340E-02   0.803E-02 -.108E-01 0.399E-02   -.878E-03 0.594E-03 -.403E-03   -.379E-07 -.991E-07 0.209E-06
   0.651E-02 -.627E-02 -.202E-02   -.584E-02 0.711E-02 0.109E-02   -.513E-03 -.670E-03 0.787E-03   0.762E-07 0.539E-07 0.177E-06
   -.141E-02 -.303E-02 -.893E-02   0.127E-02 0.323E-02 0.904E-02   -.109E-03 -.412E-03 0.130E-04   -.208E-06 -.166E-06 0.161E-06
   0.337E-02 -.966E-02 0.692E-02   -.396E-02 0.108E-01 -.800E-02   0.462E-03 -.918E-03 0.937E-03   -.552E-07 -.278E-07 -.849E-08
   0.417E-02 -.129E-01 0.379E-02   -.403E-02 0.123E-01 -.404E-02   -.155E-03 0.400E-03 0.218E-03   0.682E-07 0.211E-06 0.825E-07
   -.127E-01 0.419E-02 0.229E-02   0.136E-01 -.322E-02 -.331E-02   -.748E-03 -.765E-03 0.730E-03   -.176E-08 -.256E-06 0.237E-06
   -.115E-01 -.250E-02 0.617E-02   0.111E-01 0.322E-02 -.533E-02   0.148E-03 -.107E-02 -.189E-03   0.704E-07 -.303E-06 0.322E-06
   0.549E-02 0.145E-01 0.507E-02   -.557E-02 -.132E-01 -.561E-02   0.609E-04 -.875E-03 0.522E-03   0.123E-06 0.250E-07 0.121E-06
   -.398E-02 0.394E-02 -.436E-03   0.406E-02 -.434E-02 0.233E-04   -.560E-04 0.140E-03 0.420E-03   -.221E-07 -.292E-06 0.102E-06
   0.287E-01 -.125E-01 0.131E-02   -.285E-01 0.144E-01 -.424E-02   -.103E-03 -.157E-02 0.232E-02   -.279E-06 -.396E-06 0.446E-06
   0.118E-01 0.116E-02 0.210E-02   -.121E-01 -.112E-02 -.227E-02   0.125E-03 -.307E-03 0.445E-03   0.887E-07 -.585E-07 0.343E-06
   -.217E-01 -.155E-01 0.456E-02   0.205E-01 0.175E-01 -.655E-02   0.797E-03 -.171E-02 0.165E-02   0.194E-06 -.604E-06 0.336E-06
   0.358E-02 -.138E-01 0.316E-02   -.299E-02 0.132E-01 -.303E-02   -.208E-03 0.536E-04 0.253E-03   0.674E-07 -.304E-06 0.244E-06
 -----------------------------------------------------------------------------------------------
   -.132E-05 0.213E-05 -.151E-05   0.110E-12 -.483E-12 -.734E-13   0.142E-05 -.269E-05 0.183E-05   0.800E-08 0.627E-07 -.280E-07
 
 
 POSITION                                       TOTAL-FORCE (eV/Angst)
 -----------------------------------------------------------------------------------
      1.36715      1.37715      1.36715        -0.000471     -0.130522     -0.000200
      0.00000      0.00000      0.00000         0.019951      0.032419      0.019577
      1.36715      4.10144      4.10144         0.019556     -0.031278     -0.018489
      0.00000      2.73429      2.73429        -0.019556      0.031278      0.018489
      1.36715      6.83573      6.83573        -0.019951     -0.032419     -0.019577
     10.93716     16.39574      5.46858         0.000471      0.130522      0.000200
      1.36715      9.57002      9.57002         0.001425      0.001365      0.001821
      0.00000      8.20287      8.20287        -0.001425     -0.001365     -0.001821
      4.10144      1.36715      4.10144         0.001144     -0.005123      0.001422
      2.73429      0.00000      2.73429        -0.019800      0.032517     -0.020098
      4.10144      4.10144      6.83573        -0.000614      0.000356      0.000487
      2.73429      2.73429      5.46858         0.002372     -0.001838     -0.001308
      4.10144      6.83573      9.57002         0.000265     -0.001990      0.000682
      2.73429      5.46858      8.20287         0.001106      0.004970      0.000867
      4.10144      9.57002     12.30431        -0.002405      0.001821     -0.000566
      2.73429      8.20287     10.93716         0.000614     -0.000182     -0.000552
      6.83573      1.36715      6.83573        -0.000080     -0.001725      0.000157
      5.46858      0.00000      5.46858         0.000844      0.001894      0.000473
      6.83573      4.10144      9.57002        -0.000307      0.000182      0.000427
      5.46858      2.73429      8.20287         0.000307     -0.000182     -0.000427
      6.83573      6.83573     12.30431        -0.000844     -0.001894     -0.000473
      5.46858      5.46858     10.93716         0.000080      0.001725     -0.000157
      6.83573      9.57002     15.03860        -0.000012     -0.000102     -0.000203
      5.46858      8.20287     13.67145         0.000012      0.000102      0.000203
      9.57002      1.36715      9.57002        -0.001106     -0.004970     -0.000867
      8.20287      0.00000      8.20287        -0.000265      0.001990     -0.000682
      9.57002      4.10144     12.30431        -0.002372      0.001838      0.001308
      8.20287      2.73429     10.93716         0.000614     -0.000356     -0.000487
      9.57002      6.83573     15.03860         0.019800     -0.032517      0.020098
      8.20287      5.46858     13.67145        -0.001144      0.005123     -0.001422
      9.57002      9.57002     17.77289        -0.000614      0.000182      0.000552
      8.20287      8.20287     16.40574         0.002405     -0.001821      0.000566
      4.10144      4.10144      1.36715         0.001559     -0.000468     -0.000486
      2.73429      2.73429      0.00000         0.020248      0.032753     -0.020728
      4.10144      6.83573      4.10144         0.000548      0.000297      0.000552
      2.73429      5.46858      2.73429        -0.001304      0.004843      0.000623
      4.10144      9.57002      6.83573         0.000076     -0.000103      0.000622
      2.73429      8.20287      5.46858        -0.002176     -0.001516     -0.001030
      4.10144     12.30431      9.57002        -0.000580     -0.004669      0.001350
      2.73429     10.93716      8.20287        -0.000493     -0.000297     -0.000490
      6.83573      4.10144      4.10144         0.000171      0.000260     -0.000278
      5.46858      2.73429      2.73429        -0.000136     -0.000356      0.000609
      6.83573      6.83573      6.83573        -0.000022      0.000260     -0.000007
      5.46858      5.46858      5.46858         0.000019     -0.000351      0.000018
      6.83573      9.57002      9.57002         0.000237      0.000356     -0.000659
      5.46858      8.20287      8.20287        -0.000228     -0.000203      0.000289
      6.83573     12.30431     12.30431        -0.000385      0.000503     -0.000386
      5.46858     10.93716     10.93716         0.000340     -0.000354      0.000343
      9.57002      4.10144      6.83573         0.000246      0.000210     -0.000125
      8.20287      2.73429      5.46858        -0.000156     -0.000172      0.000145
      9.57002      6.83573      9.57002        -0.000201      0.000203     -0.000186
      8.20287      5.46858      8.20287        -0.000031     -0.000225     -0.000006
      9.57002      9.57002     12.30431        -0.000475     -0.000112      0.000184
      8.20287      8.20287     10.93716        -0.000191     -0.000049      0.000368
      9.57002     12.30431     15.03860         0.000009      0.000191      0.000034
      8.20287     10.93716     13.67145         0.000128     -0.000204      0.000142
     12.30431      4.10144      9.57002         0.000970      0.001741     -0.002056
     10.93716      2.73429      8.20287        -0.000325     -0.000346      0.000342
     12.30431      6.83573     12.30431        -0.000343      0.000417     -0.000340
     10.93716      5.46858     10.93716         0.000341     -0.000329      0.000340
     12.30431      9.57002     15.03860         0.000356      0.000172     -0.000342
     10.93716      8.20287     13.67145         0.000929     -0.001636      0.002040
     12.30431     12.30431     17.77289        -0.000022      0.000316     -0.000022
     10.93716     10.93716     16.40574         0.000007     -0.000321      0.000022
      6.83573      6.83573      1.36715         0.000529      0.000220      0.000158
      5.46858      5.46858      0.00000         0.000199      0.001889      0.000473
      6.83573      9.57002      4.10144         0.000230      0.000049      0.000431
      5.46858      8.20287      2.73429        -0.000230     -0.000049     -0.000431
      6.83573     12.30431      6.83573        -0.000199     -0.001889     -0.000473
      5.46858     10.93716      5.46858        -0.000529     -0.000220     -0.000158
      6.83573     15.03860      9.57002         0.000682     -0.001949     -0.000203
      5.46858     13.67145      8.20287        -0.000682      0.001949      0.000203
      9.57002      6.83573      4.10144         0.000232      0.000152     -0.000185
      8.20287      5.46858      2.73429        -0.000068     -0.000071      0.000170
      9.57002      9.57002      6.83573        -0.000294      0.000169     -0.000128
      8.20287      8.20287      5.46858         0.000018     -0.000193     -0.000031
      9.57002     12.30431      9.57002         0.000487     -0.000083      0.000210
      8.20287     10.93716      8.20287         0.000010     -0.000124      0.000308
      9.57002     15.03860     12.30431        -0.000006      0.000249      0.000010
      8.20287     13.67145     10.93716         0.000294     -0.000259      0.000200
     12.30431      6.83573      6.83573        -0.000022      0.000248     -0.000394
     10.93716      5.46858      5.46858        -0.000157     -0.000058      0.000081
     12.30431      9.57002      9.57002        -0.000171      0.000039     -0.000081
     10.93716      8.20287      8.20287         0.000171     -0.000039      0.000081
     12.30431     12.30431     12.30431         0.000157      0.000058     -0.000081
     10.93716     10.93716     10.93716         0.000022     -0.000248      0.000394
     12.30431     15.03860     15.03860         0.000036      0.000200     -0.000026
     10.93716     13.67145     13.67145        -0.000036     -0.000200      0.000026
     15.03860      6.83573      9.57002        -0.000010      0.000124     -0.000308
     13.67145      5.46858      8.20287        -0.000487      0.000083     -0.000210
     15.03860      9.57002     12.30431        -0.000018      0.000193      0.000031
     13.67145      8.20287     10.93716         0.000294     -0.000169      0.000128
     15.03860     12.30431     15.03860         0.000068      0.000071     -0.000170
     13.67145     10.93716     13.67145        -0.000232     -0.000152      0.000185
     15.03860     15.03860     17.77289        -0.000294      0.000259     -0.000200
     13.67145     13.67145     16.40574         0.000006     -0.000249     -0.000010
      9.57002      9.57002      1.36715         0.002176      0.001516      0.001030
      8.20287      8.20287      0.00000        -0.000076      0.000103     -0.000622
      9.57002     12.30431      4.10144         0.001304     -0.004843     -0.000623
      8.20287     10.93716      2.73429        -0.000548     -0.000297     -0.000552
      9.57002     15.03860      6.83573        -0.020248     -0.032753      0.020728
      8.20287     13.67145      5.46858        -0.001559      0.000468      0.000486
      9.57002     17.77289      9.57002         0.000493      0.000297      0.000490
      8.20287     16.40574      8.20287         0.000580      0.004669     -0.001350
     12.30431      9.57002      4.10144        -0.000929      0.001636     -0.002040
     10.93716      8.20287      2.73429        -0.000356     -0.000172      0.000342
     12.30431     12.30431      6.83573        -0.000341      0.000329     -0.000340
     10.93716     10.93716      5.46858         0.000343     -0.000417      0.000340
     12.30431     15.03860      9.57002         0.000325      0.000346     -0.000342
     10.93716     13.67145      8.20287        -0.000970     -0.001741      0.002056
     12.30431     17.77289     12.30431        -0.000007      0.000321     -0.000022
     10.93716     16.40574     10.93716         0.000022     -0.000316      0.000022
     15.03860      9.57002      6.83573         0.000191      0.000049     -0.000368
     13.67145      8.20287      5.46858         0.000475      0.000112     -0.000184
     15.03860     12.30431      9.57002         0.000031      0.000225      0.000006
     13.67145     10.93716      8.20287         0.000201     -0.000203      0.000186
     15.03860     15.03860     12.30431         0.000156      0.000172     -0.000145
     13.67145     13.67145     10.93716        -0.000246     -0.000210      0.000125
     15.03860     17.77289     15.03860        -0.000128      0.000204     -0.000143
     13.67145     16.40574     13.67145        -0.000009     -0.000191     -0.000034
     17.77289      9.57002      9.57002         0.000228      0.000203     -0.000289
     16.40574      8.20287      8.20287        -0.000237     -0.000356      0.000659
     17.77289     12.30431     12.30431        -0.000019      0.000351     -0.000018
     16.40574     10.93716     10.93716         0.000022     -0.000260      0.000007
     17.77289     15.03860     15.03860         0.000136      0.000356     -0.000609
     16.40574     13.67145     13.67145        -0.000171     -0.000260      0.000278
     17.77289     17.77289     17.77289        -0.000340      0.000354     -0.000343
     16.40574     16.40574     16.40574         0.000385     -0.000503      0.000386
 -----------------------------------------------------------------------------------
    total drift:                                0.000000     -0.000001      0.000000


--------------------------------------------------------------------------------------------------------



  FREE ENERGIE OF THE ION-ELECTRON SYSTEM (eV)
  ---------------------------------------------------
  free  energy   TOTEN  =      -682.56819438 eV

  energy  without entropy=     -682.56819438  energy(sigma->0) =     -682.56819438
 


--------------------------------------------------------------------------------------------------------


    POTLOK:  cpu time    0.4974: real time    0.4987


--------------------------------------------------------------------------------------------------------


     LOOP+:  cpu time  120.8230: real time  121.2013
    4ORBIT:  cpu time    0.0000: real time    0.0000

 total amount of memory used by VASP MPI-rank0   118934. kBytes
=======================================================================

   base      :      30000. kBytes
   nonl-proj :       7011. kBytes
   fftplans  :      53058. kBytes
   grid      :      20148. kBytes
   one-center:         21. kBytes
   wavefun   :       8696. kBytes
 
  
  
 General timing and accounting informations for this job:
 ========================================================
  
                  Total CPU time used (sec):      128.646
                            User time (sec):      126.061
                          System time (sec):        2.585
                         Elapsed time (sec):      129.111
  
                   Maximum memory used (kb):      242372.
                   Average memory used (kb):           0.
  
                          Minor page faults:        82921
                          Major page faults:            0
                 Voluntary context switches:          486
