<?xml version="1.0" encoding="ISO-8859-1"?>
<modeling>
 <generator>
  <i name="program" type="string">vasp </i>
  <i name="version" type="string">5.4.4.18Apr17-6-g9f103f2a35  </i>
  <i name="subversion" type="string">(build Aug 16 2020 16:33:06) complex            parallel </i>
  <i name="platform" type="string">LinuxIFC </i>
  <i name="date" type="string">2026 08 15 </i>
  <i name="time" type="string">15:11:52 </i>
 </generator>
 <incar>
  <i type="string" name="PREC">accurate</i>
  <i type="logical" name="ADDGRID"> T  </i>
  <i type="int" name="IBRION">    -1</i>
  <i name="EDIFF">      0.00000001</i>
  <i type="int" name="ISYM">     0</i>
  <i name="ENCUT">    500.00000000</i>
  <i type="logical" name="LREAL"> F  </i>
  <i type="int" name="ISMEAR">     0</i>
  <i name="SIGMA">      0.05000000</i>
  <i type="logical" name="LWAVE"> F  </i>
  <i type="logical" name="LCHARG"> F  </i>
  <v type="int" name="KPOINT_BSE">    -1     0     0     0</v>
 </incar>
 <structure name="primitive_cell" >
  <crystal>
   <varray name="basis" >
    <v>       0.00000000      10.93716070      10.93716070 </v>
    <v>      10.93716070       0.00000000      10.93716070 </v>
    <v>      10.93716070      10.93716070       0.00000000 </v>
   </varray>
   <i name="volume">   2616.63878844 </i>
   <varray name="rec_basis" >
    <v>      -0.04571570       0.04571570       0.04571570 </v>
    <v>       0.04571570      -0.04571570       0.04571570 </v>
    <v>       0.04571570       0.04571570      -0.04571570 </v>
   </varray>
  </crystal>
  <varray name="positions" >
   <v>       0.06204284       0.06204284       0.06295716 </v>
   <v>      -0.00045716       0.00045716       0.00045716 </v>
   <v>       0.00000000       0.00000000       0.25000000 </v>
   <v>       0.25000000       0.00000000       0.00000000 </v>
   <v>       0.00000000       0.25000000       0.00000000 </v>
   <v>      -0.18750000       0.06250000       0.06250000 </v>
   <v>       0.06250000      -0.18750000       0.06250000 </v>
   <v>      -0.18750000       0.06250000       0.31250000 </v>
   <v>       0.06250000      -0.18750000       0.31250000 </v>
   <v>      -0.18750000       0.31250000       0.06250000 </v>
   <v>       0.31250000      -0.18750000       0.06250000 </v>
   <v>       0.06250000       0.06250000       0.31250000 </v>
   <v>       0.06250000       0.06250000      -0.18750000 </v>
   <v>       0.31250000       0.06250000       0.06250000 </v>
   <v>       0.06250000       0.31250000       0.06250000 </v>
   <v>       0.31250000       0.06250000      -0.18750000 </v>
   <v>       0.06250000       0.31250000      -0.18750000 </v>
   <v>      -0.25000000       0.00000000       0.25000000 </v>
   <v>       0.00000000      -0.25000000       0.25000000 </v>
   <v>      -0.25000000       0.25000000       0.00000000 </v>
   <v>       0.25000000      -0.25000000       0.00000000 </v>
   <v>      -0.25000000       0.25000000       0.25000000 </v>
   <v>       0.25000000      -0.25000000       0.25000000 </v>
   <v>       0.25000000       0.00000000       0.25000000 </v>
   <v>       0.00000000       0.25000000       0.25000000 </v>
   <v>       0.25000000       0.00000000      -0.25000000 </v>
   <v>       0.00000000       0.25000000      -0.25000000 </v>
   <v>       0.25000000       0.25000000       0.00000000 </v>
   <v>       0.25000000       0.25000000      -0.25000000 </v>
   <v>      -0.18750000      -0.18750000       0.31250000 </v>
   <v>      -0.18750000       0.31250000       0.31250000 </v>
   <v>       0.31250000      -0.18750000       0.31250000 </v>
   <v>      -0.18750000       0.31250000      -0.18750000 </v>
   <v>       0.31250000      -0.18750000      -0.18750000 </v>
   <v>       0.31250000       0.31250000      -0.18750000 </v>
   <v>      -0.25000000       0.00000000       0.00000000 </v>
   <v>       0.00000000      -0.25000000       0.00000000 </v>
   <v>      -0.25000000       0.00000000      -0.50000000 </v>
   <v>       0.00000000      -0.25000000      -0.50000000 </v>
   <v>       0.00000000       0.00000000      -0.50000000 </v>
   <v>       0.00000000       0.00000000      -0.25000000 </v>
   <v>      -0.25000000      -0.50000000       0.00000000 </v>
   <v>      -0.50000000      -0.25000000       0.00000000 </v>
   <v>      -0.50000000       0.00000000       0.00000000 </v>
   <v>       0.00000000      -0.50000000       0.00000000 </v>
   <v>      -0.50000000       0.00000000      -0.25000000 </v>
   <v>       0.00000000      -0.50000000      -0.25000000 </v>
   <v>      -0.18750000      -0.18750000       0.06250000 </v>
   <v>      -0.43750000       0.06250000       0.31250000 </v>
   <v>       0.06250000      -0.43750000       0.31250000 </v>
   <v>      -0.18750000      -0.18750000      -0.43750000 </v>
   <v>      -0.43750000       0.31250000       0.06250000 </v>
   <v>       0.31250000      -0.43750000       0.06250000 </v>
   <v>      -0.43750000       0.31250000       0.31250000 </v>
   <v>       0.31250000      -0.43750000       0.31250000 </v>
   <v>      -0.18750000       0.06250000      -0.43750000 </v>
   <v>       0.06250000      -0.18750000      -0.43750000 </v>
   <v>      -0.18750000       0.06250000      -0.18750000 </v>
   <v>       0.06250000      -0.18750000      -0.18750000 </v>
   <v>      -0.18750000      -0.43750000       0.06250000 </v>
   <v>      -0.43750000      -0.18750000       0.06250000 </v>
   <v>       0.31250000       0.06250000       0.31250000 </v>
   <v>       0.06250000       0.31250000       0.31250000 </v>
   <v>       0.31250000       0.06250000      -0.43750000 </v>
   <v>       0.06250000       0.31250000      -0.43750000 </v>
   <v>      -0.18750000      -0.43750000      -0.18750000 </v>
   <v>      -0.43750000      -0.18750000      -0.18750000 </v>
   <v>       0.31250000       0.31250000       0.06250000 </v>
   <v>       0.31250000       0.31250000      -0.43750000 </v>
   <v>      -0.43750000       0.06250000      -0.18750000 </v>
   <v>       0.06250000      -0.43750000      -0.18750000 </v>
   <v>      -0.25000000      -0.25000000      -0.50000000 </v>
   <v>      -0.25000000      -0.25000000       0.25000000 </v>
   <v>      -0.50000000       0.25000000       0.25000000 </v>
   <v>       0.25000000      -0.50000000       0.25000000 </v>
   <v>      -0.25000000       0.25000000      -0.50000000 </v>
   <v>       0.25000000      -0.25000000      -0.50000000 </v>
   <v>      -0.25000000       0.25000000      -0.25000000 </v>
   <v>       0.25000000      -0.25000000      -0.25000000 </v>
   <v>      -0.25000000      -0.50000000       0.25000000 </v>
   <v>      -0.50000000      -0.25000000       0.25000000 </v>
   <v>      -0.25000000      -0.50000000      -0.25000000 </v>
   <v>      -0.50000000      -0.25000000      -0.25000000 </v>
   <v>       0.25000000       0.25000000       0.25000000 </v>
   <v>       0.25000000       0.25000000      -0.50000000 </v>
   <v>      -0.50000000       0.25000000      -0.25000000 </v>
   <v>       0.25000000      -0.50000000      -0.25000000 </v>
   <v>      -0.43750000       0.06250000       0.06250000 </v>
   <v>       0.06250000      -0.43750000       0.06250000 </v>
   <v>      -0.43750000       0.06250000      -0.43750000 </v>
   <v>       0.06250000      -0.43750000      -0.43750000 </v>
   <v>      -0.43750000      -0.43750000       0.06250000 </v>
   <v>       0.06250000       0.06250000      -0.43750000 </v>
   <v>      -0.50000000       0.00000000       0.25000000 </v>
   <v>       0.00000000      -0.50000000       0.25000000 </v>
   <v>      -0.50000000       0.00000000      -0.50000000 </v>
   <v>       0.00000000      -0.50000000      -0.50000000 </v>
   <v>      -0.50000000       0.25000000       0.00000000 </v>
   <v>       0.25000000      -0.50000000       0.00000000 </v>
   <v>      -0.50000000       0.25000000      -0.50000000 </v>
   <v>       0.25000000      -0.50000000      -0.50000000 </v>
   <v>      -0.50000000      -0.50000000       0.00000000 </v>
   <v>      -0.50000000      -0.50000000       0.25000000 </v>
   <v>       0.25000000       0.00000000      -0.50000000 </v>
   <v>       0.00000000       0.25000000      -0.50000000 </v>
   <v>      -0.18750000      -0.43750000       0.31250000 </v>
   <v>      -0.43750000      -0.18750000       0.31250000 </v>
   <v>      -0.18750000      -0.43750000      -0.43750000 </v>
   <v>      -0.43750000      -0.18750000      -0.43750000 </v>
   <v>      -0.43750000       0.31250000      -0.43750000 </v>
   <v>       0.31250000      -0.43750000      -0.43750000 </v>
   <v>      -0.43750000       0.31250000      -0.18750000 </v>
   <v>       0.31250000      -0.43750000      -0.18750000 </v>
   <v>      -0.43750000      -0.43750000       0.31250000 </v>
   <v>      -0.18750000       0.31250000      -0.43750000 </v>
   <v>       0.31250000      -0.18750000      -0.43750000 </v>
   <v>      -0.43750000      -0.43750000      -0.18750000 </v>
   <v>      -0.25000000      -0.25000000       0.00000000 </v>
   <v>      -0.25000000      -0.25000000      -0.25000000 </v>
   <v>      -0.25000000       0.00000000      -0.25000000 </v>
   <v>       0.00000000      -0.25000000      -0.25000000 </v>
   <v>      -0.18750000      -0.18750000      -0.18750000 </v>
   <v>       0.31250000       0.31250000       0.31250000 </v>
   <v>      -0.25000000      -0.50000000      -0.50000000 </v>
   <v>      -0.50000000      -0.25000000      -0.50000000 </v>
   <v>      -0.50000000      -0.50000000      -0.50000000 </v>
   <v>      -0.50000000      -0.50000000      -0.25000000 </v>
   <v>      -0.43750000      -0.43750000      -0.43750000 </v>
  </varray>
 </structure>
 <varray name="primitive_index" >
  <v type="int" >        1 </v>
  <v type="int" >       65 </v>
  <v type="int" >       81 </v>
  <v type="int" >       66 </v>
  <v type="int" >       69 </v>
  <v type="int" >        4 </v>
  <v type="int" >       13 </v>
  <v type="int" >       20 </v>
  <v type="int" >       29 </v>
  <v type="int" >        8 </v>
  <v type="int" >       14 </v>
  <v type="int" >       17 </v>
  <v type="int" >       49 </v>
  <v type="int" >        2 </v>
  <v type="int" >        5 </v>
  <v type="int" >       50 </v>
  <v type="int" >       53 </v>
  <v type="int" >       84 </v>
  <v type="int" >       93 </v>
  <v type="int" >       72 </v>
  <v type="int" >       78 </v>
  <v type="int" >       88 </v>
  <v type="int" >       94 </v>
  <v type="int" >       82 </v>
  <v type="int" >       85 </v>
  <v type="int" >      114 </v>
  <v type="int" >      117 </v>
  <v type="int" >       70 </v>
  <v type="int" >      118 </v>
  <v type="int" >       32 </v>
  <v type="int" >       24 </v>
  <v type="int" >       30 </v>
  <v type="int" >       56 </v>
  <v type="int" >       62 </v>
  <v type="int" >       54 </v>
  <v type="int" >       68 </v>
  <v type="int" >       77 </v>
  <v type="int" >      100 </v>
  <v type="int" >      109 </v>
  <v type="int" >       97 </v>
  <v type="int" >      113 </v>
  <v type="int" >       76 </v>
  <v type="int" >       79 </v>
  <v type="int" >       67 </v>
  <v type="int" >       73 </v>
  <v type="int" >      115 </v>
  <v type="int" >      121 </v>
  <v type="int" >       16 </v>
  <v type="int" >       19 </v>
  <v type="int" >       25 </v>
  <v type="int" >       48 </v>
  <v type="int" >        7 </v>
  <v type="int" >       10 </v>
  <v type="int" >       23 </v>
  <v type="int" >       26 </v>
  <v type="int" >       36 </v>
  <v type="int" >       45 </v>
  <v type="int" >       52 </v>
  <v type="int" >       61 </v>
  <v type="int" >       12 </v>
  <v type="int" >       15 </v>
  <v type="int" >       18 </v>
  <v type="int" >       21 </v>
  <v type="int" >       34 </v>
  <v type="int" >       37 </v>
  <v type="int" >       60 </v>
  <v type="int" >       63 </v>
  <v type="int" >        6 </v>
  <v type="int" >       38 </v>
  <v type="int" >       51 </v>
  <v type="int" >       57 </v>
  <v type="int" >      112 </v>
  <v type="int" >       96 </v>
  <v type="int" >       87 </v>
  <v type="int" >       90 </v>
  <v type="int" >      104 </v>
  <v type="int" >      110 </v>
  <v type="int" >      120 </v>
  <v type="int" >      126 </v>
  <v type="int" >       92 </v>
  <v type="int" >       95 </v>
  <v type="int" >      124 </v>
  <v type="int" >      127 </v>
  <v type="int" >       86 </v>
  <v type="int" >      102 </v>
  <v type="int" >      119 </v>
  <v type="int" >      122 </v>
  <v type="int" >        3 </v>
  <v type="int" >        9 </v>
  <v type="int" >       35 </v>
  <v type="int" >       41 </v>
  <v type="int" >       11 </v>
  <v type="int" >       33 </v>
  <v type="int" >       83 </v>
  <v type="int" >       89 </v>
  <v type="int" >       99 </v>
  <v type="int" >      105 </v>
  <v type="int" >       71 </v>
  <v type="int" >       74 </v>
  <v type="int" >      103 </v>
  <v type="int" >      106 </v>
  <v type="int" >       75 </v>
  <v type="int" >       91 </v>
  <v type="int" >       98 </v>
  <v type="int" >      101 </v>
  <v type="int" >       28 </v>
  <v type="int" >       31 </v>
  <v type="int" >       44 </v>
  <v type="int" >       47 </v>
  <v type="int" >       39 </v>
  <v type="int" >       42 </v>
  <v type="int" >       55 </v>
  <v type="int" >       58 </v>
  <v type="int" >       27 </v>
  <v type="int" >       40 </v>
  <v type="int" >       46 </v>
  <v type="int" >       59 </v>
  <v type="int" >       80 </v>
  <v type="int" >      128 </v>
  <v type="int" >      116 </v>
  <v type="int" >      125 </v>
  <v type="int" >       64 </v>
  <v type="int" >       22 </v>
  <v type="int" >      108 </v>
  <v type="int" >      111 </v>
  <v type="int" >      107 </v>
  <v type="int" >      123 </v>
  <v type="int" >       43 </v>
 </varray>
 <kpoints>
  <generation param="Gamma">
   <v type="int" name="divisions">       1        1        1 </v>
   <v name="usershift">      0.00000000       0.00000000       0.00000000 </v>
   <v name="genvec1">      1.00000000       0.00000000       0.00000000 </v>
   <v name="genvec2">      0.00000000       1.00000000       0.00000000 </v>
   <v name="genvec3">      0.00000000       0.00000000       1.00000000 </v>
   <v name="shift">      0.00000000       0.00000000       0.00000000 </v>
  </generation>
  <varray name="kpointlist" >
   <v>       0.00000000       0.00000000       0.00000000 </v>
  </varray>
  <varray name="weights" >
   <v>       1.00000000 </v>
  </varray>
 </kpoints>
 <parameters>
  <separator name="general" >
   <i type="string" name="SYSTEM">unknown system</i>
   <i type="logical" name="LCOMPAT"> F  </i>
  </separator>
  <separator name="electronic" >
   <i type="string" name="PREC">accura</i>
   <i name="ENMAX">    500.00000000</i>
   <i name="ENAUG">    322.06900000</i>
   <i name="EDIFF">      0.00000001</i>
   <i type="int" name="IALGO">    38</i>
   <i type="int" name="IWAVPR">    10</i>
   <i type="int" name="NBANDS">   322</i>
   <i name="NELECT">    512.00000000</i>
   <i type="int" name="TURBO">     0</i>
   <i type="int" name="IRESTART">     0</i>
   <i type="int" name="NREBOOT">     0</i>
   <i type="int" name="NMIN">     0</i>
   <i name="EREF">      0.00000000</i>
   <separator name="electronic smearing" >
    <i type="int" name="ISMEAR">     0</i>
    <i name="SIGMA">      0.05000000</i>
    <i name="KSPACING">      0.50000000</i>
    <i type="logical" name="KGAMMA"> T  </i>
   </separator>
   <separator name="electronic projectors" >
    <i type="logical" name="LREAL"> F  </i>
    <v name="ROPT">      0.00000000</v>
    <i type="int" name="LMAXPAW">  -100</i>
    <i type="int" name="LMAXMIX">     2</i>
    <i type="logical" name="NLSPLINE"> F  </i>
   </separator>
   <separator name="electronic startup" >
    <i type="int" name="ISTART">     0</i>
    <i type="int" name="ICHARG">     2</i>
    <i type="int" name="INIWAV">     1</i>
   </separator>
   <separator name="electronic spin" >
    <i type="int" name="ISPIN">     1</i>
    <i type="logical" name="LNONCOLLINEAR"> F  </i>
    <v name="MAGMOM">      1.00000000      1.00000000      1.00000000      1.00000000      1.00000000      1.00000000      1.00000000      1.00000000      1.00000000      1.00000000      1.00000000      1.00000000      1.00000000      1.00000000      1.00000000      1.00000000      1.00000000      1.00000000      1.00000000      1.00000000
      1.00000000      1.00000000      1.00000000      1.00000000      1.00000000      1.00000000      1.00000000      1.00000000      1.00000000      1.00000000      1.00000000      1.00000000      1.00000000      1.00000000      1.00000000      1.00000000      1.00000000      1.00000000      1.00000000      1.00000000
      1.00000000      1.00000000      1.00000000      1.00000000      1.00000000      1.00000000      1.00000000      1.00000000      1.00000000      1.00000000      1.00000000      1.00000000      1.00000000      1.00000000      1.00000000      1.00000000      1.00000000      1.00000000      1.00000000      1.00000000
      1.00000000      1.00000000      1.00000000      1.00000000      1.00000000      1.00000000      1.00000000      1.00000000      1.00000000      1.00000000      1.00000000      1.00000000      1.00000000      1.00000000      1.00000000      1.00000000      1.00000000      1.00000000      1.00000000      1.00000000
      1.00000000      1.00000000      1.00000000      1.00000000      1.00000000      1.00000000      1.00000000      1.00000000      1.00000000      1.00000000      1.00000000      1.00000000      1.00000000      1.00000000      1.00000000      1.00000000      1.00000000      1.00000000      1.00000000      1.00000000
      1.00000000      1.00000000      1.00000000      1.00000000      1.00000000      1.00000000      1.00000000      1.00000000      1.00000000      1.00000000      1.00000000      1.00000000      1.00000000      1.00000000      1.00000000      1.00000000      1.00000000      1.00000000      1.00000000      1.00000000
      1.00000000      1.00000000      1.00000000      1.00000000      1.00000000      1.00000000      1.00000000      1.00000000</v>
    <i name="NUPDOWN">     -1.00000000</i>
    <i type="logical" name="LSORBIT"> F  </i>
    <v name="SAXIS">      0.00000000      0.00000000      1.00000000</v>
    <i type="logical" name="LSPIRAL"> F  </i>
    <v name="QSPIRAL">      0.00000000      0.00000000      0.00000000</v>
    <i type="logical" name="LZEROZ"> F  </i>
   </separator>
   <separator name="electronic exchange-correlation" >
    <i type="logical" name="LASPH"> F  </i>
    <i type="logical" name="LMETAGGA"> F  </i>
   </separator>
   <separator name="electronic convergence" >
    <i type="int" name="NELM">    60</i>
    <i type="int" name="NELMDL">    -5</i>
    <i type="int" name="NELMIN">     2</i>
    <i name="ENINI">    500.00000000</i>
    <separator name="electronic convergence detail" >
     <i type="logical" name="LDIAG"> T  </i>
     <i type="logical" name="LSUBROT"> F  </i>
     <i name="WEIMIN">      0.00000000</i>
     <i name="EBREAK">      0.00000000</i>
     <i name="DEPER">      0.30000000</i>
     <i type="int" name="NRMM">     4</i>
     <i name="TIME">      0.40000000</i>
    </separator>
   </separator>
   <separator name="electronic mixer" >
    <i name="AMIX">      0.40000000</i>
    <i name="BMIX">      1.00000000</i>
    <i name="AMIN">      0.10000000</i>
    <i name="AMIX_MAG">      1.60000000</i>
    <i name="BMIX_MAG">      1.00000000</i>
    <separator name="electronic mixer details" >
     <i type="int" name="IMIX">     4</i>
     <i type="logical" name="MIXFIRST"> F  </i>
     <i type="int" name="MAXMIX">   -45</i>
     <i name="WC">    100.00000000</i>
     <i type="int" name="INIMIX">     1</i>
     <i type="int" name="MIXPRE">     1</i>
     <i type="int" name="MREMOVE">     5</i>
    </separator>
   </separator>
   <separator name="electronic dipolcorrection" >
    <i type="logical" name="LDIPOL"> F  </i>
    <i type="logical" name="LMONO"> F  </i>
    <i type="int" name="IDIPOL">     0</i>
    <i name="EPSILON">      1.00000000</i>
    <v name="DIPOL">   -100.00000000   -100.00000000   -100.00000000</v>
    <i name="EFIELD">      0.00000000</i>
   </separator>
  </separator>
  <separator name="grids" >
   <i type="int" name="NGX">   120</i>
   <i type="int" name="NGY">   120</i>
   <i type="int" name="NGZ">   120</i>
   <i type="int" name="NGXF">   240</i>
   <i type="int" name="NGYF">   240</i>
   <i type="int" name="NGZF">   240</i>
   <i type="logical" name="ADDGRID"> T  </i>
  </separator>
  <separator name="ionic" >
   <i type="int" name="NSW">     0</i>
   <i type="int" name="IBRION">    -1</i>
   <i type="int" name="MDALGO">     0</i>
   <i type="int" name="ISIF">     2</i>
   <i name="PSTRESS">      0.00000000</i>
   <i name="EDIFFG">      0.00000010</i>
   <i type="int" name="NFREE">     0</i>
   <i name="POTIM">      0.50000000</i>
   <i name="SMASS">     -3.00000000</i>
   <i name="SCALEE">      1.00000000</i>
  </separator>
  <separator name="ionic md" >
   <i name="TEBEG">      0.00010000</i>
   <i name="TEEND">      0.00010000</i>
   <i type="int" name="NBLOCK">     1</i>
   <i type="int" name="KBLOCK">     1</i>
   <i type="int" name="NPACO">   256</i>
   <i name="APACO">     16.00000000</i>
  </separator>
  <separator name="symmetry" >
   <i type="int" name="ISYM">     0</i>
   <i name="SYMPREC">      0.00001000</i>
  </separator>
  <separator name="dos" >
   <i type="int" name="LORBIT">     0</i>
   <v name="RWIGS">     -1.00000000</v>
   <i type="int" name="NEDOS">   301</i>
   <i name="EMIN">     10.00000000</i>
   <i name="EMAX">    -10.00000000</i>
   <i name="EFERMI">      0.00000000</i>
  </separator>
  <separator name="writing" >
   <i type="int" name="NWRITE">     2</i>
   <i type="logical" name="LWAVE"> F  </i>
   <i type="logical" name="LDOWNSAMPLE"> F  </i>
   <i type="logical" name="LCHARG"> F  </i>
   <i type="logical" name="LPARD"> F  </i>
   <i type="logical" name="LVTOT"> F  </i>
   <i type="logical" name="LVHAR"> F  </i>
   <i type="logical" name="LELF"> F  </i>
   <i type="logical" name="LOPTICS"> F  </i>
   <v name="STM">      0.00000000      0.00000000      0.00000000      0.00000000      0.00000000      0.00000000      0.00000000</v>
  </separator>
  <separator name="performance" >
   <i type="int" name="NPAR">     2</i>
   <i type="int" name="NSIM">     4</i>
   <i type="int" name="NBLK">    -1</i>
   <i type="logical" name="LPLANE"> T  </i>
   <i type="logical" name="LSCALAPACK"> T  </i>
   <i type="logical" name="LSCAAWARE"> F  </i>
   <i type="logical" name="LSCALU"> F  </i>
   <i type="logical" name="LASYNC"> F  </i>
   <i type="logical" name="LORBITALREAL"> F  </i>
  </separator>
  <separator name="miscellaneous" >
   <i type="int" name="IDIOT">     3</i>
   <i type="int" name="ISPECIAL">     0</i>
   <i type="logical" name="LMUSIC"> F  </i>
   <v name="POMASS">     28.08500000</v>
   <v name="DARWINR">      0.00000000</v>
   <v name="DARWINV">      1.00000000</v>
   <i type="logical" name="LCORR"> T  </i>
  </separator>
  <i type="logical" name="GGA_COMPAT"> T  </i>
  <i type="logical" name="LBERRY"> F  </i>
  <i type="int" name="ICORELEVEL">     0</i>
  <i type="logical" name="LDAU"> F  </i>
  <i type="int" name="I_CONSTRAINED_M">     0</i>
  <separator name="electronic exchange-correlation" >
   <i type="string" name="GGA">--</i>
   <i type="int" name="VOSKOWN">     0</i>
   <i type="logical" name="LHFCALC"> F  </i>
   <i type="string" name="PRECFOCK"></i>
   <i type="logical" name="LSYMGRAD"> F  </i>
   <i type="logical" name="LHFONE"> F  </i>
   <i type="logical" name="LRHFCALC"> F  </i>
   <i type="logical" name="LTHOMAS"> F  </i>
   <i type="logical" name="LMODELHF"> F  </i>
   <i name="ENCUT4O">     -1.00000000</i>
   <i type="int" name="EXXOEP">     0</i>
   <i type="int" name="FOURORBIT">     0</i>
   <i name="AEXX">      0.00000000</i>
   <i name="HFALPHA">      0.00000000</i>
   <i name="MCALPHA">      0.00000000</i>
   <i name="ALDAX">      1.00000000</i>
   <i name="AGGAX">      1.00000000</i>
   <i name="ALDAC">      1.00000000</i>
   <i name="AGGAC">      1.00000000</i>
   <i type="int" name="NKREDX">     1</i>
   <i type="int" name="NKREDY">     1</i>
   <i type="int" name="NKREDZ">     1</i>
   <i type="logical" name="SHIFTRED"> F  </i>
   <i type="logical" name="ODDONLY"> F  </i>
   <i type="logical" name="EVENONLY"> F  </i>
   <i type="int" name="LMAXFOCK">     0</i>
   <i type="int" name="NMAXFOCKAE">     0</i>
   <i type="logical" name="LFOCKAEDFT"> F  </i>
   <i name="HFSCREEN">      0.00000000</i>
   <i name="HFSCREENC">      0.00000000</i>
   <i type="int" name="NBANDSGWLOW">     0</i>
  </separator>
  <separator name="vdW DFT" >
   <i type="logical" name="LUSE_VDW"> F  </i>
   <i name="Zab_VDW">     -0.84910000</i>
   <i name="PARAM1">      0.12340000</i>
   <i name="PARAM2">      1.00000000</i>
   <i name="PARAM3">      0.00000000</i>
  </separator>
  <separator name="model GW" >
   <i type="int" name="MODEL_GW">     0</i>
   <i name="MODEL_EPS0">     12.26549432</i>
   <i name="MODEL_ALPHA">      1.00000000</i>
  </separator>
  <separator name="linear response parameters" >
   <i type="logical" name="LEPSILON"> F  </i>
   <i type="logical" name="LRPA"> F  </i>
   <i type="logical" name="LNABLA"> F  </i>
   <i type="logical" name="LVEL"> F  </i>
   <i type="int" name="KINTER">     0</i>
   <i name="CSHIFT">      0.10000000</i>
   <i name="OMEGAMAX">     -1.00000000</i>
   <i name="DEG_THRESHOLD">      0.00200000</i>
   <i name="RTIME">     -0.10000000</i>
   <i name="WPLASMAI">      0.00000000</i>
   <v name="DFIELD">      0.00000000      0.00000000      0.00000000</v>
   <v name="WPLASMA">      0.00000000      0.00000000      0.00000000      0.00000000      0.00000000      0.00000000      0.00000000      0.00000000      0.00000000</v>
  </separator>
  <separator name="orbital magnetization" >
   <i type="logical" name="NUCIND"> F  </i>
   <v name="MAGPOS">      0.00000000      0.00000000      0.00000000</v>
   <i type="logical" name="LNICSALL"> T  </i>
   <i type="logical" name="ORBITALMAG"> F  </i>
   <i type="logical" name="LMAGBLOCH"> F  </i>
   <i type="logical" name="LCHIMAG"> F  </i>
   <i type="logical" name="LGAUGE"> T  </i>
   <i type="int" name="MAGATOM">     0</i>
   <v name="MAGDIPOL">      0.00000000      0.00000000      0.00000000</v>
   <v name="AVECCONST">      0.00000000      0.00000000      0.00000000</v>
  </separator>
  <separator name="response functions" >
   <i type="logical" name="LADDER"> F  </i>
   <i type="logical" name="LRPAFORCE"> F  </i>
   <i type="logical" name="LFXC"> F  </i>
   <i type="logical" name="LHARTREE"> T  </i>
   <i type="int" name="IBSE">     0</i>
   <v type="int" name="KPOINT">    -1     0     0     0</v>
   <i type="logical" name="LTCTE"> F  </i>
   <i type="logical" name="LTETE"> F  </i>
   <i type="logical" name="LTRIPLET"> F  </i>
   <i type="logical" name="LFXCEPS"> F  </i>
   <i type="logical" name="LFXHEG"> F  </i>
   <i type="int" name="NATURALO">     2</i>
   <i type="logical" name="L2ORDER"> F  </i>
   <i type="logical" name="LMP2LT"> F  </i>
   <i type="logical" name="LUSEW"> F  </i>
   <i name="ENCUTGW">     -2.00000000</i>
   <i name="ENCUTGWSOFT">     -2.00000000</i>
   <i name="ENCUTLF">     -1.00000000</i>
   <i type="int" name="LMAXMP2">    -1</i>
   <i name="SCISSOR">      0.00000000</i>
   <i type="int" name="NOMEGA">     0</i>
   <i type="int" name="NOMEGAR">     0</i>
   <i type="int" name="NBANDSGW">    -1</i>
   <i type="int" name="NBANDSO">    -1</i>
   <i type="int" name="NBANDSV">    -1</i>
   <i type="int" name="NELM">     1</i>
   <i type="int" name="NELMHF">     1</i>
   <i type="int" name="DIM">     3</i>
   <i type="int" name="ANTIRES">     0</i>
   <i name="OMEGAMAX">    -30.00000000</i>
   <i name="OMEGAMIN">    -30.00000000</i>
   <i name="OMEGATL">   -200.00000000</i>
   <i type="int" name="OMEGAGRID">   140</i>
   <i name="CSHIFT">     -0.10000000</i>
   <i type="logical" name="SELFENERGY"> F  </i>
   <i type="logical" name="LSPECTRAL"> F  </i>
   <i type="logical" name="LSPECTRALGW"> F  </i>
   <i type="logical" name="LSINGLES"> F  </i>
   <i type="logical" name="LFERMIGW"> F  </i>
   <i type="logical" name="ODDONLYGW"> F  </i>
   <i type="logical" name="EVENONLYGW"> F  </i>
   <i type="int" name="NKREDLFX">     1</i>
   <i type="int" name="NKREDLFY">     1</i>
   <i type="int" name="NKREDLFZ">     1</i>
   <i type="int" name="MAXMEM">  2800</i>
   <i type="int" name="TELESCOPE">     0</i>
   <i type="int" name="TAUPAR">     1</i>
   <i type="int" name="OMEGAPAR">    -1</i>
   <i name="LAMBDA">      1.00000000</i>
  </separator>
  <separator name="External order field" >
   <i name="OFIELD_KAPPA">      0.00000000</i>
   <v name="OFIELD_K">      0.00000000      0.00000000      0.00000000</v>
   <i name="OFIELD_Q6_NEAR">      0.00000000</i>
   <i name="OFIELD_Q6_FAR">      0.00000000</i>
   <i name="OFIELD_A">      0.00000000</i>
  </separator>
 </parameters>
 <atominfo>
  <atoms>     128 </atoms>
  <types>       1 </types>
  <array name="atoms" >
   <dimension dim="1">ion</dimension>
   <field type="string">element</field>
   <field type="int">atomtype</field>
   <set>
    <rc><c>Si</c><c>   1</c></rc>
    <rc><c>Si</c><c>   1</c></rc>
    <rc><c>Si</c><c>   1</c></rc>
    <rc><c>Si</c><c>   1</c></rc>
    <rc><c>Si</c><c>   1</c></rc>
    <rc><c>Si</c><c>   1</c></rc>
    <rc><c>Si</c><c>   1</c></rc>
    <rc><c>Si</c><c>   1</c></rc>
    <rc><c>Si</c><c>   1</c></rc>
    <rc><c>Si</c><c>   1</c></rc>
    <rc><c>Si</c><c>   1</c></rc>
    <rc><c>Si</c><c>   1</c></rc>
    <rc><c>Si</c><c>   1</c></rc>
    <rc><c>Si</c><c>   1</c></rc>
    <rc><c>Si</c><c>   1</c></rc>
    <rc><c>Si</c><c>   1</c></rc>
    <rc><c>Si</c><c>   1</c></rc>
    <rc><c>Si</c><c>   1</c></rc>
    <rc><c>Si</c><c>   1</c></rc>
    <rc><c>Si</c><c>   1</c></rc>
    <rc><c>Si</c><c>   1</c></rc>
    <rc><c>Si</c><c>   1</c></rc>
    <rc><c>Si</c><c>   1</c></rc>
    <rc><c>Si</c><c>   1</c></rc>
    <rc><c>Si</c><c>   1</c></rc>
    <rc><c>Si</c><c>   1</c></rc>
    <rc><c>Si</c><c>   1</c></rc>
    <rc><c>Si</c><c>   1</c></rc>
    <rc><c>Si</c><c>   1</c></rc>
    <rc><c>Si</c><c>   1</c></rc>
    <rc><c>Si</c><c>   1</c></rc>
    <rc><c>Si</c><c>   1</c></rc>
    <rc><c>Si</c><c>   1</c></rc>
    <rc><c>Si</c><c>   1</c></rc>
    <rc><c>Si</c><c>   1</c></rc>
    <rc><c>Si</c><c>   1</c></rc>
    <rc><c>Si</c><c>   1</c></rc>
    <rc><c>Si</c><c>   1</c></rc>
    <rc><c>Si</c><c>   1</c></rc>
    <rc><c>Si</c><c>   1</c></rc>
    <rc><c>Si</c><c>   1</c></rc>
    <rc><c>Si</c><c>   1</c></rc>
    <rc><c>Si</c><c>   1</c></rc>
    <rc><c>Si</c><c>   1</c></rc>
    <rc><c>Si</c><c>   1</c></rc>
    <rc><c>Si</c><c>   1</c></rc>
    <rc><c>Si</c><c>   1</c></rc>
    <rc><c>Si</c><c>   1</c></rc>
    <rc><c>Si</c><c>   1</c></rc>
    <rc><c>Si</c><c>   1</c></rc>
    <rc><c>Si</c><c>   1</c></rc>
    <rc><c>Si</c><c>   1</c></rc>
    <rc><c>Si</c><c>   1</c></rc>
    <rc><c>Si</c><c>   1</c></rc>
    <rc><c>Si</c><c>   1</c></rc>
    <rc><c>Si</c><c>   1</c></rc>
    <rc><c>Si</c><c>   1</c></rc>
    <rc><c>Si</c><c>   1</c></rc>
    <rc><c>Si</c><c>   1</c></rc>
    <rc><c>Si</c><c>   1</c></rc>
    <rc><c>Si</c><c>   1</c></rc>
    <rc><c>Si</c><c>   1</c></rc>
    <rc><c>Si</c><c>   1</c></rc>
    <rc><c>Si</c><c>   1</c></rc>
    <rc><c>Si</c><c>   1</c></rc>
    <rc><c>Si</c><c>   1</c></rc>
    <rc><c>Si</c><c>   1</c></rc>
    <rc><c>Si</c><c>   1</c></rc>
    <rc><c>Si</c><c>   1</c></rc>
    <rc><c>Si</c><c>   1</c></rc>
    <rc><c>Si</c><c>   1</c></rc>
    <rc><c>Si</c><c>   1</c></rc>
    <rc><c>Si</c><c>   1</c></rc>
    <rc><c>Si</c><c>   1</c></rc>
    <rc><c>Si</c><c>   1</c></rc>
    <rc><c>Si</c><c>   1</c></rc>
    <rc><c>Si</c><c>   1</c></rc>
    <rc><c>Si</c><c>   1</c></rc>
    <rc><c>Si</c><c>   1</c></rc>
    <rc><c>Si</c><c>   1</c></rc>
    <rc><c>Si</c><c>   1</c></rc>
    <rc><c>Si</c><c>   1</c></rc>
    <rc><c>Si</c><c>   1</c></rc>
    <rc><c>Si</c><c>   1</c></rc>
    <rc><c>Si</c><c>   1</c></rc>
    <rc><c>Si</c><c>   1</c></rc>
    <rc><c>Si</c><c>   1</c></rc>
    <rc><c>Si</c><c>   1</c></rc>
    <rc><c>Si</c><c>   1</c></rc>
    <rc><c>Si</c><c>   1</c></rc>
    <rc><c>Si</c><c>   1</c></rc>
    <rc><c>Si</c><c>   1</c></rc>
    <rc><c>Si</c><c>   1</c></rc>
    <rc><c>Si</c><c>   1</c></rc>
    <rc><c>Si</c><c>   1</c></rc>
    <rc><c>Si</c><c>   1</c></rc>
    <rc><c>Si</c><c>   1</c></rc>
    <rc><c>Si</c><c>   1</c></rc>
    <rc><c>Si</c><c>   1</c></rc>
    <rc><c>Si</c><c>   1</c></rc>
    <rc><c>Si</c><c>   1</c></rc>
    <rc><c>Si</c><c>   1</c></rc>
    <rc><c>Si</c><c>   1</c></rc>
    <rc><c>Si</c><c>   1</c></rc>
    <rc><c>Si</c><c>   1</c></rc>
    <rc><c>Si</c><c>   1</c></rc>
    <rc><c>Si</c><c>   1</c></rc>
    <rc><c>Si</c><c>   1</c></rc>
    <rc><c>Si</c><c>   1</c></rc>
    <rc><c>Si</c><c>   1</c></rc>
    <rc><c>Si</c><c>   1</c></rc>
    <rc><c>Si</c><c>   1</c></rc>
    <rc><c>Si</c><c>   1</c></rc>
    <rc><c>Si</c><c>   1</c></rc>
    <rc><c>Si</c><c>   1</c></rc>
    <rc><c>Si</c><c>   1</c></rc>
    <rc><c>Si</c><c>   1</c></rc>
    <rc><c>Si</c><c>   1</c></rc>
    <rc><c>Si</c><c>   1</c></rc>
    <rc><c>Si</c><c>   1</c></rc>
    <rc><c>Si</c><c>   1</c></rc>
    <rc><c>Si</c><c>   1</c></rc>
    <rc><c>Si</c><c>   1</c></rc>
    <rc><c>Si</c><c>   1</c></rc>
    <rc><c>Si</c><c>   1</c></rc>
    <rc><c>Si</c><c>   1</c></rc>
    <rc><c>Si</c><c>   1</c></rc>
    <rc><c>Si</c><c>   1</c></rc>
   </set>
  </array>
  <array name="atomtypes" >
   <dimension dim="1">type</dimension>
   <field type="int">atomspertype</field>
   <field type="string">element</field>
   <field>mass</field>
   <field>valence</field>
   <field type="string">pseudopotential</field>
   <set>
    <rc><c> 128</c><c>Si</c><c>     28.08500000</c><c>      4.00000000</c><c> PAW_PBE Si 05Jan2001                   </c></rc>
   </set>
  </array>
 </atominfo>
 <structure name="initialpos" >
  <crystal>
   <varray name="basis" >
    <v>       0.00000000      10.93716070      10.93716070 </v>
    <v>      10.93716070       0.00000000      10.93716070 </v>
    <v>      10.93716070      10.93716070       0.00000000 </v>
   </varray>
   <i name="volume">   2616.63878844 </i>
   <varray name="rec_basis" >
    <v>      -0.04571570       0.04571570       0.04571570 </v>
    <v>       0.04571570      -0.04571570       0.04571570 </v>
    <v>       0.04571570       0.04571570      -0.04571570 </v>
   </varray>
  </crystal>
  <varray name="positions" >
   <v>       0.06204284       0.06204284       0.06295716 </v>
   <v>       0.31250000       0.06250000       0.06250000 </v>
   <v>       0.56250000       0.06250000       0.06250000 </v>
   <v>       0.81250000       0.06250000       0.06250000 </v>
   <v>       0.06250000       0.31250000       0.06250000 </v>
   <v>       0.31250000       0.31250000       0.06250000 </v>
   <v>       0.56250000       0.31250000       0.06250000 </v>
   <v>       0.81250000       0.31250000       0.06250000 </v>
   <v>       0.06250000       0.56250000       0.06250000 </v>
   <v>       0.31250000       0.56250000       0.06250000 </v>
   <v>       0.56250000       0.56250000       0.06250000 </v>
   <v>       0.81250000       0.56250000       0.06250000 </v>
   <v>       0.06250000       0.81250000       0.06250000 </v>
   <v>       0.31250000       0.81250000       0.06250000 </v>
   <v>       0.56250000       0.81250000       0.06250000 </v>
   <v>       0.81250000       0.81250000       0.06250000 </v>
   <v>       0.06250000       0.06250000       0.31250000 </v>
   <v>       0.31250000       0.06250000       0.31250000 </v>
   <v>       0.56250000       0.06250000       0.31250000 </v>
   <v>       0.81250000       0.06250000       0.31250000 </v>
   <v>       0.06250000       0.31250000       0.31250000 </v>
   <v>       0.31250000       0.31250000       0.31250000 </v>
   <v>       0.56250000       0.31250000       0.31250000 </v>
   <v>       0.81250000       0.31250000       0.31250000 </v>
   <v>       0.06250000       0.56250000       0.31250000 </v>
   <v>       0.31250000       0.56250000       0.31250000 </v>
   <v>       0.56250000       0.56250000       0.31250000 </v>
   <v>       0.81250000       0.56250000       0.31250000 </v>
   <v>       0.06250000       0.81250000       0.31250000 </v>
   <v>       0.31250000       0.81250000       0.31250000 </v>
   <v>       0.56250000       0.81250000       0.31250000 </v>
   <v>       0.81250000       0.81250000       0.31250000 </v>
   <v>       0.06250000       0.06250000       0.56250000 </v>
   <v>       0.31250000       0.06250000       0.56250000 </v>
   <v>       0.56250000       0.06250000       0.56250000 </v>
   <v>       0.81250000       0.06250000       0.56250000 </v>
   <v>       0.06250000       0.31250000       0.56250000 </v>
   <v>       0.31250000       0.31250000       0.56250000 </v>
   <v>       0.56250000       0.31250000       0.56250000 </v>
   <v>       0.81250000       0.31250000       0.56250000 </v>
   <v>       0.06250000       0.56250000       0.56250000 </v>
   <v>       0.31250000       0.56250000       0.56250000 </v>
   <v>       0.56250000       0.56250000       0.56250000 </v>
   <v>       0.81250000       0.56250000       0.56250000 </v>
   <v>       0.06250000       0.81250000       0.56250000 </v>
   <v>       0.31250000       0.81250000       0.56250000 </v>
   <v>       0.56250000       0.81250000       0.56250000 </v>
   <v>       0.81250000       0.81250000       0.56250000 </v>
   <v>       0.06250000       0.06250000       0.81250000 </v>
   <v>       0.31250000       0.06250000       0.81250000 </v>
   <v>       0.56250000       0.06250000       0.81250000 </v>
   <v>       0.81250000       0.06250000       0.81250000 </v>
   <v>       0.06250000       0.31250000       0.81250000 </v>
   <v>       0.31250000       0.31250000       0.81250000 </v>
   <v>       0.56250000       0.31250000       0.81250000 </v>
   <v>       0.81250000       0.31250000       0.81250000 </v>
   <v>       0.06250000       0.56250000       0.81250000 </v>
   <v>       0.31250000       0.56250000       0.81250000 </v>
   <v>       0.56250000       0.56250000       0.81250000 </v>
   <v>       0.81250000       0.56250000       0.81250000 </v>
   <v>       0.06250000       0.81250000       0.81250000 </v>
   <v>       0.31250000       0.81250000       0.81250000 </v>
   <v>       0.56250000       0.81250000       0.81250000 </v>
   <v>       0.81250000       0.81250000       0.81250000 </v>
   <v>       0.99954284       0.00045716       0.00045716 </v>
   <v>       0.25000000       0.00000000       0.00000000 </v>
   <v>       0.50000000       0.00000000       0.00000000 </v>
   <v>       0.75000000       0.00000000       0.00000000 </v>
   <v>       0.00000000       0.25000000       0.00000000 </v>
   <v>       0.25000000       0.25000000       0.00000000 </v>
   <v>       0.50000000       0.25000000       0.00000000 </v>
   <v>       0.75000000       0.25000000       0.00000000 </v>
   <v>       0.00000000       0.50000000       0.00000000 </v>
   <v>       0.25000000       0.50000000       0.00000000 </v>
   <v>       0.50000000       0.50000000       0.00000000 </v>
   <v>       0.75000000       0.50000000       0.00000000 </v>
   <v>       0.00000000       0.75000000       0.00000000 </v>
   <v>       0.25000000       0.75000000       0.00000000 </v>
   <v>       0.50000000       0.75000000       0.00000000 </v>
   <v>       0.75000000       0.75000000       0.00000000 </v>
   <v>       0.00000000       0.00000000       0.25000000 </v>
   <v>       0.25000000       0.00000000       0.25000000 </v>
   <v>       0.50000000       0.00000000       0.25000000 </v>
   <v>       0.75000000       0.00000000       0.25000000 </v>
   <v>       0.00000000       0.25000000       0.25000000 </v>
   <v>       0.25000000       0.25000000       0.25000000 </v>
   <v>       0.50000000       0.25000000       0.25000000 </v>
   <v>       0.75000000       0.25000000       0.25000000 </v>
   <v>       0.00000000       0.50000000       0.25000000 </v>
   <v>       0.25000000       0.50000000       0.25000000 </v>
   <v>       0.50000000       0.50000000       0.25000000 </v>
   <v>       0.75000000       0.50000000       0.25000000 </v>
   <v>       0.00000000       0.75000000       0.25000000 </v>
   <v>       0.25000000       0.75000000       0.25000000 </v>
   <v>       0.50000000       0.75000000       0.25000000 </v>
   <v>       0.75000000       0.75000000       0.25000000 </v>
   <v>       0.00000000       0.00000000       0.50000000 </v>
   <v>       0.25000000       0.00000000       0.50000000 </v>
   <v>       0.50000000       0.00000000       0.50000000 </v>
   <v>       0.75000000       0.00000000       0.50000000 </v>
   <v>       0.00000000       0.25000000       0.50000000 </v>
   <v>       0.25000000       0.25000000       0.50000000 </v>
   <v>       0.50000000       0.25000000       0.50000000 </v>
   <v>       0.75000000       0.25000000       0.50000000 </v>
   <v>       0.00000000       0.50000000       0.50000000 </v>
   <v>       0.25000000       0.50000000       0.50000000 </v>
   <v>       0.50000000       0.50000000       0.50000000 </v>
   <v>       0.75000000       0.50000000       0.50000000 </v>
   <v>       0.00000000       0.75000000       0.50000000 </v>
   <v>       0.25000000       0.75000000       0.50000000 </v>
   <v>       0.50000000       0.75000000       0.50000000 </v>
   <v>       0.75000000       0.75000000       0.50000000 </v>
   <v>       0.00000000       0.00000000       0.75000000 </v>
   <v>       0.25000000       0.00000000       0.75000000 </v>
   <v>       0.50000000       0.00000000       0.75000000 </v>
   <v>       0.75000000       0.00000000       0.75000000 </v>
   <v>       0.00000000       0.25000000       0.75000000 </v>
   <v>       0.25000000       0.25000000       0.75000000 </v>
   <v>       0.50000000       0.25000000       0.75000000 </v>
   <v>       0.75000000       0.25000000       0.75000000 </v>
   <v>       0.00000000       0.50000000       0.75000000 </v>
   <v>       0.25000000       0.50000000       0.75000000 </v>
   <v>       0.50000000       0.50000000       0.75000000 </v>
   <v>       0.75000000       0.50000000       0.75000000 </v>
   <v>       0.00000000       0.75000000       0.75000000 </v>
   <v>       0.25000000       0.75000000       0.75000000 </v>
   <v>       0.50000000       0.75000000       0.75000000 </v>
   <v>       0.75000000       0.75000000       0.75000000 </v>
  </varray>
 </structure>
 <calculation>
  <scstep>
   <time name="dav">    4.82    4.84</time>
   <time name="total">    5.35    5.37</time>
   <energy>
    <i name="alphaZ">    210.78028765 </i>
    <i name="ewald"> -14524.86347568 </i>
    <i name="hartreedc">   -724.62138615 </i>
    <i name="XCdc">  -1195.83144796 </i>
    <i name="pawpsdc">   4221.13331941 </i>
    <i name="pawaedc">  -1969.18571412 </i>
    <i name="eentropy">     -0.01589170 </i>
    <i name="bandstr">   2165.00045825 </i>
    <i name="atom">  13192.48085998 </i>
    <i name="e_fr_energy">   1374.87700969 </i>
    <i name="e_wo_entrp">   1374.89290139 </i>
    <i name="e_0_energy">   1374.88495554 </i>
   </energy>
  </scstep>
  <scstep>
   <time name="dav">    5.45    5.47</time>
   <time name="total">    5.45    5.47</time>
   <energy>
    <i name="e_fr_energy">   -537.01744567 </i>
    <i name="e_wo_entrp">   -537.01744375 </i>
    <i name="e_0_energy">   -537.01744471 </i>
   </energy>
  </scstep>
  <scstep>
   <time name="dav">    5.51    5.53</time>
   <time name="total">    5.51    5.53</time>
   <energy>
    <i name="e_fr_energy">   -690.02363154 </i>
    <i name="e_wo_entrp">   -690.02363154 </i>
    <i name="e_0_energy">   -690.02363154 </i>
   </energy>
  </scstep>
  <scstep>
   <time name="dav">    5.47    5.49</time>
   <time name="total">    5.47    5.49</time>
   <energy>
    <i name="e_fr_energy">   -694.53311703 </i>
    <i name="e_wo_entrp">   -694.53311703 </i>
    <i name="e_0_energy">   -694.53311703 </i>
   </energy>
  </scstep>
  <scstep>
   <time name="dav">    5.43    5.44</time>
   <time name="total">    5.95    5.97</time>
   <energy>
    <i name="e_fr_energy">   -694.69939948 </i>
    <i name="e_wo_entrp">   -694.69939948 </i>
    <i name="e_0_energy">   -694.69939948 </i>
   </energy>
  </scstep>
  <scstep>
   <time name="dav">    5.10    5.12</time>
   <time name="total">    6.13    6.14</time>
   <energy>
    <i name="e_fr_energy">   -686.29957779 </i>
    <i name="e_wo_entrp">   -686.29957779 </i>
    <i name="e_0_energy">   -686.29957779 </i>
   </energy>
  </scstep>
  <scstep>
   <time name="dav">    4.93    4.94</time>
   <time name="total">    5.95    5.96</time>
   <energy>
    <i name="e_fr_energy">   -682.42676761 </i>
    <i name="e_wo_entrp">   -682.42676761 </i>
    <i name="e_0_energy">   -682.42676761 </i>
   </energy>
  </scstep>
  <scstep>
   <time name="dav">    5.07    5.09</time>
   <time name="total">    6.10    6.11</time>
   <energy>
    <i name="e_fr_energy">   -682.55888684 </i>
    <i name="e_wo_entrp">   -682.55888684 </i>
    <i name="e_0_energy">   -682.55888684 </i>
   </energy>
  </scstep>
  <scstep>
   <time name="dav">    5.50    5.51</time>
   <time name="total">    6.52    6.54</time>
   <energy>
    <i name="e_fr_energy">   -682.56528785 </i>
    <i name="e_wo_entrp">   -682.56528785 </i>
    <i name="e_0_energy">   -682.56528785 </i>
   </energy>
  </scstep>
  <scstep>
   <time name="dav">    4.99    5.00</time>
   <time name="total">    6.01    6.03</time>
   <energy>
    <i name="e_fr_energy">   -682.56797499 </i>
    <i name="e_wo_entrp">   -682.56797499 </i>
    <i name="e_0_energy">   -682.56797499 </i>
   </energy>
  </scstep>
  <scstep>
   <time name="dav">    5.46    5.47</time>
   <time name="total">    6.48    6.50</time>
   <energy>
    <i name="e_fr_energy">   -682.56798857 </i>
    <i name="e_wo_entrp">   -682.56798857 </i>
    <i name="e_0_energy">   -682.56798857 </i>
   </energy>
  </scstep>
  <scstep>
   <time name="dav">    5.15    5.17</time>
   <time name="total">    6.17    6.19</time>
   <energy>
    <i name="e_fr_energy">   -682.56799206 </i>
    <i name="e_wo_entrp">   -682.56799206 </i>
    <i name="e_0_energy">   -682.56799206 </i>
   </energy>
  </scstep>
  <scstep>
   <time name="dav">    5.37    5.38</time>
   <time name="total">    6.39    6.41</time>
   <energy>
    <i name="e_fr_energy">   -682.56798864 </i>
    <i name="e_wo_entrp">   -682.56798864 </i>
    <i name="e_0_energy">   -682.56798864 </i>
   </energy>
  </scstep>
  <scstep>
   <time name="dav">    5.45    5.46</time>
   <time name="total">    6.47    6.49</time>
   <energy>
    <i name="e_fr_energy">   -682.56798942 </i>
    <i name="e_wo_entrp">   -682.56798942 </i>
    <i name="e_0_energy">   -682.56798942 </i>
   </energy>
  </scstep>
  <scstep>
   <time name="dav">    4.10    4.12</time>
   <time name="total">    5.13    5.14</time>
   <energy>
    <i name="e_fr_energy">   -682.56798837 </i>
    <i name="e_wo_entrp">   -682.56798837 </i>
    <i name="e_0_energy">   -682.56798837 </i>
   </energy>
  </scstep>
  <scstep>
   <time name="dav">    3.32    3.33</time>
   <time name="total">    4.34    4.35</time>
   <energy>
    <i name="e_fr_energy">   -682.56798842 </i>
    <i name="e_wo_entrp">   -682.56798842 </i>
    <i name="e_0_energy">   -682.56798842 </i>
   </energy>
  </scstep>
  <scstep>
   <time name="dav">    3.24    3.25</time>
   <time name="total">    4.25    4.26</time>
   <energy>
    <i name="e_fr_energy">   -682.56798845 </i>
    <i name="e_wo_entrp">   -682.56798845 </i>
    <i name="e_0_energy">   -682.56798845 </i>
   </energy>
  </scstep>
  <scstep>
   <time name="dav">    3.26    3.27</time>
   <time name="total">    4.27    4.28</time>
   <energy>
    <i name="e_fr_energy">   -682.56798843 </i>
    <i name="e_wo_entrp">   -682.56798843 </i>
    <i name="e_0_energy">   -682.56798843 </i>
   </energy>
  </scstep>
  <scstep>
   <time name="dav">    3.24    3.25</time>
   <time name="total">    3.75    3.76</time>
   <energy>
    <i name="alphaZ">    210.78028765 </i>
    <i name="ewald"> -14524.86347568 </i>
    <i name="hartreedc">   -991.73430338 </i>
    <i name="XCdc">  -1153.28593737 </i>
    <i name="pawpsdc">   4723.40872045 </i>
    <i name="pawaedc">  -2485.14687438 </i>
    <i name="eentropy">     -0.00000000 </i>
    <i name="bandstr">    345.79273429 </i>
    <i name="atom">  13192.48085998 </i>
    <i name="e_fr_energy">   -682.56798843 </i>
    <i name="e_wo_entrp">   -682.56798843 </i>
    <i name="e_0_energy">   -682.56798843 </i>
   </energy>
  </scstep>
  <structure>
   <crystal>
    <varray name="basis" >
     <v>       0.00000000      10.93716070      10.93716070 </v>
     <v>      10.93716070       0.00000000      10.93716070 </v>
     <v>      10.93716070      10.93716070       0.00000000 </v>
    </varray>
    <i name="volume">   2616.63878844 </i>
    <varray name="rec_basis" >
     <v>      -0.04571570       0.04571570       0.04571570 </v>
     <v>       0.04571570      -0.04571570       0.04571570 </v>
     <v>       0.04571570       0.04571570      -0.04571570 </v>
    </varray>
   </crystal>
   <varray name="positions" >
    <v>       0.06204284       0.06204284       0.06295716 </v>
    <v>       0.31250000       0.06250000       0.06250000 </v>
    <v>       0.56250000       0.06250000       0.06250000 </v>
    <v>       0.81250000       0.06250000       0.06250000 </v>
    <v>       0.06250000       0.31250000       0.06250000 </v>
    <v>       0.31250000       0.31250000       0.06250000 </v>
    <v>       0.56250000       0.31250000       0.06250000 </v>
    <v>       0.81250000       0.31250000       0.06250000 </v>
    <v>       0.06250000       0.56250000       0.06250000 </v>
    <v>       0.31250000       0.56250000       0.06250000 </v>
    <v>       0.56250000       0.56250000       0.06250000 </v>
    <v>       0.81250000       0.56250000       0.06250000 </v>
    <v>       0.06250000       0.81250000       0.06250000 </v>
    <v>       0.31250000       0.81250000       0.06250000 </v>
    <v>       0.56250000       0.81250000       0.06250000 </v>
    <v>       0.81250000       0.81250000       0.06250000 </v>
    <v>       0.06250000       0.06250000       0.31250000 </v>
    <v>       0.31250000       0.06250000       0.31250000 </v>
    <v>       0.56250000       0.06250000       0.31250000 </v>
    <v>       0.81250000       0.06250000       0.31250000 </v>
    <v>       0.06250000       0.31250000       0.31250000 </v>
    <v>       0.31250000       0.31250000       0.31250000 </v>
    <v>       0.56250000       0.31250000       0.31250000 </v>
    <v>       0.81250000       0.31250000       0.31250000 </v>
    <v>       0.06250000       0.56250000       0.31250000 </v>
    <v>       0.31250000       0.56250000       0.31250000 </v>
    <v>       0.56250000       0.56250000       0.31250000 </v>
    <v>       0.81250000       0.56250000       0.31250000 </v>
    <v>       0.06250000       0.81250000       0.31250000 </v>
    <v>       0.31250000       0.81250000       0.31250000 </v>
    <v>       0.56250000       0.81250000       0.31250000 </v>
    <v>       0.81250000       0.81250000       0.31250000 </v>
    <v>       0.06250000       0.06250000       0.56250000 </v>
    <v>       0.31250000       0.06250000       0.56250000 </v>
    <v>       0.56250000       0.06250000       0.56250000 </v>
    <v>       0.81250000       0.06250000       0.56250000 </v>
    <v>       0.06250000       0.31250000       0.56250000 </v>
    <v>       0.31250000       0.31250000       0.56250000 </v>
    <v>       0.56250000       0.31250000       0.56250000 </v>
    <v>       0.81250000       0.31250000       0.56250000 </v>
    <v>       0.06250000       0.56250000       0.56250000 </v>
    <v>       0.31250000       0.56250000       0.56250000 </v>
    <v>       0.56250000       0.56250000       0.56250000 </v>
    <v>       0.81250000       0.56250000       0.56250000 </v>
    <v>       0.06250000       0.81250000       0.56250000 </v>
    <v>       0.31250000       0.81250000       0.56250000 </v>
    <v>       0.56250000       0.81250000       0.56250000 </v>
    <v>       0.81250000       0.81250000       0.56250000 </v>
    <v>       0.06250000       0.06250000       0.81250000 </v>
    <v>       0.31250000       0.06250000       0.81250000 </v>
    <v>       0.56250000       0.06250000       0.81250000 </v>
    <v>       0.81250000       0.06250000       0.81250000 </v>
    <v>       0.06250000       0.31250000       0.81250000 </v>
    <v>       0.31250000       0.31250000       0.81250000 </v>
    <v>       0.56250000       0.31250000       0.81250000 </v>
    <v>       0.81250000       0.31250000       0.81250000 </v>
    <v>       0.06250000       0.56250000       0.81250000 </v>
    <v>       0.31250000       0.56250000       0.81250000 </v>
    <v>       0.56250000       0.56250000       0.81250000 </v>
    <v>       0.81250000       0.56250000       0.81250000 </v>
    <v>       0.06250000       0.81250000       0.81250000 </v>
    <v>       0.31250000       0.81250000       0.81250000 </v>
    <v>       0.56250000       0.81250000       0.81250000 </v>
    <v>       0.81250000       0.81250000       0.81250000 </v>
    <v>       0.99954284       0.00045716       0.00045716 </v>
    <v>       0.25000000       0.00000000       0.00000000 </v>
    <v>       0.50000000       0.00000000       0.00000000 </v>
    <v>       0.75000000       0.00000000       0.00000000 </v>
    <v>       0.00000000       0.25000000       0.00000000 </v>
    <v>       0.25000000       0.25000000       0.00000000 </v>
    <v>       0.50000000       0.25000000       0.00000000 </v>
    <v>       0.75000000       0.25000000       0.00000000 </v>
    <v>       0.00000000       0.50000000       0.00000000 </v>
    <v>       0.25000000       0.50000000       0.00000000 </v>
    <v>       0.50000000       0.50000000       0.00000000 </v>
    <v>       0.75000000       0.50000000       0.00000000 </v>
    <v>       0.00000000       0.75000000       0.00000000 </v>
    <v>       0.25000000       0.75000000       0.00000000 </v>
    <v>       0.50000000       0.75000000       0.00000000 </v>
    <v>       0.75000000       0.75000000       0.00000000 </v>
    <v>       0.00000000       0.00000000       0.25000000 </v>
    <v>       0.25000000       0.00000000       0.25000000 </v>
    <v>       0.50000000       0.00000000       0.25000000 </v>
    <v>       0.75000000       0.00000000       0.25000000 </v>
    <v>       0.00000000       0.25000000       0.25000000 </v>
    <v>       0.25000000       0.25000000       0.25000000 </v>
    <v>       0.50000000       0.25000000       0.25000000 </v>
    <v>       0.75000000       0.25000000       0.25000000 </v>
    <v>       0.00000000       0.50000000       0.25000000 </v>
    <v>       0.25000000       0.50000000       0.25000000 </v>
    <v>       0.50000000       0.50000000       0.25000000 </v>
    <v>       0.75000000       0.50000000       0.25000000 </v>
    <v>       0.00000000       0.75000000       0.25000000 </v>
    <v>       0.25000000       0.75000000       0.25000000 </v>
    <v>       0.50000000       0.75000000       0.25000000 </v>
    <v>       0.75000000       0.75000000       0.25000000 </v>
    <v>       0.00000000       0.00000000       0.50000000 </v>
    <v>       0.25000000       0.00000000       0.50000000 </v>
    <v>       0.50000000       0.00000000       0.50000000 </v>
    <v>       0.75000000       0.00000000       0.50000000 </v>
    <v>       0.00000000       0.25000000       0.50000000 </v>
    <v>       0.25000000       0.25000000       0.50000000 </v>
    <v>       0.50000000       0.25000000       0.50000000 </v>
    <v>       0.75000000       0.25000000       0.50000000 </v>
    <v>       0.00000000       0.50000000       0.50000000 </v>
    <v>       0.25000000       0.50000000       0.50000000 </v>
    <v>       0.50000000       0.50000000       0.50000000 </v>
    <v>       0.75000000       0.50000000       0.50000000 </v>
    <v>       0.00000000       0.75000000       0.50000000 </v>
    <v>       0.25000000       0.75000000       0.50000000 </v>
    <v>       0.50000000       0.75000000       0.50000000 </v>
    <v>       0.75000000       0.75000000       0.50000000 </v>
    <v>       0.00000000       0.00000000       0.75000000 </v>
    <v>       0.25000000       0.00000000       0.75000000 </v>
    <v>       0.50000000       0.00000000       0.75000000 </v>
    <v>       0.75000000       0.00000000       0.75000000 </v>
    <v>       0.00000000       0.25000000       0.75000000 </v>
    <v>       0.25000000       0.25000000       0.75000000 </v>
    <v>       0.50000000       0.25000000       0.75000000 </v>
    <v>       0.75000000       0.25000000       0.75000000 </v>
    <v>       0.00000000       0.50000000       0.75000000 </v>
    <v>       0.25000000       0.50000000       0.75000000 </v>
    <v>       0.50000000       0.50000000       0.75000000 </v>
    <v>       0.75000000       0.50000000       0.75000000 </v>
    <v>       0.00000000       0.75000000       0.75000000 </v>
    <v>       0.25000000       0.75000000       0.75000000 </v>
    <v>       0.50000000       0.75000000       0.75000000 </v>
    <v>       0.75000000       0.75000000       0.75000000 </v>
   </varray>
  </structure>
  <varray name="forces" >
   <v>       0.03343470       0.02132790       0.15140854 </v>
   <v>       0.00300874      -0.00248413      -0.00204598 </v>
   <v>       0.00205143       0.00010528       0.00033594 </v>
   <v>       0.03189106      -0.02253799      -0.02210897 </v>
   <v>      -0.00180597       0.00048107      -0.00137628 </v>
   <v>      -0.00045880       0.00017581      -0.00043168 </v>
   <v>      -0.00006148      -0.00034714       0.00036878 </v>
   <v>       0.00087238      -0.00060654       0.00457640 </v>
   <v>      -0.00016298       0.00047525       0.00005603 </v>
   <v>       0.00005675      -0.00046527      -0.00057704 </v>
   <v>       0.00005593       0.00007956       0.00151105 </v>
   <v>      -0.00015383      -0.00011144      -0.00018421 </v>
   <v>       0.03052613      -0.02089646       0.01836353 </v>
   <v>      -0.00119433       0.00128587       0.00456770 </v>
   <v>      -0.00034848      -0.00004975      -0.00026317 </v>
   <v>      -0.00039959       0.00019404      -0.00038519 </v>
   <v>      -0.00075824      -0.00076862       0.00444287 </v>
   <v>       0.00002162      -0.00053480       0.00027972 </v>
   <v>       0.00041734       0.00026587      -0.00024526 </v>
   <v>       0.00195625       0.00062415      -0.00124499 </v>
   <v>      -0.00040113      -0.00011465      -0.00049086 </v>
   <v>      -0.00025156       0.00038626       0.00028414 </v>
   <v>       0.00008421       0.00024844      -0.00012614 </v>
   <v>      -0.00006471       0.00002172      -0.00022941 </v>
   <v>       0.00182699       0.00068106      -0.00052234 </v>
   <v>       0.00011404       0.00012735      -0.00009732 </v>
   <v>      -0.00011851       0.00001113      -0.00014998 </v>
   <v>      -0.00015701       0.00000492      -0.00007264 </v>
   <v>       0.00071099       0.00169004      -0.00192100 </v>
   <v>      -0.00015555       0.00002208      -0.00024358 </v>
   <v>      -0.00014322      -0.00000898      -0.00011629 </v>
   <v>      -0.00025173       0.00033724       0.00017703 </v>
   <v>       0.00020601       0.00019497       0.00215434 </v>
   <v>       0.00035669      -0.00074854      -0.00030137 </v>
   <v>       0.00042588      -0.00015812      -0.00006235 </v>
   <v>       0.00026264      -0.00035147       0.00005415 </v>
   <v>       0.00176188      -0.00032185       0.00036723 </v>
   <v>       0.00005234       0.00021534      -0.00006836 </v>
   <v>      -0.00010436      -0.00001145      -0.00007041 </v>
   <v>      -0.00014332       0.00000956      -0.00013383 </v>
   <v>      -0.00007535       0.00021334      -0.00029845 </v>
   <v>      -0.00009316      -0.00002245      -0.00011810 </v>
   <v>      -0.00010544       0.00002408      -0.00008868 </v>
   <v>      -0.00008975       0.00015864       0.00006284 </v>
   <v>      -0.00021606       0.00012743      -0.00026174 </v>
   <v>      -0.00007654       0.00003388      -0.00014835 </v>
   <v>       0.00005634       0.00014542      -0.00001414 </v>
   <v>       0.00005076       0.00016767      -0.00006370 </v>
   <v>       0.03351469       0.02092702      -0.01502918 </v>
   <v>       0.00177303      -0.00129594      -0.00123530 </v>
   <v>       0.00007076      -0.00030892       0.00011118 </v>
   <v>       0.00001904      -0.00054841       0.00023810 </v>
   <v>      -0.00120272       0.00168349      -0.00191589 </v>
   <v>      -0.00015582       0.00000796      -0.00014340 </v>
   <v>      -0.00016780      -0.00002365      -0.00010166 </v>
   <v>      -0.00025099       0.00034234       0.00008530 </v>
   <v>      -0.00009474      -0.00000783      -0.00012849 </v>
   <v>      -0.00006583      -0.00003361      -0.00007222 </v>
   <v>       0.00006766       0.00009281       0.00003095 </v>
   <v>       0.00017162       0.00019004      -0.00008581 </v>
   <v>      -0.00028493      -0.00007162      -0.00044708 </v>
   <v>      -0.00007774       0.00034335       0.00009082 </v>
   <v>       0.00010992       0.00025150      -0.00012312 </v>
   <v>      -0.00009862       0.00001844      -0.00008511 </v>
   <v>      -0.15140854      -0.02132788      -0.03343466 </v>
   <v>       0.01502919      -0.02092701      -0.03351471 </v>
   <v>      -0.00215433      -0.00019497      -0.00020603 </v>
   <v>      -0.00444287       0.00076862       0.00075826 </v>
   <v>      -0.01836355       0.02089649      -0.03052615 </v>
   <v>       0.00044708       0.00007161       0.00028493 </v>
   <v>       0.00026173      -0.00012741       0.00021607 </v>
   <v>       0.00192103      -0.00169005      -0.00071099 </v>
   <v>      -0.00005606      -0.00047528       0.00016298 </v>
   <v>       0.00012847       0.00000781       0.00009474 </v>
   <v>       0.00029844      -0.00021334       0.00007534 </v>
   <v>       0.00052234      -0.00068105      -0.00182699 </v>
   <v>       0.00137627      -0.00048107       0.00180595 </v>
   <v>       0.00191588      -0.00168348       0.00120273 </v>
   <v>      -0.00036726       0.00032182      -0.00176192 </v>
   <v>       0.00049085       0.00011465       0.00040112 </v>
   <v>       0.02210900       0.02253801      -0.03189104 </v>
   <v>      -0.00023810       0.00054844      -0.00001905 </v>
   <v>      -0.00005415       0.00035148      -0.00026264 </v>
   <v>       0.00124503      -0.00062416      -0.00195619 </v>
   <v>       0.00038516      -0.00019405       0.00039957 </v>
   <v>       0.00008511      -0.00001843       0.00009860 </v>
   <v>       0.00006371      -0.00016768      -0.00005074 </v>
   <v>      -0.00017701      -0.00033723       0.00025172 </v>
   <v>       0.00018419       0.00011141       0.00015379 </v>
   <v>       0.00008578      -0.00019006      -0.00017163 </v>
   <v>      -0.00006286      -0.00015861       0.00008974 </v>
   <v>       0.00007262      -0.00000491       0.00015699 </v>
   <v>      -0.00457642       0.00060654      -0.00087238 </v>
   <v>      -0.00008530      -0.00034235       0.00025100 </v>
   <v>       0.00013383      -0.00000956       0.00014330 </v>
   <v>       0.00022944      -0.00002173       0.00006471 </v>
   <v>      -0.00033593      -0.00010528      -0.00205142 </v>
   <v>      -0.00011122       0.00030890      -0.00007078 </v>
   <v>       0.00006236       0.00015810      -0.00042588 </v>
   <v>       0.00024531      -0.00026587      -0.00041735 </v>
   <v>       0.00026315       0.00004978       0.00034848 </v>
   <v>       0.00012309      -0.00025153      -0.00010993 </v>
   <v>       0.00001413      -0.00014540      -0.00005635 </v>
   <v>       0.00011629       0.00000901       0.00014325 </v>
   <v>      -0.00151108      -0.00007955      -0.00005596 </v>
   <v>      -0.00003096      -0.00009282      -0.00006766 </v>
   <v>       0.00008865      -0.00002406       0.00010545 </v>
   <v>       0.00014997      -0.00001109       0.00011850 </v>
   <v>      -0.00036876       0.00034715       0.00006145 </v>
   <v>       0.00010166       0.00002366       0.00016781 </v>
   <v>       0.00007042       0.00001144       0.00010437 </v>
   <v>       0.00012619      -0.00024842      -0.00008419 </v>
   <v>       0.00204598       0.00248412      -0.00300874 </v>
   <v>       0.00123530       0.00129592      -0.00177300 </v>
   <v>       0.00030140       0.00074853      -0.00035669 </v>
   <v>      -0.00027973       0.00053480      -0.00002162 </v>
   <v>      -0.00456769      -0.00128587       0.00119433 </v>
   <v>      -0.00009077      -0.00034334       0.00007774 </v>
   <v>       0.00014840      -0.00003391       0.00007656 </v>
   <v>       0.00024360      -0.00002207       0.00015554 </v>
   <v>       0.00057703       0.00046528      -0.00005674 </v>
   <v>       0.00007222       0.00003358       0.00006586 </v>
   <v>       0.00011811       0.00002244       0.00009317 </v>
   <v>       0.00009732      -0.00012733      -0.00011402 </v>
   <v>       0.00043169      -0.00017582       0.00045879 </v>
   <v>       0.00014343      -0.00000797       0.00015583 </v>
   <v>       0.00006838      -0.00021536      -0.00005231 </v>
   <v>      -0.00028414      -0.00038627       0.00025156 </v>
  </varray>
  <varray name="stress" >
   <v>       5.73208506       0.05391092       0.00034011 </v>
   <v>       0.05391092       5.73339783       0.05391087 </v>
   <v>       0.00034011       0.05391088       5.73208508 </v>
  </varray>
  <energy>
   <i name="e_fr_energy">   -682.56798843 </i>
   <i name="e_wo_entrp">   -682.56798843 </i>
   <i name="e_0_energy">     -0.00000000 </i>
  </energy>
  <time name="totalsc">  122.32  122.68</time>
  <eigenvalues>
   <array>
    <dimension dim="1">band</dimension>
    <dimension dim="2">kpoint</dimension>
    <dimension dim="3">spin</dimension>
    <field>eigene</field>
    <field>occ</field>
    <set>
     <set comment="spin 1">
      <set comment="kpoint 1">
       <r>   -6.1630    1.0000 </r>
       <r>   -5.3793    1.0000 </r>
       <r>   -5.3778    1.0000 </r>
       <r>   -5.3775    1.0000 </r>
       <r>   -5.3774    1.0000 </r>
       <r>   -5.3773    1.0000 </r>
       <r>   -5.3771    1.0000 </r>
       <r>   -5.3767    1.0000 </r>
       <r>   -5.3766    1.0000 </r>
       <r>   -5.1012    1.0000 </r>
       <r>   -5.0999    1.0000 </r>
       <r>   -5.0995    1.0000 </r>
       <r>   -5.0994    1.0000 </r>
       <r>   -5.0989    1.0000 </r>
       <r>   -5.0989    1.0000 </r>
       <r>   -4.1604    1.0000 </r>
       <r>   -4.1580    1.0000 </r>
       <r>   -4.1571    1.0000 </r>
       <r>   -4.1570    1.0000 </r>
       <r>   -4.1570    1.0000 </r>
       <r>   -4.1569    1.0000 </r>
       <r>   -4.1569    1.0000 </r>
       <r>   -4.1568    1.0000 </r>
       <r>   -4.1564    1.0000 </r>
       <r>   -4.1563    1.0000 </r>
       <r>   -4.1559    1.0000 </r>
       <r>   -4.1549    1.0000 </r>
       <r>   -3.8820    1.0000 </r>
       <r>   -3.8816    1.0000 </r>
       <r>   -3.8807    1.0000 </r>
       <r>   -3.8804    1.0000 </r>
       <r>   -3.5029    1.0000 </r>
       <r>   -3.4989    1.0000 </r>
       <r>   -3.4966    1.0000 </r>
       <r>   -3.4965    1.0000 </r>
       <r>   -3.4964    1.0000 </r>
       <r>   -3.4963    1.0000 </r>
       <r>   -3.4963    1.0000 </r>
       <r>   -3.4963    1.0000 </r>
       <r>   -3.4963    1.0000 </r>
       <r>   -3.4962    1.0000 </r>
       <r>   -3.4962    1.0000 </r>
       <r>   -3.4962    1.0000 </r>
       <r>   -3.4962    1.0000 </r>
       <r>   -3.4961    1.0000 </r>
       <r>   -3.4961    1.0000 </r>
       <r>   -3.4960    1.0000 </r>
       <r>   -3.4960    1.0000 </r>
       <r>   -3.4960    1.0000 </r>
       <r>   -3.4959    1.0000 </r>
       <r>   -3.4958    1.0000 </r>
       <r>   -3.4950    1.0000 </r>
       <r>   -3.4950    1.0000 </r>
       <r>   -3.4947    1.0000 </r>
       <r>   -3.4914    1.0000 </r>
       <r>   -2.0927    1.0000 </r>
       <r>   -2.0917    1.0000 </r>
       <r>   -2.0909    1.0000 </r>
       <r>   -2.0904    1.0000 </r>
       <r>   -2.0904    1.0000 </r>
       <r>   -2.0894    1.0000 </r>
       <r>   -1.9387    1.0000 </r>
       <r>   -1.9371    1.0000 </r>
       <r>   -1.9355    1.0000 </r>
       <r>   -1.9355    1.0000 </r>
       <r>   -1.9354    1.0000 </r>
       <r>   -1.9354    1.0000 </r>
       <r>   -1.9354    1.0000 </r>
       <r>   -1.9352    1.0000 </r>
       <r>   -1.9352    1.0000 </r>
       <r>   -1.9344    1.0000 </r>
       <r>   -1.9344    1.0000 </r>
       <r>   -1.9325    1.0000 </r>
       <r>   -1.2193    1.0000 </r>
       <r>   -1.2186    1.0000 </r>
       <r>   -1.2182    1.0000 </r>
       <r>   -1.2175    1.0000 </r>
       <r>   -0.6748    1.0000 </r>
       <r>   -0.6720    1.0000 </r>
       <r>   -0.6696    1.0000 </r>
       <r>   -0.6689    1.0000 </r>
       <r>   -0.6688    1.0000 </r>
       <r>   -0.6688    1.0000 </r>
       <r>   -0.6688    1.0000 </r>
       <r>   -0.6687    1.0000 </r>
       <r>   -0.6686    1.0000 </r>
       <r>   -0.6686    1.0000 </r>
       <r>   -0.6686    1.0000 </r>
       <r>   -0.6686    1.0000 </r>
       <r>   -0.6686    1.0000 </r>
       <r>   -0.6685    1.0000 </r>
       <r>   -0.6685    1.0000 </r>
       <r>   -0.6685    1.0000 </r>
       <r>   -0.6684    1.0000 </r>
       <r>   -0.6684    1.0000 </r>
       <r>   -0.6684    1.0000 </r>
       <r>   -0.6683    1.0000 </r>
       <r>   -0.6679    1.0000 </r>
       <r>   -0.6666    1.0000 </r>
       <r>   -0.6666    1.0000 </r>
       <r>   -0.6635    1.0000 </r>
       <r>    0.2139    1.0000 </r>
       <r>    0.2149    1.0000 </r>
       <r>    0.2163    1.0000 </r>
       <r>    0.2167    1.0000 </r>
       <r>    0.2167    1.0000 </r>
       <r>    0.2168    1.0000 </r>
       <r>    0.2168    1.0000 </r>
       <r>    0.2168    1.0000 </r>
       <r>    0.2169    1.0000 </r>
       <r>    0.2179    1.0000 </r>
       <r>    0.2181    1.0000 </r>
       <r>    0.2191    1.0000 </r>
       <r>    1.7662    1.0000 </r>
       <r>    1.7666    1.0000 </r>
       <r>    1.7676    1.0000 </r>
       <r>    1.7680    1.0000 </r>
       <r>    1.7681    1.0000 </r>
       <r>    1.7682    1.0000 </r>
       <r>    1.7687    1.0000 </r>
       <r>    1.7691    1.0000 </r>
       <r>    1.8842    1.0000 </r>
       <r>    1.8853    1.0000 </r>
       <r>    1.8856    1.0000 </r>
       <r>    1.8859    1.0000 </r>
       <r>    1.8860    1.0000 </r>
       <r>    1.8861    1.0000 </r>
       <r>    1.8861    1.0000 </r>
       <r>    1.8862    1.0000 </r>
       <r>    1.8862    1.0000 </r>
       <r>    1.8863    1.0000 </r>
       <r>    1.8870    1.0000 </r>
       <r>    1.8871    1.0000 </r>
       <r>    1.9775    1.0000 </r>
       <r>    1.9776    1.0000 </r>
       <r>    1.9780    1.0000 </r>
       <r>    1.9786    1.0000 </r>
       <r>    1.9788    1.0000 </r>
       <r>    1.9789    1.0000 </r>
       <r>    1.9791    1.0000 </r>
       <r>    1.9794    1.0000 </r>
       <r>    1.9794    1.0000 </r>
       <r>    1.9794    1.0000 </r>
       <r>    1.9797    1.0000 </r>
       <r>    1.9801    1.0000 </r>
       <r>    2.1395    1.0000 </r>
       <r>    2.1402    1.0000 </r>
       <r>    2.1409    1.0000 </r>
       <r>    2.1414    1.0000 </r>
       <r>    2.1421    1.0000 </r>
       <r>    2.1423    1.0000 </r>
       <r>    2.1837    1.0000 </r>
       <r>    2.1848    1.0000 </r>
       <r>    2.1849    1.0000 </r>
       <r>    2.1860    1.0000 </r>
       <r>    2.1864    1.0000 </r>
       <r>    2.1868    1.0000 </r>
       <r>    2.1869    1.0000 </r>
       <r>    2.1869    1.0000 </r>
       <r>    2.1869    1.0000 </r>
       <r>    2.1869    1.0000 </r>
       <r>    2.1869    1.0000 </r>
       <r>    2.1870    1.0000 </r>
       <r>    2.1870    1.0000 </r>
       <r>    2.1870    1.0000 </r>
       <r>    2.1870    1.0000 </r>
       <r>    2.1871    1.0000 </r>
       <r>    2.1871    1.0000 </r>
       <r>    2.1872    1.0000 </r>
       <r>    2.1873    1.0000 </r>
       <r>    2.1877    1.0000 </r>
       <r>    2.1881    1.0000 </r>
       <r>    2.1881    1.0000 </r>
       <r>    2.1892    1.0000 </r>
       <r>    2.1896    1.0000 </r>
       <r>    2.8558    1.0000 </r>
       <r>    2.8565    1.0000 </r>
       <r>    2.8566    1.0000 </r>
       <r>    2.8567    1.0000 </r>
       <r>    2.8569    1.0000 </r>
       <r>    2.8571    1.0000 </r>
       <r>    3.4884    1.0000 </r>
       <r>    3.4908    1.0000 </r>
       <r>    3.4909    1.0000 </r>
       <r>    3.4922    1.0000 </r>
       <r>    3.4922    1.0000 </r>
       <r>    3.4924    1.0000 </r>
       <r>    3.4924    1.0000 </r>
       <r>    3.4924    1.0000 </r>
       <r>    3.4925    1.0000 </r>
       <r>    3.4925    1.0000 </r>
       <r>    3.4925    1.0000 </r>
       <r>    3.4925    1.0000 </r>
       <r>    3.4926    1.0000 </r>
       <r>    3.4926    1.0000 </r>
       <r>    3.4927    1.0000 </r>
       <r>    3.4927    1.0000 </r>
       <r>    3.4928    1.0000 </r>
       <r>    3.4928    1.0000 </r>
       <r>    3.4929    1.0000 </r>
       <r>    3.4930    1.0000 </r>
       <r>    3.4934    1.0000 </r>
       <r>    3.4935    1.0000 </r>
       <r>    3.4948    1.0000 </r>
       <r>    3.4949    1.0000 </r>
       <r>    3.8016    1.0000 </r>
       <r>    3.8029    1.0000 </r>
       <r>    3.8035    1.0000 </r>
       <r>    3.8036    1.0000 </r>
       <r>    3.8038    1.0000 </r>
       <r>    3.8038    1.0000 </r>
       <r>    3.8039    1.0000 </r>
       <r>    3.8040    1.0000 </r>
       <r>    3.8040    1.0000 </r>
       <r>    3.8044    1.0000 </r>
       <r>    3.8048    1.0000 </r>
       <r>    3.8058    1.0000 </r>
       <r>    4.3501    1.0000 </r>
       <r>    4.3516    1.0000 </r>
       <r>    4.3519    1.0000 </r>
       <r>    4.3528    1.0000 </r>
       <r>    4.3528    1.0000 </r>
       <r>    4.3529    1.0000 </r>
       <r>    4.3530    1.0000 </r>
       <r>    4.3530    1.0000 </r>
       <r>    4.3531    1.0000 </r>
       <r>    4.3532    1.0000 </r>
       <r>    4.3544    1.0000 </r>
       <r>    4.3548    1.0000 </r>
       <r>    4.4758    1.0000 </r>
       <r>    4.4770    1.0000 </r>
       <r>    4.4773    1.0000 </r>
       <r>    4.4777    1.0000 </r>
       <r>    4.4779    1.0000 </r>
       <r>    4.4779    1.0000 </r>
       <r>    4.4789    1.0000 </r>
       <r>    4.4791    1.0000 </r>
       <r>    4.9074    1.0000 </r>
       <r>    4.9104    1.0000 </r>
       <r>    4.9112    1.0000 </r>
       <r>    4.9115    1.0000 </r>
       <r>    4.9116    1.0000 </r>
       <r>    4.9117    1.0000 </r>
       <r>    4.9118    1.0000 </r>
       <r>    4.9118    1.0000 </r>
       <r>    4.9118    1.0000 </r>
       <r>    4.9119    1.0000 </r>
       <r>    4.9119    1.0000 </r>
       <r>    4.9120    1.0000 </r>
       <r>    4.9121    1.0000 </r>
       <r>    4.9122    1.0000 </r>
       <r>    4.9135    1.0000 </r>
       <r>    4.9158    1.0000 </r>
       <r>    5.6594    1.0000 </r>
       <r>    5.6604    1.0000 </r>
       <r>    5.6615    1.0000 </r>
       <r>    6.3941    0.0000 </r>
       <r>    6.3943    0.0000 </r>
       <r>    6.3950    0.0000 </r>
       <r>    6.3956    0.0000 </r>
       <r>    6.3959    0.0000 </r>
       <r>    6.3959    0.0000 </r>
       <r>    6.7950    0.0000 </r>
       <r>    6.7952    0.0000 </r>
       <r>    6.7962    0.0000 </r>
       <r>    6.7968    0.0000 </r>
       <r>    6.7969    0.0000 </r>
       <r>    6.7974    0.0000 </r>
       <r>    7.1206    0.0000 </r>
       <r>    7.1208    0.0000 </r>
       <r>    7.1209    0.0000 </r>
       <r>    7.1211    0.0000 </r>
       <r>    7.1817    0.0000 </r>
       <r>    7.1823    0.0000 </r>
       <r>    7.1847    0.0000 </r>
       <r>    7.1857    0.0000 </r>
       <r>    7.1858    0.0000 </r>
       <r>    7.1858    0.0000 </r>
       <r>    7.1859    0.0000 </r>
       <r>    7.1859    0.0000 </r>
       <r>    7.1859    0.0000 </r>
       <r>    7.1860    0.0000 </r>
       <r>    7.1860    0.0000 </r>
       <r>    7.1860    0.0000 </r>
       <r>    7.1860    0.0000 </r>
       <r>    7.1861    0.0000 </r>
       <r>    7.1861    0.0000 </r>
       <r>    7.1861    0.0000 </r>
       <r>    7.1862    0.0000 </r>
       <r>    7.1862    0.0000 </r>
       <r>    7.1863    0.0000 </r>
       <r>    7.1863    0.0000 </r>
       <r>    7.1874    0.0000 </r>
       <r>    7.1878    0.0000 </r>
       <r>    7.1886    0.0000 </r>
       <r>    7.1892    0.0000 </r>
       <r>    7.6113    0.0000 </r>
       <r>    7.6116    0.0000 </r>
       <r>    7.6121    0.0000 </r>
       <r>    7.6123    0.0000 </r>
       <r>    7.6123    0.0000 </r>
       <r>    7.6126    0.0000 </r>
       <r>    7.6127    0.0000 </r>
       <r>    7.6129    0.0000 </r>
       <r>    8.0809    0.0000 </r>
       <r>    8.0810    0.0000 </r>
       <r>    8.0823    0.0000 </r>
       <r>    8.0828    0.0000 </r>
       <r>    8.0828    0.0000 </r>
       <r>    8.0830    0.0000 </r>
       <r>    8.0830    0.0000 </r>
       <r>    8.0831    0.0000 </r>
       <r>    8.0834    0.0000 </r>
       <r>    8.0841    0.0000 </r>
       <r>    8.0842    0.0000 </r>
       <r>    8.0847    0.0000 </r>
       <r>    8.1987    0.0000 </r>
       <r>    8.1993    0.0000 </r>
       <r>    8.2000    0.0000 </r>
       <r>    8.7787    0.0000 </r>
       <r>    8.7794    0.0000 </r>
       <r>    8.7872    0.0000 </r>
      </set>
     </set>
    </set>
   </array>
  </eigenvalues>
  <separator name="orbital magnetization" >
   <v name="MAGDIPOLOUT">      0.00000000      0.00000000      0.00000000</v>
  </separator>
  <dos>
   <i name="efermi">      5.92015004 </i>
   <total>
    <array>
     <dimension dim="1">gridpoints</dimension>
     <dimension dim="2">spin</dimension>
     <field>energy</field>
     <field>total</field>
     <field>integrated</field>
     <set>
      <set comment="spin 1">
       <r>    -6.9105     0.0000     0.0000 </r>
       <r>    -6.8557     0.0000     0.0000 </r>
       <r>    -6.8009     0.0000     0.0000 </r>
       <r>    -6.7461     0.0000     0.0000 </r>
       <r>    -6.6913     0.0000     0.0000 </r>
       <r>    -6.6364     0.0000     0.0000 </r>
       <r>    -6.5816     0.0000     0.0000 </r>
       <r>    -6.5268     0.0000     0.0000 </r>
       <r>    -6.4720     0.0000     0.0000 </r>
       <r>    -6.4172     0.0000     0.0000 </r>
       <r>    -6.3624     0.0000     0.0000 </r>
       <r>    -6.3075     0.0008     0.0000 </r>
       <r>    -6.2527     0.2031     0.0112 </r>
       <r>    -6.1979     5.7032     0.3238 </r>
       <r>    -6.1431    20.1270     1.4271 </r>
       <r>    -6.0883     9.8216     1.9655 </r>
       <r>    -6.0335     0.6247     1.9998 </r>
       <r>    -5.9786     0.0045     2.0000 </r>
       <r>    -5.9238     0.0000     2.0000 </r>
       <r>    -5.8690     0.0000     2.0000 </r>
       <r>    -5.8142     0.0000     2.0000 </r>
       <r>    -5.7594     0.0000     2.0000 </r>
       <r>    -5.7045     0.0000     2.0000 </r>
       <r>    -5.6497     0.0000     2.0000 </r>
       <r>    -5.5949     0.0000     2.0000 </r>
       <r>    -5.5401     0.0006     2.0000 </r>
       <r>    -5.4853     0.3354     2.0184 </r>
       <r>    -5.4305    19.2335     3.0727 </r>
       <r>    -5.3756   132.4108    10.3311 </r>
       <r>    -5.3208   123.9673    17.1267 </r>
       <r>    -5.2660    15.6947    17.9870 </r>
       <r>    -5.2112     0.4120    18.0096 </r>
       <r>    -5.1564    11.7171    18.6519 </r>
       <r>    -5.1016    92.8335    23.7408 </r>
       <r>    -5.0467    99.4425    29.1920 </r>
       <r>    -4.9919    14.4863    29.9861 </r>
       <r>    -4.9371     0.2533    30.0000 </r>
       <r>    -4.8823     0.0005    30.0000 </r>
       <r>    -4.8275     0.0000    30.0000 </r>
       <r>    -4.7727     0.0000    30.0000 </r>
       <r>    -4.7178     0.0000    30.0000 </r>
       <r>    -4.6630     0.0000    30.0000 </r>
       <r>    -4.6082     0.0000    30.0000 </r>
       <r>    -4.5534     0.0000    30.0000 </r>
       <r>    -4.4986     0.0000    30.0000 </r>
       <r>    -4.4437     0.0000    30.0000 </r>
       <r>    -4.3889     0.0000    30.0000 </r>
       <r>    -4.3341     0.0001    30.0000 </r>
       <r>    -4.2793     0.1191    30.0065 </r>
       <r>    -4.2245    12.2145    30.6761 </r>
       <r>    -4.1697   145.2028    38.6357 </r>
       <r>    -4.1148   229.0946    51.1941 </r>
       <r>    -4.0600    49.8422    53.9263 </r>
       <r>    -4.0052     1.3736    54.0016 </r>
       <r>    -3.9504     3.6408    54.2012 </r>
       <r>    -3.8956    46.2287    56.7353 </r>
       <r>    -3.8408    77.5755    60.9878 </r>
       <r>    -3.7859    17.9487    61.9717 </r>
       <r>    -3.7311     0.5148    61.9999 </r>
       <r>    -3.6763     0.0018    62.0000 </r>
       <r>    -3.6215     0.1767    62.0097 </r>
       <r>    -3.5667    20.2438    63.1194 </r>
       <r>    -3.5119   268.0967    77.8157 </r>
       <r>    -3.4570   469.6702   103.5618 </r>
       <r>    -3.4022   113.9820   109.8100 </r>
       <r>    -3.3474     3.4547   109.9994 </r>
       <r>    -3.2926     0.0115   110.0000 </r>
       <r>    -3.2378     0.0000   110.0000 </r>
       <r>    -3.1830     0.0000   110.0000 </r>
       <r>    -3.1281     0.0000   110.0000 </r>
       <r>    -3.0733     0.0000   110.0000 </r>
       <r>    -3.0185     0.0000   110.0000 </r>
       <r>    -2.9637     0.0000   110.0000 </r>
       <r>    -2.9089     0.0000   110.0000 </r>
       <r>    -2.8540     0.0000   110.0000 </r>
       <r>    -2.7992     0.0000   110.0000 </r>
       <r>    -2.7444     0.0000   110.0000 </r>
       <r>    -2.6896     0.0000   110.0000 </r>
       <r>    -2.6348     0.0000   110.0000 </r>
       <r>    -2.5800     0.0000   110.0000 </r>
       <r>    -2.5251     0.0000   110.0000 </r>
       <r>    -2.4703     0.0000   110.0000 </r>
       <r>    -2.4155     0.0000   110.0000 </r>
       <r>    -2.3607     0.0000   110.0000 </r>
       <r>    -2.3059     0.0000   110.0000 </r>
       <r>    -2.2511     0.0007   110.0000 </r>
       <r>    -2.1962     0.3181   110.0175 </r>
       <r>    -2.1414    16.4904   110.9214 </r>
       <r>    -2.0866   103.3451   116.5865 </r>
       <r>    -2.0318    89.8321   121.5109 </r>
       <r>    -1.9770    61.3166   124.8721 </r>
       <r>    -1.9222   230.3749   137.5006 </r>
       <r>    -1.8673   143.1337   145.3468 </r>
       <r>    -1.8125    11.8023   145.9938 </r>
       <r>    -1.7577     0.1127   146.0000 </r>
       <r>    -1.7029     0.0001   146.0000 </r>
       <r>    -1.6481     0.0000   146.0000 </r>
       <r>    -1.5932     0.0000   146.0000 </r>
       <r>    -1.5384     0.0000   146.0000 </r>
       <r>    -1.4836     0.0000   146.0000 </r>
       <r>    -1.4288     0.0000   146.0000 </r>
       <r>    -1.3740     0.0008   146.0000 </r>
       <r>    -1.3192     0.3190   146.0175 </r>
       <r>    -1.2643    13.8324   146.7758 </r>
       <r>    -1.2095    73.2905   150.7934 </r>
       <r>    -1.1547    53.2690   153.7134 </r>
       <r>    -1.0999     5.1689   153.9968 </r>
       <r>    -1.0451     0.0586   154.0000 </r>
       <r>    -0.9903     0.0001   154.0000 </r>
       <r>    -0.9354     0.0000   154.0000 </r>
       <r>    -0.8806     0.0000   154.0000 </r>
       <r>    -0.8258     0.0040   154.0002 </r>
       <r>    -0.7710     1.6779   154.0922 </r>
       <r>    -0.7162    76.8315   158.3039 </r>
       <r>    -0.6614   430.5472   181.9053 </r>
       <r>    -0.6065   331.7741   200.0923 </r>
       <r>    -0.5517    34.3808   201.9770 </r>
       <r>    -0.4969     0.4197   202.0000 </r>
       <r>    -0.4421     0.0005   202.0000 </r>
       <r>    -0.3873     0.0000   202.0000 </r>
       <r>    -0.3324     0.0000   202.0000 </r>
       <r>    -0.2776     0.0000   202.0000 </r>
       <r>    -0.2228     0.0000   202.0000 </r>
       <r>    -0.1680     0.0000   202.0000 </r>
       <r>    -0.1132     0.0000   202.0000 </r>
       <r>    -0.0584     0.0000   202.0000 </r>
       <r>    -0.0035     0.0000   202.0000 </r>
       <r>     0.0513     0.0006   202.0000 </r>
       <r>     0.1061     0.3855   202.0212 </r>
       <r>     0.1609    24.6942   203.3748 </r>
       <r>     0.2157   188.8391   213.7265 </r>
       <r>     0.2705   195.8135   224.4605 </r>
       <r>     0.3254    27.6168   225.9743 </r>
       <r>     0.3802     0.4673   226.0000 </r>
       <r>     0.4350     0.0008   226.0000 </r>
       <r>     0.4898     0.0000   226.0000 </r>
       <r>     0.5446     0.0000   226.0000 </r>
       <r>     0.5994     0.0000   226.0000 </r>
       <r>     0.6543     0.0000   226.0000 </r>
       <r>     0.7091     0.0000   226.0000 </r>
       <r>     0.7639     0.0000   226.0000 </r>
       <r>     0.8187     0.0000   226.0000 </r>
       <r>     0.8735     0.0000   226.0000 </r>
       <r>     0.9283     0.0000   226.0000 </r>
       <r>     0.9832     0.0000   226.0000 </r>
       <r>     1.0380     0.0000   226.0000 </r>
       <r>     1.0928     0.0000   226.0000 </r>
       <r>     1.1476     0.0000   226.0000 </r>
       <r>     1.2024     0.0000   226.0000 </r>
       <r>     1.2573     0.0000   226.0000 </r>
       <r>     1.3121     0.0000   226.0000 </r>
       <r>     1.3669     0.0000   226.0000 </r>
       <r>     1.4217     0.0000   226.0000 </r>
       <r>     1.4765     0.0000   226.0000 </r>
       <r>     1.5313     0.0000   226.0000 </r>
       <r>     1.5862     0.0000   226.0000 </r>
       <r>     1.6410     0.0488   226.0027 </r>
       <r>     1.6958     6.0325   226.3334 </r>
       <r>     1.7506    85.3580   231.0125 </r>
       <r>     1.8054   163.4173   239.9706 </r>
       <r>     1.8602   137.9999   247.5353 </r>
       <r>     1.9151   262.4095   261.9199 </r>
       <r>     1.9699   245.4938   275.3772 </r>
       <r>     2.0247   224.1351   287.6637 </r>
       <r>     2.0795    51.6464   290.4948 </r>
       <r>     2.1343   143.8758   298.3817 </r>
       <r>     2.1891   506.6572   326.1553 </r>
       <r>     2.2440   387.7816   347.4125 </r>
       <r>     2.2988    46.5155   349.9623 </r>
       <r>     2.3536     0.6863   349.9999 </r>
       <r>     2.4084     0.0011   350.0000 </r>
       <r>     2.4632     0.0000   350.0000 </r>
       <r>     2.5181     0.0000   350.0000 </r>
       <r>     2.5729     0.0000   350.0000 </r>
       <r>     2.6277     0.0000   350.0000 </r>
       <r>     2.6825     0.0001   350.0000 </r>
       <r>     2.7373     0.0811   350.0044 </r>
       <r>     2.7921     7.3886   350.4095 </r>
       <r>     2.8470    78.4346   354.7090 </r>
       <r>     2.9018   110.9519   360.7911 </r>
       <r>     2.9566    21.5395   361.9719 </r>
       <r>     3.0114     0.5118   361.9999 </r>
       <r>     3.0662     0.0013   362.0000 </r>
       <r>     3.1210     0.0000   362.0000 </r>
       <r>     3.1759     0.0000   362.0000 </r>
       <r>     3.2307     0.0000   362.0000 </r>
       <r>     3.2855     0.0000   362.0000 </r>
       <r>     3.3403     0.0074   362.0004 </r>
       <r>     3.3951     2.5789   362.1418 </r>
       <r>     3.4499    97.5988   367.4919 </r>
       <r>     3.5048   456.1836   392.4986 </r>
       <r>     3.5596   293.8759   408.6081 </r>
       <r>     3.6144    25.1415   409.9863 </r>
       <r>     3.6692     0.2803   410.0017 </r>
       <r>     3.7240     5.2343   410.2886 </r>
       <r>     3.7788    99.7922   415.7589 </r>
       <r>     3.8337   245.4194   429.2122 </r>
       <r>     3.8885    83.6863   433.7996 </r>
       <r>     3.9433     3.6374   433.9990 </r>
       <r>     3.9981     0.0176   434.0000 </r>
       <r>     4.0529     0.0000   434.0000 </r>
       <r>     4.1078     0.0000   434.0000 </r>
       <r>     4.1626     0.0000   434.0000 </r>
       <r>     4.2174     0.0282   434.0015 </r>
       <r>     4.2722     4.9380   434.2722 </r>
       <r>     4.3270    97.0402   439.5917 </r>
       <r>     4.3818   246.6247   453.1110 </r>
       <r>     4.4367   121.1675   459.7531 </r>
       <r>     4.4915   158.1453   468.4222 </r>
       <r>     4.5463    94.0923   473.5801 </r>
       <r>     4.6011     7.5894   473.9961 </r>
       <r>     4.6559     0.0707   474.0000 </r>
       <r>     4.7107     0.0001   474.0000 </r>
       <r>     4.7656     0.0105   474.0006 </r>
       <r>     4.8204     2.8509   474.1569 </r>
       <r>     4.8752    85.0528   478.8192 </r>
       <r>     4.9300   318.8025   496.2951 </r>
       <r>     4.9848   165.6485   505.3755 </r>
       <r>     5.0396    11.3035   505.9952 </r>
       <r>     5.0945     0.0884   506.0000 </r>
       <r>     5.1493     0.0001   506.0000 </r>
       <r>     5.2041     0.0000   506.0000 </r>
       <r>     5.2589     0.0000   506.0000 </r>
       <r>     5.3137     0.0000   506.0000 </r>
       <r>     5.3686     0.0000   506.0000 </r>
       <r>     5.4234     0.0000   506.0000 </r>
       <r>     5.4782     0.0000   506.0000 </r>
       <r>     5.5330     0.0172   506.0009 </r>
       <r>     5.5878     2.1746   506.1201 </r>
       <r>     5.6426    31.4543   507.8444 </r>
       <r>     5.6975    59.6525   511.1144 </r>
       <r>     5.7523    15.6409   511.9718 </r>
       <r>     5.8071     0.5132   511.9999 </r>
       <r>     5.8619     0.0018   512.0000 </r>
       <r>     5.9167     0.0000   512.0000 </r>
       <r>     5.9715     0.0000   512.0000 </r>
       <r>     6.0264     0.0000   512.0000 </r>
       <r>     6.0812     0.0000   512.0000 </r>
       <r>     6.1360     0.0000   512.0000 </r>
       <r>     6.1908     0.0000   512.0000 </r>
       <r>     6.2456     0.0026   512.0001 </r>
       <r>     6.3004     0.8097   512.0445 </r>
       <r>     6.3553    27.6092   513.5580 </r>
       <r>     6.4101   116.8991   519.9661 </r>
       <r>     6.4649    68.2818   523.7091 </r>
       <r>     6.5197     5.2599   523.9974 </r>
       <r>     6.5745     0.0466   524.0000 </r>
       <r>     6.6293     0.0003   524.0000 </r>
       <r>     6.6842     0.1670   524.0092 </r>
       <r>     6.7390    11.3674   524.6323 </r>
       <r>     6.7938    91.8722   529.6685 </r>
       <r>     6.8486   100.3220   535.1679 </r>
       <r>     6.9034    14.9130   535.9854 </r>
       <r>     6.9583     0.2669   536.0000 </r>
       <r>     7.0131     0.1687   536.0092 </r>
       <r>     7.0679     9.9977   536.5573 </r>
       <r>     7.1227    98.1486   541.9375 </r>
       <r>     7.1775   384.6278   563.0218 </r>
       <r>     7.2323   445.1731   587.4250 </r>
       <r>     7.2872    81.5961   591.8979 </r>
       <r>     7.3420     1.8586   591.9997 </r>
       <r>     7.3968     0.0046   592.0000 </r>
       <r>     7.4516     0.0008   592.0000 </r>
       <r>     7.5064     0.4033   592.0222 </r>
       <r>     7.5612    21.3847   593.1944 </r>
       <r>     7.6161   136.7355   600.6899 </r>
       <r>     7.6709   119.1692   607.2224 </r>
       <r>     7.7257    13.9906   607.9893 </r>
       <r>     7.7805     0.1942   608.0000 </r>
       <r>     7.8353     0.0003   608.0000 </r>
       <r>     7.8901     0.0000   608.0000 </r>
       <r>     7.9450     0.0210   608.0012 </r>
       <r>     7.9998     4.0805   608.2248 </r>
       <r>     8.0546    88.5249   613.0775 </r>
       <r>     8.1094   246.3993   626.5845 </r>
       <r>     8.1642   111.6358   632.7041 </r>
       <r>     8.2191    64.9993   636.2671 </r>
       <r>     8.2739    29.6937   637.8949 </r>
       <r>     8.3287     1.9039   637.9992 </r>
       <r>     8.3835     0.0139   638.0000 </r>
       <r>     8.4383     0.0000   638.0000 </r>
       <r>     8.4931     0.0000   638.0000 </r>
       <r>     8.5480     0.0000   638.0000 </r>
       <r>     8.6028     0.0000   638.0000 </r>
       <r>     8.6576     0.0261   638.0014 </r>
       <r>     8.7124     2.7736   638.1535 </r>
       <r>     8.7672    34.5863   640.0494 </r>
       <r>     8.8220    57.9926   643.2284 </r>
       <r>     8.8769    13.6653   643.9775 </r>
       <r>     8.9317     0.4092   643.9999 </r>
       <r>     8.9865     0.0014   644.0000 </r>
       <r>     9.0413     0.0000   644.0000 </r>
       <r>     9.0961     0.0000   644.0000 </r>
       <r>     9.1509     0.0000   644.0000 </r>
       <r>     9.2058     0.0000   644.0000 </r>
       <r>     9.2606     0.0000   644.0000 </r>
       <r>     9.3154     0.0000   644.0000 </r>
       <r>     9.3702     0.0000   644.0000 </r>
       <r>     9.4250     0.0000   644.0000 </r>
       <r>     9.4798     0.0000   644.0000 </r>
       <r>     9.5347     0.0000   644.0000 </r>
      </set>
     </set>
    </array>
   </total>
  </dos>
 </calculation>
 <structure name="finalpos" >
  <crystal>
   <varray name="basis" >
    <v>       0.00000000      10.93716070      10.93716070 </v>
    <v>      10.93716070       0.00000000      10.93716070 </v>
    <v>      10.93716070      10.93716070       0.00000000 </v>
   </varray>
   <i name="volume">   2616.63878844 </i>
   <varray name="rec_basis" >
    <v>      -0.04571570       0.04571570       0.04571570 </v>
    <v>       0.04571570      -0.04571570       0.04571570 </v>
    <v>       0.04571570       0.04571570      -0.04571570 </v>
   </varray>
  </crystal>
  <varray name="positions" >
   <v>       0.06204284       0.06204284       0.06295716 </v>
   <v>       0.31250000       0.06250000       0.06250000 </v>
   <v>       0.56250000       0.06250000       0.06250000 </v>
   <v>       0.81250000       0.06250000       0.06250000 </v>
   <v>       0.06250000       0.31250000       0.06250000 </v>
   <v>       0.31250000       0.31250000       0.06250000 </v>
   <v>       0.56250000       0.31250000       0.06250000 </v>
   <v>       0.81250000       0.31250000       0.06250000 </v>
   <v>       0.06250000       0.56250000       0.06250000 </v>
   <v>       0.31250000       0.56250000       0.06250000 </v>
   <v>       0.56250000       0.56250000       0.06250000 </v>
   <v>       0.81250000       0.56250000       0.06250000 </v>
   <v>       0.06250000       0.81250000       0.06250000 </v>
   <v>       0.31250000       0.81250000       0.06250000 </v>
   <v>       0.56250000       0.81250000       0.06250000 </v>
   <v>       0.81250000       0.81250000       0.06250000 </v>
   <v>       0.06250000       0.06250000       0.31250000 </v>
   <v>       0.31250000       0.06250000       0.31250000 </v>
   <v>       0.56250000       0.06250000       0.31250000 </v>
   <v>       0.81250000       0.06250000       0.31250000 </v>
   <v>       0.06250000       0.31250000       0.31250000 </v>
   <v>       0.31250000       0.31250000       0.31250000 </v>
   <v>       0.56250000       0.31250000       0.31250000 </v>
   <v>       0.81250000       0.31250000       0.31250000 </v>
   <v>       0.06250000       0.56250000       0.31250000 </v>
   <v>       0.31250000       0.56250000       0.31250000 </v>
   <v>       0.56250000       0.56250000       0.31250000 </v>
   <v>       0.81250000       0.56250000       0.31250000 </v>
   <v>       0.06250000       0.81250000       0.31250000 </v>
   <v>       0.31250000       0.81250000       0.31250000 </v>
   <v>       0.56250000       0.81250000       0.31250000 </v>
   <v>       0.81250000       0.81250000       0.31250000 </v>
   <v>       0.06250000       0.06250000       0.56250000 </v>
   <v>       0.31250000       0.06250000       0.56250000 </v>
   <v>       0.56250000       0.06250000       0.56250000 </v>
   <v>       0.81250000       0.06250000       0.56250000 </v>
   <v>       0.06250000       0.31250000       0.56250000 </v>
   <v>       0.31250000       0.31250000       0.56250000 </v>
   <v>       0.56250000       0.31250000       0.56250000 </v>
   <v>       0.81250000       0.31250000       0.56250000 </v>
   <v>       0.06250000       0.56250000       0.56250000 </v>
   <v>       0.31250000       0.56250000       0.56250000 </v>
   <v>       0.56250000       0.56250000       0.56250000 </v>
   <v>       0.81250000       0.56250000       0.56250000 </v>
   <v>       0.06250000       0.81250000       0.56250000 </v>
   <v>       0.31250000       0.81250000       0.56250000 </v>
   <v>       0.56250000       0.81250000       0.56250000 </v>
   <v>       0.81250000       0.81250000       0.56250000 </v>
   <v>       0.06250000       0.06250000       0.81250000 </v>
   <v>       0.31250000       0.06250000       0.81250000 </v>
   <v>       0.56250000       0.06250000       0.81250000 </v>
   <v>       0.81250000       0.06250000       0.81250000 </v>
   <v>       0.06250000       0.31250000       0.81250000 </v>
   <v>       0.31250000       0.31250000       0.81250000 </v>
   <v>       0.56250000       0.31250000       0.81250000 </v>
   <v>       0.81250000       0.31250000       0.81250000 </v>
   <v>       0.06250000       0.56250000       0.81250000 </v>
   <v>       0.31250000       0.56250000       0.81250000 </v>
   <v>       0.56250000       0.56250000       0.81250000 </v>
   <v>       0.81250000       0.56250000       0.81250000 </v>
   <v>       0.06250000       0.81250000       0.81250000 </v>
   <v>       0.31250000       0.81250000       0.81250000 </v>
   <v>       0.56250000       0.81250000       0.81250000 </v>
   <v>       0.81250000       0.81250000       0.81250000 </v>
   <v>       0.99954284       0.00045716       0.00045716 </v>
   <v>       0.25000000       0.00000000       0.00000000 </v>
   <v>       0.50000000       0.00000000       0.00000000 </v>
   <v>       0.75000000       0.00000000       0.00000000 </v>
   <v>       0.00000000       0.25000000       0.00000000 </v>
   <v>       0.25000000       0.25000000       0.00000000 </v>
   <v>       0.50000000       0.25000000       0.00000000 </v>
   <v>       0.75000000       0.25000000       0.00000000 </v>
   <v>       0.00000000       0.50000000       0.00000000 </v>
   <v>       0.25000000       0.50000000       0.00000000 </v>
   <v>       0.50000000       0.50000000       0.00000000 </v>
   <v>       0.75000000       0.50000000       0.00000000 </v>
   <v>       0.00000000       0.75000000       0.00000000 </v>
   <v>       0.25000000       0.75000000       0.00000000 </v>
   <v>       0.50000000       0.75000000       0.00000000 </v>
   <v>       0.75000000       0.75000000       0.00000000 </v>
   <v>       0.00000000       0.00000000       0.25000000 </v>
   <v>       0.25000000       0.00000000       0.25000000 </v>
   <v>       0.50000000       0.00000000       0.25000000 </v>
   <v>       0.75000000       0.00000000       0.25000000 </v>
   <v>       0.00000000       0.25000000       0.25000000 </v>
   <v>       0.25000000       0.25000000       0.25000000 </v>
   <v>       0.50000000       0.25000000       0.25000000 </v>
   <v>       0.75000000       0.25000000       0.25000000 </v>
   <v>       0.00000000       0.50000000       0.25000000 </v>
   <v>       0.25000000       0.50000000       0.25000000 </v>
   <v>       0.50000000       0.50000000       0.25000000 </v>
   <v>       0.75000000       0.50000000       0.25000000 </v>
   <v>       0.00000000       0.75000000       0.25000000 </v>
   <v>       0.25000000       0.75000000       0.25000000 </v>
   <v>       0.50000000       0.75000000       0.25000000 </v>
   <v>       0.75000000       0.75000000       0.25000000 </v>
   <v>       0.00000000       0.00000000       0.50000000 </v>
   <v>       0.25000000       0.00000000       0.50000000 </v>
   <v>       0.50000000       0.00000000       0.50000000 </v>
   <v>       0.75000000       0.00000000       0.50000000 </v>
   <v>       0.00000000       0.25000000       0.50000000 </v>
   <v>       0.25000000       0.25000000       0.50000000 </v>
   <v>       0.50000000       0.25000000       0.50000000 </v>
   <v>       0.75000000       0.25000000       0.50000000 </v>
   <v>       0.00000000       0.50000000       0.50000000 </v>
   <v>       0.25000000       0.50000000       0.50000000 </v>
   <v>       0.50000000       0.50000000       0.50000000 </v>
   <v>       0.75000000       0.50000000       0.50000000 </v>
   <v>       0.00000000       0.75000000       0.50000000 </v>
   <v>       0.25000000       0.75000000       0.50000000 </v>
   <v>       0.50000000       0.75000000       0.50000000 </v>
   <v>       0.75000000       0.75000000       0.50000000 </v>
   <v>       0.00000000       0.00000000       0.75000000 </v>
   <v>       0.25000000       0.00000000       0.75000000 </v>
   <v>       0.50000000       0.00000000       0.75000000 </v>
   <v>       0.75000000       0.00000000       0.75000000 </v>
   <v>       0.00000000       0.25000000       0.75000000 </v>
   <v>       0.25000000       0.25000000       0.75000000 </v>
   <v>       0.50000000       0.25000000       0.75000000 </v>
   <v>       0.75000000       0.25000000       0.75000000 </v>
   <v>       0.00000000       0.50000000       0.75000000 </v>
   <v>       0.25000000       0.50000000       0.75000000 </v>
   <v>       0.50000000       0.50000000       0.75000000 </v>
   <v>       0.75000000       0.50000000       0.75000000 </v>
   <v>       0.00000000       0.75000000       0.75000000 </v>
   <v>       0.25000000       0.75000000       0.75000000 </v>
   <v>       0.50000000       0.75000000       0.75000000 </v>
   <v>       0.75000000       0.75000000       0.75000000 </v>
  </varray>
 </structure>
</modeling>
