<?xml version="1.0" encoding="ISO-8859-1"?>
<modeling>
 <generator>
  <i name="program" type="string">vasp </i>
  <i name="version" type="string">5.4.4.18Apr17-6-g9f103f2a35  </i>
  <i name="subversion" type="string">(build Aug 16 2020 16:33:06) complex            parallel </i>
  <i name="platform" type="string">LinuxIFC </i>
  <i name="date" type="string">2026 08 15 </i>
  <i name="time" type="string">15:34:07 </i>
 </generator>
 <incar>
  <i type="string" name="PREC">accurate</i>
  <i type="logical" name="ADDGRID"> T  </i>
  <i type="int" name="IBRION">    -1</i>
  <i name="EDIFF">      0.00000001</i>
  <i type="int" name="ISYM">     0</i>
  <i name="ENCUT">    500.00000000</i>
  <i type="logical" name="LREAL"> F  </i>
  <i type="int" name="ISMEAR">     0</i>
  <i name="SIGMA">      0.05000000</i>
  <i type="logical" name="LWAVE"> F  </i>
  <i type="logical" name="LCHARG"> F  </i>
  <v type="int" name="KPOINT_BSE">    -1     0     0     0</v>
 </incar>
 <structure name="primitive_cell" >
  <crystal>
   <varray name="basis" >
    <v>       0.00000000      10.93716070      10.93716070 </v>
    <v>      10.93716070       0.00000000      10.93716070 </v>
    <v>      10.93716070      10.93716070       0.00000000 </v>
   </varray>
   <i name="volume">   2616.63878844 </i>
   <varray name="rec_basis" >
    <v>      -0.04571570       0.04571570       0.04571570 </v>
    <v>       0.04571570      -0.04571570       0.04571570 </v>
    <v>       0.04571570       0.04571570      -0.04571570 </v>
   </varray>
  </crystal>
  <varray name="positions" >
   <v>       0.06250000       0.06158569       0.06250000 </v>
   <v>       0.00000000       0.00000000       0.00000000 </v>
   <v>       0.25000000       0.00000000       0.00000000 </v>
   <v>       0.00000000       0.00000000       0.25000000 </v>
   <v>       0.00000000       0.25000000       0.00000000 </v>
   <v>       0.06250000      -0.18750000       0.06250000 </v>
   <v>      -0.18750000       0.06250000       0.06250000 </v>
   <v>       0.31250000      -0.18750000       0.06250000 </v>
   <v>       0.06250000      -0.18750000       0.31250000 </v>
   <v>       0.06250000       0.06250000      -0.18750000 </v>
   <v>      -0.18750000       0.06250000       0.31250000 </v>
   <v>       0.31250000       0.06250000      -0.18750000 </v>
   <v>       0.31250000       0.06250000       0.06250000 </v>
   <v>      -0.18750000       0.31250000       0.06250000 </v>
   <v>       0.06250000       0.06250000       0.31250000 </v>
   <v>       0.06250000       0.31250000      -0.18750000 </v>
   <v>       0.06250000       0.31250000       0.06250000 </v>
   <v>       0.25000000      -0.25000000       0.00000000 </v>
   <v>       0.00000000      -0.25000000       0.25000000 </v>
   <v>       0.25000000      -0.25000000       0.25000000 </v>
   <v>      -0.25000000       0.00000000       0.25000000 </v>
   <v>       0.25000000       0.00000000      -0.25000000 </v>
   <v>       0.00000000       0.25000000      -0.25000000 </v>
   <v>      -0.25000000       0.25000000       0.00000000 </v>
   <v>       0.25000000       0.00000000       0.25000000 </v>
   <v>       0.25000000       0.25000000      -0.25000000 </v>
   <v>      -0.25000000       0.25000000       0.25000000 </v>
   <v>       0.25000000       0.25000000       0.00000000 </v>
   <v>       0.00000000       0.25000000       0.25000000 </v>
   <v>      -0.18750000      -0.18750000       0.31250000 </v>
   <v>       0.31250000      -0.18750000      -0.18750000 </v>
   <v>       0.31250000      -0.18750000       0.31250000 </v>
   <v>      -0.18750000       0.31250000      -0.18750000 </v>
   <v>      -0.18750000       0.31250000       0.31250000 </v>
   <v>       0.31250000       0.31250000      -0.18750000 </v>
   <v>       0.00000000      -0.25000000       0.00000000 </v>
   <v>      -0.25000000       0.00000000       0.00000000 </v>
   <v>       0.00000000       0.00000000      -0.25000000 </v>
   <v>      -0.50000000      -0.25000000       0.00000000 </v>
   <v>       0.00000000      -0.25000000      -0.50000000 </v>
   <v>      -0.25000000       0.00000000      -0.50000000 </v>
   <v>      -0.50000000       0.00000000      -0.25000000 </v>
   <v>       0.00000000       0.00000000      -0.50000000 </v>
   <v>      -0.50000000       0.00000000       0.00000000 </v>
   <v>      -0.25000000      -0.50000000       0.00000000 </v>
   <v>       0.00000000      -0.50000000      -0.25000000 </v>
   <v>       0.00000000      -0.50000000       0.00000000 </v>
   <v>       0.31250000      -0.43750000       0.06250000 </v>
   <v>      -0.18750000      -0.18750000       0.06250000 </v>
   <v>       0.06250000      -0.43750000       0.31250000 </v>
   <v>       0.06250000      -0.18750000      -0.18750000 </v>
   <v>       0.31250000      -0.43750000       0.31250000 </v>
   <v>      -0.18750000       0.06250000      -0.18750000 </v>
   <v>      -0.43750000       0.06250000       0.31250000 </v>
   <v>       0.31250000       0.06250000      -0.43750000 </v>
   <v>      -0.18750000      -0.18750000      -0.43750000 </v>
   <v>      -0.43750000      -0.18750000      -0.18750000 </v>
   <v>      -0.43750000      -0.18750000       0.06250000 </v>
   <v>       0.06250000       0.31250000      -0.43750000 </v>
   <v>      -0.43750000       0.31250000       0.06250000 </v>
   <v>       0.06250000      -0.18750000      -0.43750000 </v>
   <v>      -0.43750000       0.31250000       0.31250000 </v>
   <v>      -0.18750000       0.06250000      -0.43750000 </v>
   <v>       0.31250000       0.31250000      -0.43750000 </v>
   <v>      -0.43750000       0.06250000      -0.18750000 </v>
   <v>       0.31250000       0.06250000       0.31250000 </v>
   <v>      -0.18750000      -0.43750000      -0.18750000 </v>
   <v>       0.31250000       0.31250000       0.06250000 </v>
   <v>      -0.18750000      -0.43750000       0.06250000 </v>
   <v>       0.06250000       0.31250000       0.31250000 </v>
   <v>       0.06250000      -0.43750000      -0.18750000 </v>
   <v>       0.25000000      -0.50000000       0.25000000 </v>
   <v>      -0.25000000      -0.25000000       0.25000000 </v>
   <v>       0.25000000      -0.25000000      -0.25000000 </v>
   <v>      -0.25000000      -0.25000000      -0.50000000 </v>
   <v>      -0.50000000      -0.25000000      -0.25000000 </v>
   <v>      -0.25000000       0.25000000      -0.25000000 </v>
   <v>      -0.50000000      -0.25000000       0.25000000 </v>
   <v>       0.25000000      -0.25000000      -0.50000000 </v>
   <v>      -0.50000000       0.25000000       0.25000000 </v>
   <v>       0.25000000       0.25000000      -0.50000000 </v>
   <v>      -0.25000000      -0.50000000      -0.25000000 </v>
   <v>      -0.25000000       0.25000000      -0.50000000 </v>
   <v>      -0.50000000       0.25000000      -0.25000000 </v>
   <v>       0.25000000       0.25000000       0.25000000 </v>
   <v>      -0.25000000      -0.50000000       0.25000000 </v>
   <v>       0.25000000      -0.50000000      -0.25000000 </v>
   <v>       0.06250000      -0.43750000       0.06250000 </v>
   <v>      -0.43750000       0.06250000       0.06250000 </v>
   <v>       0.06250000      -0.43750000      -0.43750000 </v>
   <v>      -0.43750000      -0.43750000       0.06250000 </v>
   <v>       0.06250000       0.06250000      -0.43750000 </v>
   <v>      -0.43750000       0.06250000      -0.43750000 </v>
   <v>       0.25000000      -0.50000000       0.00000000 </v>
   <v>       0.00000000      -0.50000000       0.25000000 </v>
   <v>      -0.50000000      -0.50000000       0.00000000 </v>
   <v>       0.00000000      -0.50000000      -0.50000000 </v>
   <v>      -0.50000000      -0.50000000       0.25000000 </v>
   <v>       0.25000000      -0.50000000      -0.50000000 </v>
   <v>      -0.50000000       0.00000000       0.25000000 </v>
   <v>       0.25000000       0.00000000      -0.50000000 </v>
   <v>      -0.50000000       0.25000000       0.00000000 </v>
   <v>      -0.50000000       0.00000000      -0.50000000 </v>
   <v>       0.00000000       0.25000000      -0.50000000 </v>
   <v>      -0.50000000       0.25000000      -0.50000000 </v>
   <v>      -0.18750000      -0.43750000       0.31250000 </v>
   <v>       0.31250000      -0.43750000      -0.18750000 </v>
   <v>      -0.43750000      -0.18750000       0.31250000 </v>
   <v>      -0.18750000      -0.43750000      -0.43750000 </v>
   <v>       0.31250000      -0.18750000      -0.43750000 </v>
   <v>      -0.43750000      -0.43750000      -0.18750000 </v>
   <v>      -0.43750000      -0.18750000      -0.43750000 </v>
   <v>      -0.43750000      -0.43750000       0.31250000 </v>
   <v>      -0.18750000       0.31250000      -0.43750000 </v>
   <v>       0.31250000      -0.43750000      -0.43750000 </v>
   <v>      -0.43750000       0.31250000      -0.18750000 </v>
   <v>      -0.43750000       0.31250000      -0.43750000 </v>
   <v>      -0.25000000      -0.25000000       0.00000000 </v>
   <v>       0.00000000      -0.25000000      -0.25000000 </v>
   <v>      -0.25000000       0.00000000      -0.25000000 </v>
   <v>      -0.25000000      -0.25000000      -0.25000000 </v>
   <v>       0.31250000       0.31250000       0.31250000 </v>
   <v>      -0.18750000      -0.18750000      -0.18750000 </v>
   <v>      -0.25000000      -0.50000000      -0.50000000 </v>
   <v>      -0.50000000      -0.50000000      -0.25000000 </v>
   <v>      -0.50000000      -0.25000000      -0.50000000 </v>
   <v>      -0.50000000      -0.50000000      -0.50000000 </v>
   <v>      -0.43750000      -0.43750000      -0.43750000 </v>
  </varray>
 </structure>
 <varray name="primitive_index" >
  <v type="int" >        1 </v>
  <v type="int" >       65 </v>
  <v type="int" >       66 </v>
  <v type="int" >       81 </v>
  <v type="int" >       69 </v>
  <v type="int" >       13 </v>
  <v type="int" >        4 </v>
  <v type="int" >       14 </v>
  <v type="int" >       29 </v>
  <v type="int" >       49 </v>
  <v type="int" >       20 </v>
  <v type="int" >       50 </v>
  <v type="int" >        2 </v>
  <v type="int" >        8 </v>
  <v type="int" >       17 </v>
  <v type="int" >       53 </v>
  <v type="int" >        5 </v>
  <v type="int" >       78 </v>
  <v type="int" >       93 </v>
  <v type="int" >       94 </v>
  <v type="int" >       84 </v>
  <v type="int" >      114 </v>
  <v type="int" >      117 </v>
  <v type="int" >       72 </v>
  <v type="int" >       82 </v>
  <v type="int" >      118 </v>
  <v type="int" >       88 </v>
  <v type="int" >       70 </v>
  <v type="int" >       85 </v>
  <v type="int" >       32 </v>
  <v type="int" >       62 </v>
  <v type="int" >       30 </v>
  <v type="int" >       56 </v>
  <v type="int" >       24 </v>
  <v type="int" >       54 </v>
  <v type="int" >       77 </v>
  <v type="int" >       68 </v>
  <v type="int" >      113 </v>
  <v type="int" >       79 </v>
  <v type="int" >      109 </v>
  <v type="int" >      100 </v>
  <v type="int" >      115 </v>
  <v type="int" >       97 </v>
  <v type="int" >       67 </v>
  <v type="int" >       76 </v>
  <v type="int" >      121 </v>
  <v type="int" >       73 </v>
  <v type="int" >       10 </v>
  <v type="int" >       16 </v>
  <v type="int" >       25 </v>
  <v type="int" >       61 </v>
  <v type="int" >       26 </v>
  <v type="int" >       52 </v>
  <v type="int" >       19 </v>
  <v type="int" >       34 </v>
  <v type="int" >       48 </v>
  <v type="int" >       63 </v>
  <v type="int" >       15 </v>
  <v type="int" >       37 </v>
  <v type="int" >        7 </v>
  <v type="int" >       45 </v>
  <v type="int" >       23 </v>
  <v type="int" >       36 </v>
  <v type="int" >       38 </v>
  <v type="int" >       51 </v>
  <v type="int" >       18 </v>
  <v type="int" >       60 </v>
  <v type="int" >        6 </v>
  <v type="int" >       12 </v>
  <v type="int" >       21 </v>
  <v type="int" >       57 </v>
  <v type="int" >       90 </v>
  <v type="int" >       96 </v>
  <v type="int" >      126 </v>
  <v type="int" >      112 </v>
  <v type="int" >      127 </v>
  <v type="int" >      120 </v>
  <v type="int" >       95 </v>
  <v type="int" >      110 </v>
  <v type="int" >       87 </v>
  <v type="int" >      102 </v>
  <v type="int" >      124 </v>
  <v type="int" >      104 </v>
  <v type="int" >      119 </v>
  <v type="int" >       86 </v>
  <v type="int" >       92 </v>
  <v type="int" >      122 </v>
  <v type="int" >        9 </v>
  <v type="int" >        3 </v>
  <v type="int" >       41 </v>
  <v type="int" >       11 </v>
  <v type="int" >       33 </v>
  <v type="int" >       35 </v>
  <v type="int" >       74 </v>
  <v type="int" >       89 </v>
  <v type="int" >       75 </v>
  <v type="int" >      105 </v>
  <v type="int" >       91 </v>
  <v type="int" >      106 </v>
  <v type="int" >       83 </v>
  <v type="int" >       98 </v>
  <v type="int" >       71 </v>
  <v type="int" >       99 </v>
  <v type="int" >      101 </v>
  <v type="int" >      103 </v>
  <v type="int" >       28 </v>
  <v type="int" >       58 </v>
  <v type="int" >       31 </v>
  <v type="int" >       44 </v>
  <v type="int" >       46 </v>
  <v type="int" >       59 </v>
  <v type="int" >       47 </v>
  <v type="int" >       27 </v>
  <v type="int" >       40 </v>
  <v type="int" >       42 </v>
  <v type="int" >       55 </v>
  <v type="int" >       39 </v>
  <v type="int" >       80 </v>
  <v type="int" >      125 </v>
  <v type="int" >      116 </v>
  <v type="int" >      128 </v>
  <v type="int" >       22 </v>
  <v type="int" >       64 </v>
  <v type="int" >      108 </v>
  <v type="int" >      123 </v>
  <v type="int" >      111 </v>
  <v type="int" >      107 </v>
  <v type="int" >       43 </v>
 </varray>
 <kpoints>
  <generation param="Gamma">
   <v type="int" name="divisions">       1        1        1 </v>
   <v name="usershift">      0.00000000       0.00000000       0.00000000 </v>
   <v name="genvec1">      1.00000000       0.00000000       0.00000000 </v>
   <v name="genvec2">      0.00000000       1.00000000       0.00000000 </v>
   <v name="genvec3">      0.00000000       0.00000000       1.00000000 </v>
   <v name="shift">      0.00000000       0.00000000       0.00000000 </v>
  </generation>
  <varray name="kpointlist" >
   <v>       0.00000000       0.00000000       0.00000000 </v>
  </varray>
  <varray name="weights" >
   <v>       1.00000000 </v>
  </varray>
 </kpoints>
 <parameters>
  <separator name="general" >
   <i type="string" name="SYSTEM">unknown system</i>
   <i type="logical" name="LCOMPAT"> F  </i>
  </separator>
  <separator name="electronic" >
   <i type="string" name="PREC">accura</i>
   <i name="ENMAX">    500.00000000</i>
   <i name="ENAUG">    322.06900000</i>
   <i name="EDIFF">      0.00000001</i>
   <i type="int" name="IALGO">    38</i>
   <i type="int" name="IWAVPR">    10</i>
   <i type="int" name="NBANDS">   322</i>
   <i name="NELECT">    512.00000000</i>
   <i type="int" name="TURBO">     0</i>
   <i type="int" name="IRESTART">     0</i>
   <i type="int" name="NREBOOT">     0</i>
   <i type="int" name="NMIN">     0</i>
   <i name="EREF">      0.00000000</i>
   <separator name="electronic smearing" >
    <i type="int" name="ISMEAR">     0</i>
    <i name="SIGMA">      0.05000000</i>
    <i name="KSPACING">      0.50000000</i>
    <i type="logical" name="KGAMMA"> T  </i>
   </separator>
   <separator name="electronic projectors" >
    <i type="logical" name="LREAL"> F  </i>
    <v name="ROPT">      0.00000000</v>
    <i type="int" name="LMAXPAW">  -100</i>
    <i type="int" name="LMAXMIX">     2</i>
    <i type="logical" name="NLSPLINE"> F  </i>
   </separator>
   <separator name="electronic startup" >
    <i type="int" name="ISTART">     0</i>
    <i type="int" name="ICHARG">     2</i>
    <i type="int" name="INIWAV">     1</i>
   </separator>
   <separator name="electronic spin" >
    <i type="int" name="ISPIN">     1</i>
    <i type="logical" name="LNONCOLLINEAR"> F  </i>
    <v name="MAGMOM">      1.00000000      1.00000000      1.00000000      1.00000000      1.00000000      1.00000000      1.00000000      1.00000000      1.00000000      1.00000000      1.00000000      1.00000000      1.00000000      1.00000000      1.00000000      1.00000000      1.00000000      1.00000000      1.00000000      1.00000000
      1.00000000      1.00000000      1.00000000      1.00000000      1.00000000      1.00000000      1.00000000      1.00000000      1.00000000      1.00000000      1.00000000      1.00000000      1.00000000      1.00000000      1.00000000      1.00000000      1.00000000      1.00000000      1.00000000      1.00000000
      1.00000000      1.00000000      1.00000000      1.00000000      1.00000000      1.00000000      1.00000000      1.00000000      1.00000000      1.00000000      1.00000000      1.00000000      1.00000000      1.00000000      1.00000000      1.00000000      1.00000000      1.00000000      1.00000000      1.00000000
      1.00000000      1.00000000      1.00000000      1.00000000      1.00000000      1.00000000      1.00000000      1.00000000      1.00000000      1.00000000      1.00000000      1.00000000      1.00000000      1.00000000      1.00000000      1.00000000      1.00000000      1.00000000      1.00000000      1.00000000
      1.00000000      1.00000000      1.00000000      1.00000000      1.00000000      1.00000000      1.00000000      1.00000000      1.00000000      1.00000000      1.00000000      1.00000000      1.00000000      1.00000000      1.00000000      1.00000000      1.00000000      1.00000000      1.00000000      1.00000000
      1.00000000      1.00000000      1.00000000      1.00000000      1.00000000      1.00000000      1.00000000      1.00000000      1.00000000      1.00000000      1.00000000      1.00000000      1.00000000      1.00000000      1.00000000      1.00000000      1.00000000      1.00000000      1.00000000      1.00000000
      1.00000000      1.00000000      1.00000000      1.00000000      1.00000000      1.00000000      1.00000000      1.00000000</v>
    <i name="NUPDOWN">     -1.00000000</i>
    <i type="logical" name="LSORBIT"> F  </i>
    <v name="SAXIS">      0.00000000      0.00000000      1.00000000</v>
    <i type="logical" name="LSPIRAL"> F  </i>
    <v name="QSPIRAL">      0.00000000      0.00000000      0.00000000</v>
    <i type="logical" name="LZEROZ"> F  </i>
   </separator>
   <separator name="electronic exchange-correlation" >
    <i type="logical" name="LASPH"> F  </i>
    <i type="logical" name="LMETAGGA"> F  </i>
   </separator>
   <separator name="electronic convergence" >
    <i type="int" name="NELM">    60</i>
    <i type="int" name="NELMDL">    -5</i>
    <i type="int" name="NELMIN">     2</i>
    <i name="ENINI">    500.00000000</i>
    <separator name="electronic convergence detail" >
     <i type="logical" name="LDIAG"> T  </i>
     <i type="logical" name="LSUBROT"> F  </i>
     <i name="WEIMIN">      0.00000000</i>
     <i name="EBREAK">      0.00000000</i>
     <i name="DEPER">      0.30000000</i>
     <i type="int" name="NRMM">     4</i>
     <i name="TIME">      0.40000000</i>
    </separator>
   </separator>
   <separator name="electronic mixer" >
    <i name="AMIX">      0.40000000</i>
    <i name="BMIX">      1.00000000</i>
    <i name="AMIN">      0.10000000</i>
    <i name="AMIX_MAG">      1.60000000</i>
    <i name="BMIX_MAG">      1.00000000</i>
    <separator name="electronic mixer details" >
     <i type="int" name="IMIX">     4</i>
     <i type="logical" name="MIXFIRST"> F  </i>
     <i type="int" name="MAXMIX">   -45</i>
     <i name="WC">    100.00000000</i>
     <i type="int" name="INIMIX">     1</i>
     <i type="int" name="MIXPRE">     1</i>
     <i type="int" name="MREMOVE">     5</i>
    </separator>
   </separator>
   <separator name="electronic dipolcorrection" >
    <i type="logical" name="LDIPOL"> F  </i>
    <i type="logical" name="LMONO"> F  </i>
    <i type="int" name="IDIPOL">     0</i>
    <i name="EPSILON">      1.00000000</i>
    <v name="DIPOL">   -100.00000000   -100.00000000   -100.00000000</v>
    <i name="EFIELD">      0.00000000</i>
   </separator>
  </separator>
  <separator name="grids" >
   <i type="int" name="NGX">   120</i>
   <i type="int" name="NGY">   120</i>
   <i type="int" name="NGZ">   120</i>
   <i type="int" name="NGXF">   240</i>
   <i type="int" name="NGYF">   240</i>
   <i type="int" name="NGZF">   240</i>
   <i type="logical" name="ADDGRID"> T  </i>
  </separator>
  <separator name="ionic" >
   <i type="int" name="NSW">     0</i>
   <i type="int" name="IBRION">    -1</i>
   <i type="int" name="MDALGO">     0</i>
   <i type="int" name="ISIF">     2</i>
   <i name="PSTRESS">      0.00000000</i>
   <i name="EDIFFG">      0.00000010</i>
   <i type="int" name="NFREE">     0</i>
   <i name="POTIM">      0.50000000</i>
   <i name="SMASS">     -3.00000000</i>
   <i name="SCALEE">      1.00000000</i>
  </separator>
  <separator name="ionic md" >
   <i name="TEBEG">      0.00010000</i>
   <i name="TEEND">      0.00010000</i>
   <i type="int" name="NBLOCK">     1</i>
   <i type="int" name="KBLOCK">     1</i>
   <i type="int" name="NPACO">   256</i>
   <i name="APACO">     16.00000000</i>
  </separator>
  <separator name="symmetry" >
   <i type="int" name="ISYM">     0</i>
   <i name="SYMPREC">      0.00001000</i>
  </separator>
  <separator name="dos" >
   <i type="int" name="LORBIT">     0</i>
   <v name="RWIGS">     -1.00000000</v>
   <i type="int" name="NEDOS">   301</i>
   <i name="EMIN">     10.00000000</i>
   <i name="EMAX">    -10.00000000</i>
   <i name="EFERMI">      0.00000000</i>
  </separator>
  <separator name="writing" >
   <i type="int" name="NWRITE">     2</i>
   <i type="logical" name="LWAVE"> F  </i>
   <i type="logical" name="LDOWNSAMPLE"> F  </i>
   <i type="logical" name="LCHARG"> F  </i>
   <i type="logical" name="LPARD"> F  </i>
   <i type="logical" name="LVTOT"> F  </i>
   <i type="logical" name="LVHAR"> F  </i>
   <i type="logical" name="LELF"> F  </i>
   <i type="logical" name="LOPTICS"> F  </i>
   <v name="STM">      0.00000000      0.00000000      0.00000000      0.00000000      0.00000000      0.00000000      0.00000000</v>
  </separator>
  <separator name="performance" >
   <i type="int" name="NPAR">     2</i>
   <i type="int" name="NSIM">     4</i>
   <i type="int" name="NBLK">    -1</i>
   <i type="logical" name="LPLANE"> T  </i>
   <i type="logical" name="LSCALAPACK"> T  </i>
   <i type="logical" name="LSCAAWARE"> F  </i>
   <i type="logical" name="LSCALU"> F  </i>
   <i type="logical" name="LASYNC"> F  </i>
   <i type="logical" name="LORBITALREAL"> F  </i>
  </separator>
  <separator name="miscellaneous" >
   <i type="int" name="IDIOT">     3</i>
   <i type="int" name="ISPECIAL">     0</i>
   <i type="logical" name="LMUSIC"> F  </i>
   <v name="POMASS">     28.08500000</v>
   <v name="DARWINR">      0.00000000</v>
   <v name="DARWINV">      1.00000000</v>
   <i type="logical" name="LCORR"> T  </i>
  </separator>
  <i type="logical" name="GGA_COMPAT"> T  </i>
  <i type="logical" name="LBERRY"> F  </i>
  <i type="int" name="ICORELEVEL">     0</i>
  <i type="logical" name="LDAU"> F  </i>
  <i type="int" name="I_CONSTRAINED_M">     0</i>
  <separator name="electronic exchange-correlation" >
   <i type="string" name="GGA">--</i>
   <i type="int" name="VOSKOWN">     0</i>
   <i type="logical" name="LHFCALC"> F  </i>
   <i type="string" name="PRECFOCK"></i>
   <i type="logical" name="LSYMGRAD"> F  </i>
   <i type="logical" name="LHFONE"> F  </i>
   <i type="logical" name="LRHFCALC"> F  </i>
   <i type="logical" name="LTHOMAS"> F  </i>
   <i type="logical" name="LMODELHF"> F  </i>
   <i name="ENCUT4O">     -1.00000000</i>
   <i type="int" name="EXXOEP">     0</i>
   <i type="int" name="FOURORBIT">     0</i>
   <i name="AEXX">      0.00000000</i>
   <i name="HFALPHA">      0.00000000</i>
   <i name="MCALPHA">      0.00000000</i>
   <i name="ALDAX">      1.00000000</i>
   <i name="AGGAX">      1.00000000</i>
   <i name="ALDAC">      1.00000000</i>
   <i name="AGGAC">      1.00000000</i>
   <i type="int" name="NKREDX">     1</i>
   <i type="int" name="NKREDY">     1</i>
   <i type="int" name="NKREDZ">     1</i>
   <i type="logical" name="SHIFTRED"> F  </i>
   <i type="logical" name="ODDONLY"> F  </i>
   <i type="logical" name="EVENONLY"> F  </i>
   <i type="int" name="LMAXFOCK">     0</i>
   <i type="int" name="NMAXFOCKAE">     0</i>
   <i type="logical" name="LFOCKAEDFT"> F  </i>
   <i name="HFSCREEN">      0.00000000</i>
   <i name="HFSCREENC">      0.00000000</i>
   <i type="int" name="NBANDSGWLOW">     0</i>
  </separator>
  <separator name="vdW DFT" >
   <i type="logical" name="LUSE_VDW"> F  </i>
   <i name="Zab_VDW">     -0.84910000</i>
   <i name="PARAM1">      0.12340000</i>
   <i name="PARAM2">      1.00000000</i>
   <i name="PARAM3">      0.00000000</i>
  </separator>
  <separator name="model GW" >
   <i type="int" name="MODEL_GW">     0</i>
   <i name="MODEL_EPS0">     12.26549432</i>
   <i name="MODEL_ALPHA">      1.00000000</i>
  </separator>
  <separator name="linear response parameters" >
   <i type="logical" name="LEPSILON"> F  </i>
   <i type="logical" name="LRPA"> F  </i>
   <i type="logical" name="LNABLA"> F  </i>
   <i type="logical" name="LVEL"> F  </i>
   <i type="int" name="KINTER">     0</i>
   <i name="CSHIFT">      0.10000000</i>
   <i name="OMEGAMAX">     -1.00000000</i>
   <i name="DEG_THRESHOLD">      0.00200000</i>
   <i name="RTIME">     -0.10000000</i>
   <i name="WPLASMAI">      0.00000000</i>
   <v name="DFIELD">      0.00000000      0.00000000      0.00000000</v>
   <v name="WPLASMA">      0.00000000      0.00000000      0.00000000      0.00000000      0.00000000      0.00000000      0.00000000      0.00000000      0.00000000</v>
  </separator>
  <separator name="orbital magnetization" >
   <i type="logical" name="NUCIND"> F  </i>
   <v name="MAGPOS">      0.00000000      0.00000000      0.00000000</v>
   <i type="logical" name="LNICSALL"> T  </i>
   <i type="logical" name="ORBITALMAG"> F  </i>
   <i type="logical" name="LMAGBLOCH"> F  </i>
   <i type="logical" name="LCHIMAG"> F  </i>
   <i type="logical" name="LGAUGE"> T  </i>
   <i type="int" name="MAGATOM">     0</i>
   <v name="MAGDIPOL">      0.00000000      0.00000000      0.00000000</v>
   <v name="AVECCONST">      0.00000000      0.00000000      0.00000000</v>
  </separator>
  <separator name="response functions" >
   <i type="logical" name="LADDER"> F  </i>
   <i type="logical" name="LRPAFORCE"> F  </i>
   <i type="logical" name="LFXC"> F  </i>
   <i type="logical" name="LHARTREE"> T  </i>
   <i type="int" name="IBSE">     0</i>
   <v type="int" name="KPOINT">    -1     0     0     0</v>
   <i type="logical" name="LTCTE"> F  </i>
   <i type="logical" name="LTETE"> F  </i>
   <i type="logical" name="LTRIPLET"> F  </i>
   <i type="logical" name="LFXCEPS"> F  </i>
   <i type="logical" name="LFXHEG"> F  </i>
   <i type="int" name="NATURALO">     2</i>
   <i type="logical" name="L2ORDER"> F  </i>
   <i type="logical" name="LMP2LT"> F  </i>
   <i type="logical" name="LUSEW"> F  </i>
   <i name="ENCUTGW">     -2.00000000</i>
   <i name="ENCUTGWSOFT">     -2.00000000</i>
   <i name="ENCUTLF">     -1.00000000</i>
   <i type="int" name="LMAXMP2">    -1</i>
   <i name="SCISSOR">      0.00000000</i>
   <i type="int" name="NOMEGA">     0</i>
   <i type="int" name="NOMEGAR">     0</i>
   <i type="int" name="NBANDSGW">    -1</i>
   <i type="int" name="NBANDSO">    -1</i>
   <i type="int" name="NBANDSV">    -1</i>
   <i type="int" name="NELM">     1</i>
   <i type="int" name="NELMHF">     1</i>
   <i type="int" name="DIM">     3</i>
   <i type="int" name="ANTIRES">     0</i>
   <i name="OMEGAMAX">    -30.00000000</i>
   <i name="OMEGAMIN">    -30.00000000</i>
   <i name="OMEGATL">   -200.00000000</i>
   <i type="int" name="OMEGAGRID">   140</i>
   <i name="CSHIFT">     -0.10000000</i>
   <i type="logical" name="SELFENERGY"> F  </i>
   <i type="logical" name="LSPECTRAL"> F  </i>
   <i type="logical" name="LSPECTRALGW"> F  </i>
   <i type="logical" name="LSINGLES"> F  </i>
   <i type="logical" name="LFERMIGW"> F  </i>
   <i type="logical" name="ODDONLYGW"> F  </i>
   <i type="logical" name="EVENONLYGW"> F  </i>
   <i type="int" name="NKREDLFX">     1</i>
   <i type="int" name="NKREDLFY">     1</i>
   <i type="int" name="NKREDLFZ">     1</i>
   <i type="int" name="MAXMEM">  2800</i>
   <i type="int" name="TELESCOPE">     0</i>
   <i type="int" name="TAUPAR">     1</i>
   <i type="int" name="OMEGAPAR">    -1</i>
   <i name="LAMBDA">      1.00000000</i>
  </separator>
  <separator name="External order field" >
   <i name="OFIELD_KAPPA">      0.00000000</i>
   <v name="OFIELD_K">      0.00000000      0.00000000      0.00000000</v>
   <i name="OFIELD_Q6_NEAR">      0.00000000</i>
   <i name="OFIELD_Q6_FAR">      0.00000000</i>
   <i name="OFIELD_A">      0.00000000</i>
  </separator>
 </parameters>
 <atominfo>
  <atoms>     128 </atoms>
  <types>       1 </types>
  <array name="atoms" >
   <dimension dim="1">ion</dimension>
   <field type="string">element</field>
   <field type="int">atomtype</field>
   <set>
    <rc><c>Si</c><c>   1</c></rc>
    <rc><c>Si</c><c>   1</c></rc>
    <rc><c>Si</c><c>   1</c></rc>
    <rc><c>Si</c><c>   1</c></rc>
    <rc><c>Si</c><c>   1</c></rc>
    <rc><c>Si</c><c>   1</c></rc>
    <rc><c>Si</c><c>   1</c></rc>
    <rc><c>Si</c><c>   1</c></rc>
    <rc><c>Si</c><c>   1</c></rc>
    <rc><c>Si</c><c>   1</c></rc>
    <rc><c>Si</c><c>   1</c></rc>
    <rc><c>Si</c><c>   1</c></rc>
    <rc><c>Si</c><c>   1</c></rc>
    <rc><c>Si</c><c>   1</c></rc>
    <rc><c>Si</c><c>   1</c></rc>
    <rc><c>Si</c><c>   1</c></rc>
    <rc><c>Si</c><c>   1</c></rc>
    <rc><c>Si</c><c>   1</c></rc>
    <rc><c>Si</c><c>   1</c></rc>
    <rc><c>Si</c><c>   1</c></rc>
    <rc><c>Si</c><c>   1</c></rc>
    <rc><c>Si</c><c>   1</c></rc>
    <rc><c>Si</c><c>   1</c></rc>
    <rc><c>Si</c><c>   1</c></rc>
    <rc><c>Si</c><c>   1</c></rc>
    <rc><c>Si</c><c>   1</c></rc>
    <rc><c>Si</c><c>   1</c></rc>
    <rc><c>Si</c><c>   1</c></rc>
    <rc><c>Si</c><c>   1</c></rc>
    <rc><c>Si</c><c>   1</c></rc>
    <rc><c>Si</c><c>   1</c></rc>
    <rc><c>Si</c><c>   1</c></rc>
    <rc><c>Si</c><c>   1</c></rc>
    <rc><c>Si</c><c>   1</c></rc>
    <rc><c>Si</c><c>   1</c></rc>
    <rc><c>Si</c><c>   1</c></rc>
    <rc><c>Si</c><c>   1</c></rc>
    <rc><c>Si</c><c>   1</c></rc>
    <rc><c>Si</c><c>   1</c></rc>
    <rc><c>Si</c><c>   1</c></rc>
    <rc><c>Si</c><c>   1</c></rc>
    <rc><c>Si</c><c>   1</c></rc>
    <rc><c>Si</c><c>   1</c></rc>
    <rc><c>Si</c><c>   1</c></rc>
    <rc><c>Si</c><c>   1</c></rc>
    <rc><c>Si</c><c>   1</c></rc>
    <rc><c>Si</c><c>   1</c></rc>
    <rc><c>Si</c><c>   1</c></rc>
    <rc><c>Si</c><c>   1</c></rc>
    <rc><c>Si</c><c>   1</c></rc>
    <rc><c>Si</c><c>   1</c></rc>
    <rc><c>Si</c><c>   1</c></rc>
    <rc><c>Si</c><c>   1</c></rc>
    <rc><c>Si</c><c>   1</c></rc>
    <rc><c>Si</c><c>   1</c></rc>
    <rc><c>Si</c><c>   1</c></rc>
    <rc><c>Si</c><c>   1</c></rc>
    <rc><c>Si</c><c>   1</c></rc>
    <rc><c>Si</c><c>   1</c></rc>
    <rc><c>Si</c><c>   1</c></rc>
    <rc><c>Si</c><c>   1</c></rc>
    <rc><c>Si</c><c>   1</c></rc>
    <rc><c>Si</c><c>   1</c></rc>
    <rc><c>Si</c><c>   1</c></rc>
    <rc><c>Si</c><c>   1</c></rc>
    <rc><c>Si</c><c>   1</c></rc>
    <rc><c>Si</c><c>   1</c></rc>
    <rc><c>Si</c><c>   1</c></rc>
    <rc><c>Si</c><c>   1</c></rc>
    <rc><c>Si</c><c>   1</c></rc>
    <rc><c>Si</c><c>   1</c></rc>
    <rc><c>Si</c><c>   1</c></rc>
    <rc><c>Si</c><c>   1</c></rc>
    <rc><c>Si</c><c>   1</c></rc>
    <rc><c>Si</c><c>   1</c></rc>
    <rc><c>Si</c><c>   1</c></rc>
    <rc><c>Si</c><c>   1</c></rc>
    <rc><c>Si</c><c>   1</c></rc>
    <rc><c>Si</c><c>   1</c></rc>
    <rc><c>Si</c><c>   1</c></rc>
    <rc><c>Si</c><c>   1</c></rc>
    <rc><c>Si</c><c>   1</c></rc>
    <rc><c>Si</c><c>   1</c></rc>
    <rc><c>Si</c><c>   1</c></rc>
    <rc><c>Si</c><c>   1</c></rc>
    <rc><c>Si</c><c>   1</c></rc>
    <rc><c>Si</c><c>   1</c></rc>
    <rc><c>Si</c><c>   1</c></rc>
    <rc><c>Si</c><c>   1</c></rc>
    <rc><c>Si</c><c>   1</c></rc>
    <rc><c>Si</c><c>   1</c></rc>
    <rc><c>Si</c><c>   1</c></rc>
    <rc><c>Si</c><c>   1</c></rc>
    <rc><c>Si</c><c>   1</c></rc>
    <rc><c>Si</c><c>   1</c></rc>
    <rc><c>Si</c><c>   1</c></rc>
    <rc><c>Si</c><c>   1</c></rc>
    <rc><c>Si</c><c>   1</c></rc>
    <rc><c>Si</c><c>   1</c></rc>
    <rc><c>Si</c><c>   1</c></rc>
    <rc><c>Si</c><c>   1</c></rc>
    <rc><c>Si</c><c>   1</c></rc>
    <rc><c>Si</c><c>   1</c></rc>
    <rc><c>Si</c><c>   1</c></rc>
    <rc><c>Si</c><c>   1</c></rc>
    <rc><c>Si</c><c>   1</c></rc>
    <rc><c>Si</c><c>   1</c></rc>
    <rc><c>Si</c><c>   1</c></rc>
    <rc><c>Si</c><c>   1</c></rc>
    <rc><c>Si</c><c>   1</c></rc>
    <rc><c>Si</c><c>   1</c></rc>
    <rc><c>Si</c><c>   1</c></rc>
    <rc><c>Si</c><c>   1</c></rc>
    <rc><c>Si</c><c>   1</c></rc>
    <rc><c>Si</c><c>   1</c></rc>
    <rc><c>Si</c><c>   1</c></rc>
    <rc><c>Si</c><c>   1</c></rc>
    <rc><c>Si</c><c>   1</c></rc>
    <rc><c>Si</c><c>   1</c></rc>
    <rc><c>Si</c><c>   1</c></rc>
    <rc><c>Si</c><c>   1</c></rc>
    <rc><c>Si</c><c>   1</c></rc>
    <rc><c>Si</c><c>   1</c></rc>
    <rc><c>Si</c><c>   1</c></rc>
    <rc><c>Si</c><c>   1</c></rc>
    <rc><c>Si</c><c>   1</c></rc>
    <rc><c>Si</c><c>   1</c></rc>
    <rc><c>Si</c><c>   1</c></rc>
   </set>
  </array>
  <array name="atomtypes" >
   <dimension dim="1">type</dimension>
   <field type="int">atomspertype</field>
   <field type="string">element</field>
   <field>mass</field>
   <field>valence</field>
   <field type="string">pseudopotential</field>
   <set>
    <rc><c> 128</c><c>Si</c><c>     28.08500000</c><c>      4.00000000</c><c> PAW_PBE Si 05Jan2001                   </c></rc>
   </set>
  </array>
 </atominfo>
 <structure name="initialpos" >
  <crystal>
   <varray name="basis" >
    <v>       0.00000000      10.93716070      10.93716070 </v>
    <v>      10.93716070       0.00000000      10.93716070 </v>
    <v>      10.93716070      10.93716070       0.00000000 </v>
   </varray>
   <i name="volume">   2616.63878844 </i>
   <varray name="rec_basis" >
    <v>      -0.04571570       0.04571570       0.04571570 </v>
    <v>       0.04571570      -0.04571570       0.04571570 </v>
    <v>       0.04571570       0.04571570      -0.04571570 </v>
   </varray>
  </crystal>
  <varray name="positions" >
   <v>       0.06250000       0.06158569       0.06250000 </v>
   <v>       0.31250000       0.06250000       0.06250000 </v>
   <v>       0.56250000       0.06250000       0.06250000 </v>
   <v>       0.81250000       0.06250000       0.06250000 </v>
   <v>       0.06250000       0.31250000       0.06250000 </v>
   <v>       0.31250000       0.31250000       0.06250000 </v>
   <v>       0.56250000       0.31250000       0.06250000 </v>
   <v>       0.81250000       0.31250000       0.06250000 </v>
   <v>       0.06250000       0.56250000       0.06250000 </v>
   <v>       0.31250000       0.56250000       0.06250000 </v>
   <v>       0.56250000       0.56250000       0.06250000 </v>
   <v>       0.81250000       0.56250000       0.06250000 </v>
   <v>       0.06250000       0.81250000       0.06250000 </v>
   <v>       0.31250000       0.81250000       0.06250000 </v>
   <v>       0.56250000       0.81250000       0.06250000 </v>
   <v>       0.81250000       0.81250000       0.06250000 </v>
   <v>       0.06250000       0.06250000       0.31250000 </v>
   <v>       0.31250000       0.06250000       0.31250000 </v>
   <v>       0.56250000       0.06250000       0.31250000 </v>
   <v>       0.81250000       0.06250000       0.31250000 </v>
   <v>       0.06250000       0.31250000       0.31250000 </v>
   <v>       0.31250000       0.31250000       0.31250000 </v>
   <v>       0.56250000       0.31250000       0.31250000 </v>
   <v>       0.81250000       0.31250000       0.31250000 </v>
   <v>       0.06250000       0.56250000       0.31250000 </v>
   <v>       0.31250000       0.56250000       0.31250000 </v>
   <v>       0.56250000       0.56250000       0.31250000 </v>
   <v>       0.81250000       0.56250000       0.31250000 </v>
   <v>       0.06250000       0.81250000       0.31250000 </v>
   <v>       0.31250000       0.81250000       0.31250000 </v>
   <v>       0.56250000       0.81250000       0.31250000 </v>
   <v>       0.81250000       0.81250000       0.31250000 </v>
   <v>       0.06250000       0.06250000       0.56250000 </v>
   <v>       0.31250000       0.06250000       0.56250000 </v>
   <v>       0.56250000       0.06250000       0.56250000 </v>
   <v>       0.81250000       0.06250000       0.56250000 </v>
   <v>       0.06250000       0.31250000       0.56250000 </v>
   <v>       0.31250000       0.31250000       0.56250000 </v>
   <v>       0.56250000       0.31250000       0.56250000 </v>
   <v>       0.81250000       0.31250000       0.56250000 </v>
   <v>       0.06250000       0.56250000       0.56250000 </v>
   <v>       0.31250000       0.56250000       0.56250000 </v>
   <v>       0.56250000       0.56250000       0.56250000 </v>
   <v>       0.81250000       0.56250000       0.56250000 </v>
   <v>       0.06250000       0.81250000       0.56250000 </v>
   <v>       0.31250000       0.81250000       0.56250000 </v>
   <v>       0.56250000       0.81250000       0.56250000 </v>
   <v>       0.81250000       0.81250000       0.56250000 </v>
   <v>       0.06250000       0.06250000       0.81250000 </v>
   <v>       0.31250000       0.06250000       0.81250000 </v>
   <v>       0.56250000       0.06250000       0.81250000 </v>
   <v>       0.81250000       0.06250000       0.81250000 </v>
   <v>       0.06250000       0.31250000       0.81250000 </v>
   <v>       0.31250000       0.31250000       0.81250000 </v>
   <v>       0.56250000       0.31250000       0.81250000 </v>
   <v>       0.81250000       0.31250000       0.81250000 </v>
   <v>       0.06250000       0.56250000       0.81250000 </v>
   <v>       0.31250000       0.56250000       0.81250000 </v>
   <v>       0.56250000       0.56250000       0.81250000 </v>
   <v>       0.81250000       0.56250000       0.81250000 </v>
   <v>       0.06250000       0.81250000       0.81250000 </v>
   <v>       0.31250000       0.81250000       0.81250000 </v>
   <v>       0.56250000       0.81250000       0.81250000 </v>
   <v>       0.81250000       0.81250000       0.81250000 </v>
   <v>       0.00000000       0.00000000       0.00000000 </v>
   <v>       0.25000000       0.00000000       0.00000000 </v>
   <v>       0.50000000       0.00000000       0.00000000 </v>
   <v>       0.75000000       0.00000000       0.00000000 </v>
   <v>       0.00000000       0.25000000       0.00000000 </v>
   <v>       0.25000000       0.25000000       0.00000000 </v>
   <v>       0.50000000       0.25000000       0.00000000 </v>
   <v>       0.75000000       0.25000000       0.00000000 </v>
   <v>       0.00000000       0.50000000       0.00000000 </v>
   <v>       0.25000000       0.50000000       0.00000000 </v>
   <v>       0.50000000       0.50000000       0.00000000 </v>
   <v>       0.75000000       0.50000000       0.00000000 </v>
   <v>       0.00000000       0.75000000       0.00000000 </v>
   <v>       0.25000000       0.75000000       0.00000000 </v>
   <v>       0.50000000       0.75000000       0.00000000 </v>
   <v>       0.75000000       0.75000000       0.00000000 </v>
   <v>       0.00000000       0.00000000       0.25000000 </v>
   <v>       0.25000000       0.00000000       0.25000000 </v>
   <v>       0.50000000       0.00000000       0.25000000 </v>
   <v>       0.75000000       0.00000000       0.25000000 </v>
   <v>       0.00000000       0.25000000       0.25000000 </v>
   <v>       0.25000000       0.25000000       0.25000000 </v>
   <v>       0.50000000       0.25000000       0.25000000 </v>
   <v>       0.75000000       0.25000000       0.25000000 </v>
   <v>       0.00000000       0.50000000       0.25000000 </v>
   <v>       0.25000000       0.50000000       0.25000000 </v>
   <v>       0.50000000       0.50000000       0.25000000 </v>
   <v>       0.75000000       0.50000000       0.25000000 </v>
   <v>       0.00000000       0.75000000       0.25000000 </v>
   <v>       0.25000000       0.75000000       0.25000000 </v>
   <v>       0.50000000       0.75000000       0.25000000 </v>
   <v>       0.75000000       0.75000000       0.25000000 </v>
   <v>       0.00000000       0.00000000       0.50000000 </v>
   <v>       0.25000000       0.00000000       0.50000000 </v>
   <v>       0.50000000       0.00000000       0.50000000 </v>
   <v>       0.75000000       0.00000000       0.50000000 </v>
   <v>       0.00000000       0.25000000       0.50000000 </v>
   <v>       0.25000000       0.25000000       0.50000000 </v>
   <v>       0.50000000       0.25000000       0.50000000 </v>
   <v>       0.75000000       0.25000000       0.50000000 </v>
   <v>       0.00000000       0.50000000       0.50000000 </v>
   <v>       0.25000000       0.50000000       0.50000000 </v>
   <v>       0.50000000       0.50000000       0.50000000 </v>
   <v>       0.75000000       0.50000000       0.50000000 </v>
   <v>       0.00000000       0.75000000       0.50000000 </v>
   <v>       0.25000000       0.75000000       0.50000000 </v>
   <v>       0.50000000       0.75000000       0.50000000 </v>
   <v>       0.75000000       0.75000000       0.50000000 </v>
   <v>       0.00000000       0.00000000       0.75000000 </v>
   <v>       0.25000000       0.00000000       0.75000000 </v>
   <v>       0.50000000       0.00000000       0.75000000 </v>
   <v>       0.75000000       0.00000000       0.75000000 </v>
   <v>       0.00000000       0.25000000       0.75000000 </v>
   <v>       0.25000000       0.25000000       0.75000000 </v>
   <v>       0.50000000       0.25000000       0.75000000 </v>
   <v>       0.75000000       0.25000000       0.75000000 </v>
   <v>       0.00000000       0.50000000       0.75000000 </v>
   <v>       0.25000000       0.50000000       0.75000000 </v>
   <v>       0.50000000       0.50000000       0.75000000 </v>
   <v>       0.75000000       0.50000000       0.75000000 </v>
   <v>       0.00000000       0.75000000       0.75000000 </v>
   <v>       0.25000000       0.75000000       0.75000000 </v>
   <v>       0.50000000       0.75000000       0.75000000 </v>
   <v>       0.75000000       0.75000000       0.75000000 </v>
  </varray>
 </structure>
 <calculation>
  <scstep>
   <time name="dav">    4.80    4.82</time>
   <time name="total">    5.32    5.35</time>
   <energy>
    <i name="alphaZ">    210.78028765 </i>
    <i name="ewald"> -14524.86521975 </i>
    <i name="hartreedc">   -724.62052946 </i>
    <i name="XCdc">  -1195.83148089 </i>
    <i name="pawpsdc">   4221.13331941 </i>
    <i name="pawaedc">  -1969.18571412 </i>
    <i name="eentropy">     -0.01586090 </i>
    <i name="bandstr">   2165.00858694 </i>
    <i name="atom">  13192.48085998 </i>
    <i name="e_fr_energy">   1374.88424886 </i>
    <i name="e_wo_entrp">   1374.90010976 </i>
    <i name="e_0_energy">   1374.89217931 </i>
   </energy>
  </scstep>
  <scstep>
   <time name="dav">    5.43    5.44</time>
   <time name="total">    5.43    5.44</time>
   <energy>
    <i name="e_fr_energy">   -537.01691194 </i>
    <i name="e_wo_entrp">   -537.01690990 </i>
    <i name="e_0_energy">   -537.01691092 </i>
   </energy>
  </scstep>
  <scstep>
   <time name="dav">    5.48    5.50</time>
   <time name="total">    5.48    5.50</time>
   <energy>
    <i name="e_fr_energy">   -690.02365803 </i>
    <i name="e_wo_entrp">   -690.02365803 </i>
    <i name="e_0_energy">   -690.02365803 </i>
   </energy>
  </scstep>
  <scstep>
   <time name="dav">    5.39    5.40</time>
   <time name="total">    5.39    5.40</time>
   <energy>
    <i name="e_fr_energy">   -694.53328592 </i>
    <i name="e_wo_entrp">   -694.53328592 </i>
    <i name="e_0_energy">   -694.53328592 </i>
   </energy>
  </scstep>
  <scstep>
   <time name="dav">    5.38    5.39</time>
   <time name="total">    5.90    5.92</time>
   <energy>
    <i name="e_fr_energy">   -694.69928583 </i>
    <i name="e_wo_entrp">   -694.69928583 </i>
    <i name="e_0_energy">   -694.69928583 </i>
   </energy>
  </scstep>
  <scstep>
   <time name="dav">    4.99    5.01</time>
   <time name="total">    6.01    6.03</time>
   <energy>
    <i name="e_fr_energy">   -686.29983126 </i>
    <i name="e_wo_entrp">   -686.29983126 </i>
    <i name="e_0_energy">   -686.29983126 </i>
   </energy>
  </scstep>
  <scstep>
   <time name="dav">    4.95    4.96</time>
   <time name="total">    5.97    5.98</time>
   <energy>
    <i name="e_fr_energy">   -682.42694076 </i>
    <i name="e_wo_entrp">   -682.42694076 </i>
    <i name="e_0_energy">   -682.42694076 </i>
   </energy>
  </scstep>
  <scstep>
   <time name="dav">    5.03    5.05</time>
   <time name="total">    6.06    6.08</time>
   <energy>
    <i name="e_fr_energy">   -682.55910119 </i>
    <i name="e_wo_entrp">   -682.55910119 </i>
    <i name="e_0_energy">   -682.55910119 </i>
   </energy>
  </scstep>
  <scstep>
   <time name="dav">    5.53    5.55</time>
   <time name="total">    6.55    6.57</time>
   <energy>
    <i name="e_fr_energy">   -682.56549519 </i>
    <i name="e_wo_entrp">   -682.56549519 </i>
    <i name="e_0_energy">   -682.56549519 </i>
   </energy>
  </scstep>
  <scstep>
   <time name="dav">    4.99    5.00</time>
   <time name="total">    6.00    6.02</time>
   <energy>
    <i name="e_fr_energy">   -682.56818266 </i>
    <i name="e_wo_entrp">   -682.56818266 </i>
    <i name="e_0_energy">   -682.56818266 </i>
   </energy>
  </scstep>
  <scstep>
   <time name="dav">    5.39    5.41</time>
   <time name="total">    6.41    6.43</time>
   <energy>
    <i name="e_fr_energy">   -682.56819605 </i>
    <i name="e_wo_entrp">   -682.56819605 </i>
    <i name="e_0_energy">   -682.56819605 </i>
   </energy>
  </scstep>
  <scstep>
   <time name="dav">    5.41    5.42</time>
   <time name="total">    6.42    6.44</time>
   <energy>
    <i name="e_fr_energy">   -682.56820053 </i>
    <i name="e_wo_entrp">   -682.56820053 </i>
    <i name="e_0_energy">   -682.56820053 </i>
   </energy>
  </scstep>
  <scstep>
   <time name="dav">    5.34    5.36</time>
   <time name="total">    6.36    6.38</time>
   <energy>
    <i name="e_fr_energy">   -682.56819667 </i>
    <i name="e_wo_entrp">   -682.56819667 </i>
    <i name="e_0_energy">   -682.56819667 </i>
   </energy>
  </scstep>
  <scstep>
   <time name="dav">    5.28    5.30</time>
   <time name="total">    6.29    6.32</time>
   <energy>
    <i name="e_fr_energy">   -682.56819735 </i>
    <i name="e_wo_entrp">   -682.56819735 </i>
    <i name="e_0_energy">   -682.56819735 </i>
   </energy>
  </scstep>
  <scstep>
   <time name="dav">    3.91    3.92</time>
   <time name="total">    4.93    4.94</time>
   <energy>
    <i name="e_fr_energy">   -682.56819630 </i>
    <i name="e_wo_entrp">   -682.56819630 </i>
    <i name="e_0_energy">   -682.56819630 </i>
   </energy>
  </scstep>
  <scstep>
   <time name="dav">    3.35    3.36</time>
   <time name="total">    4.37    4.38</time>
   <energy>
    <i name="e_fr_energy">   -682.56819638 </i>
    <i name="e_wo_entrp">   -682.56819638 </i>
    <i name="e_0_energy">   -682.56819638 </i>
   </energy>
  </scstep>
  <scstep>
   <time name="dav">    3.35    3.36</time>
   <time name="total">    4.36    4.38</time>
   <energy>
    <i name="e_fr_energy">   -682.56819641 </i>
    <i name="e_wo_entrp">   -682.56819641 </i>
    <i name="e_0_energy">   -682.56819641 </i>
   </energy>
  </scstep>
  <scstep>
   <time name="dav">    3.26    3.27</time>
   <time name="total">    4.28    4.29</time>
   <energy>
    <i name="e_fr_energy">   -682.56819639 </i>
    <i name="e_wo_entrp">   -682.56819639 </i>
    <i name="e_0_energy">   -682.56819639 </i>
   </energy>
  </scstep>
  <scstep>
   <time name="dav">    3.23    3.24</time>
   <time name="total">    3.73    3.74</time>
   <energy>
    <i name="alphaZ">    210.78028765 </i>
    <i name="ewald"> -14524.86521975 </i>
    <i name="hartreedc">   -991.73324500 </i>
    <i name="XCdc">  -1153.28598599 </i>
    <i name="pawpsdc">   4723.40773378 </i>
    <i name="pawaedc">  -2485.14586069 </i>
    <i name="eentropy">     -0.00000000 </i>
    <i name="bandstr">    345.79323362 </i>
    <i name="atom">  13192.48085998 </i>
    <i name="e_fr_energy">   -682.56819639 </i>
    <i name="e_wo_entrp">   -682.56819639 </i>
    <i name="e_0_energy">   -682.56819639 </i>
   </energy>
  </scstep>
  <structure>
   <crystal>
    <varray name="basis" >
     <v>       0.00000000      10.93716070      10.93716070 </v>
     <v>      10.93716070       0.00000000      10.93716070 </v>
     <v>      10.93716070      10.93716070       0.00000000 </v>
    </varray>
    <i name="volume">   2616.63878844 </i>
    <varray name="rec_basis" >
     <v>      -0.04571570       0.04571570       0.04571570 </v>
     <v>       0.04571570      -0.04571570       0.04571570 </v>
     <v>       0.04571570       0.04571570      -0.04571570 </v>
    </varray>
   </crystal>
   <varray name="positions" >
    <v>       0.06250000       0.06158569       0.06250000 </v>
    <v>       0.31250000       0.06250000       0.06250000 </v>
    <v>       0.56250000       0.06250000       0.06250000 </v>
    <v>       0.81250000       0.06250000       0.06250000 </v>
    <v>       0.06250000       0.31250000       0.06250000 </v>
    <v>       0.31250000       0.31250000       0.06250000 </v>
    <v>       0.56250000       0.31250000       0.06250000 </v>
    <v>       0.81250000       0.31250000       0.06250000 </v>
    <v>       0.06250000       0.56250000       0.06250000 </v>
    <v>       0.31250000       0.56250000       0.06250000 </v>
    <v>       0.56250000       0.56250000       0.06250000 </v>
    <v>       0.81250000       0.56250000       0.06250000 </v>
    <v>       0.06250000       0.81250000       0.06250000 </v>
    <v>       0.31250000       0.81250000       0.06250000 </v>
    <v>       0.56250000       0.81250000       0.06250000 </v>
    <v>       0.81250000       0.81250000       0.06250000 </v>
    <v>       0.06250000       0.06250000       0.31250000 </v>
    <v>       0.31250000       0.06250000       0.31250000 </v>
    <v>       0.56250000       0.06250000       0.31250000 </v>
    <v>       0.81250000       0.06250000       0.31250000 </v>
    <v>       0.06250000       0.31250000       0.31250000 </v>
    <v>       0.31250000       0.31250000       0.31250000 </v>
    <v>       0.56250000       0.31250000       0.31250000 </v>
    <v>       0.81250000       0.31250000       0.31250000 </v>
    <v>       0.06250000       0.56250000       0.31250000 </v>
    <v>       0.31250000       0.56250000       0.31250000 </v>
    <v>       0.56250000       0.56250000       0.31250000 </v>
    <v>       0.81250000       0.56250000       0.31250000 </v>
    <v>       0.06250000       0.81250000       0.31250000 </v>
    <v>       0.31250000       0.81250000       0.31250000 </v>
    <v>       0.56250000       0.81250000       0.31250000 </v>
    <v>       0.81250000       0.81250000       0.31250000 </v>
    <v>       0.06250000       0.06250000       0.56250000 </v>
    <v>       0.31250000       0.06250000       0.56250000 </v>
    <v>       0.56250000       0.06250000       0.56250000 </v>
    <v>       0.81250000       0.06250000       0.56250000 </v>
    <v>       0.06250000       0.31250000       0.56250000 </v>
    <v>       0.31250000       0.31250000       0.56250000 </v>
    <v>       0.56250000       0.31250000       0.56250000 </v>
    <v>       0.81250000       0.31250000       0.56250000 </v>
    <v>       0.06250000       0.56250000       0.56250000 </v>
    <v>       0.31250000       0.56250000       0.56250000 </v>
    <v>       0.56250000       0.56250000       0.56250000 </v>
    <v>       0.81250000       0.56250000       0.56250000 </v>
    <v>       0.06250000       0.81250000       0.56250000 </v>
    <v>       0.31250000       0.81250000       0.56250000 </v>
    <v>       0.56250000       0.81250000       0.56250000 </v>
    <v>       0.81250000       0.81250000       0.56250000 </v>
    <v>       0.06250000       0.06250000       0.81250000 </v>
    <v>       0.31250000       0.06250000       0.81250000 </v>
    <v>       0.56250000       0.06250000       0.81250000 </v>
    <v>       0.81250000       0.06250000       0.81250000 </v>
    <v>       0.06250000       0.31250000       0.81250000 </v>
    <v>       0.31250000       0.31250000       0.81250000 </v>
    <v>       0.56250000       0.31250000       0.81250000 </v>
    <v>       0.81250000       0.31250000       0.81250000 </v>
    <v>       0.06250000       0.56250000       0.81250000 </v>
    <v>       0.31250000       0.56250000       0.81250000 </v>
    <v>       0.56250000       0.56250000       0.81250000 </v>
    <v>       0.81250000       0.56250000       0.81250000 </v>
    <v>       0.06250000       0.81250000       0.81250000 </v>
    <v>       0.31250000       0.81250000       0.81250000 </v>
    <v>       0.56250000       0.81250000       0.81250000 </v>
    <v>       0.81250000       0.81250000       0.81250000 </v>
    <v>       0.00000000       0.00000000       0.00000000 </v>
    <v>       0.25000000       0.00000000       0.00000000 </v>
    <v>       0.50000000       0.00000000       0.00000000 </v>
    <v>       0.75000000       0.00000000       0.00000000 </v>
    <v>       0.00000000       0.25000000       0.00000000 </v>
    <v>       0.25000000       0.25000000       0.00000000 </v>
    <v>       0.50000000       0.25000000       0.00000000 </v>
    <v>       0.75000000       0.25000000       0.00000000 </v>
    <v>       0.00000000       0.50000000       0.00000000 </v>
    <v>       0.25000000       0.50000000       0.00000000 </v>
    <v>       0.50000000       0.50000000       0.00000000 </v>
    <v>       0.75000000       0.50000000       0.00000000 </v>
    <v>       0.00000000       0.75000000       0.00000000 </v>
    <v>       0.25000000       0.75000000       0.00000000 </v>
    <v>       0.50000000       0.75000000       0.00000000 </v>
    <v>       0.75000000       0.75000000       0.00000000 </v>
    <v>       0.00000000       0.00000000       0.25000000 </v>
    <v>       0.25000000       0.00000000       0.25000000 </v>
    <v>       0.50000000       0.00000000       0.25000000 </v>
    <v>       0.75000000       0.00000000       0.25000000 </v>
    <v>       0.00000000       0.25000000       0.25000000 </v>
    <v>       0.25000000       0.25000000       0.25000000 </v>
    <v>       0.50000000       0.25000000       0.25000000 </v>
    <v>       0.75000000       0.25000000       0.25000000 </v>
    <v>       0.00000000       0.50000000       0.25000000 </v>
    <v>       0.25000000       0.50000000       0.25000000 </v>
    <v>       0.50000000       0.50000000       0.25000000 </v>
    <v>       0.75000000       0.50000000       0.25000000 </v>
    <v>       0.00000000       0.75000000       0.25000000 </v>
    <v>       0.25000000       0.75000000       0.25000000 </v>
    <v>       0.50000000       0.75000000       0.25000000 </v>
    <v>       0.75000000       0.75000000       0.25000000 </v>
    <v>       0.00000000       0.00000000       0.50000000 </v>
    <v>       0.25000000       0.00000000       0.50000000 </v>
    <v>       0.50000000       0.00000000       0.50000000 </v>
    <v>       0.75000000       0.00000000       0.50000000 </v>
    <v>       0.00000000       0.25000000       0.50000000 </v>
    <v>       0.25000000       0.25000000       0.50000000 </v>
    <v>       0.50000000       0.25000000       0.50000000 </v>
    <v>       0.75000000       0.25000000       0.50000000 </v>
    <v>       0.00000000       0.50000000       0.50000000 </v>
    <v>       0.25000000       0.50000000       0.50000000 </v>
    <v>       0.50000000       0.50000000       0.50000000 </v>
    <v>       0.75000000       0.50000000       0.50000000 </v>
    <v>       0.00000000       0.75000000       0.50000000 </v>
    <v>       0.25000000       0.75000000       0.50000000 </v>
    <v>       0.50000000       0.75000000       0.50000000 </v>
    <v>       0.75000000       0.75000000       0.50000000 </v>
    <v>       0.00000000       0.00000000       0.75000000 </v>
    <v>       0.25000000       0.00000000       0.75000000 </v>
    <v>       0.50000000       0.00000000       0.75000000 </v>
    <v>       0.75000000       0.00000000       0.75000000 </v>
    <v>       0.00000000       0.25000000       0.75000000 </v>
    <v>       0.25000000       0.25000000       0.75000000 </v>
    <v>       0.50000000       0.25000000       0.75000000 </v>
    <v>       0.75000000       0.25000000       0.75000000 </v>
    <v>       0.00000000       0.50000000       0.75000000 </v>
    <v>       0.25000000       0.50000000       0.75000000 </v>
    <v>       0.50000000       0.50000000       0.75000000 </v>
    <v>       0.75000000       0.50000000       0.75000000 </v>
    <v>       0.00000000       0.75000000       0.75000000 </v>
    <v>       0.25000000       0.75000000       0.75000000 </v>
    <v>       0.50000000       0.75000000       0.75000000 </v>
    <v>       0.75000000       0.75000000       0.75000000 </v>
   </varray>
  </structure>
  <varray name="forces" >
   <v>       0.13032934       0.00306971       0.13032933 </v>
   <v>       0.00586614      -0.00297201      -0.00254314 </v>
   <v>       0.00167794      -0.00036976      -0.00013977 </v>
   <v>       0.00396335      -0.00105897      -0.00062824 </v>
   <v>      -0.00356704       0.00189777      -0.00356703 </v>
   <v>      -0.00031177       0.00006337      -0.00019645 </v>
   <v>      -0.00037305      -0.00000030      -0.00037750 </v>
   <v>      -0.00061621       0.00108073       0.00395825 </v>
   <v>      -0.00051269      -0.00000582      -0.00051270 </v>
   <v>      -0.00019570      -0.00006216      -0.00031321 </v>
   <v>      -0.00014433       0.00037165       0.00167066 </v>
   <v>      -0.00025773      -0.00012052      -0.00025388 </v>
   <v>      -0.00364140      -0.00192682      -0.00364141 </v>
   <v>      -0.00252532       0.00299243       0.00588157 </v>
   <v>      -0.00037442      -0.00000055      -0.00037598 </v>
   <v>      -0.00025366       0.00012231      -0.00025191 </v>
   <v>      -0.00254315      -0.00297200       0.00586614 </v>
   <v>       0.00016650      -0.00030058       0.00016648 </v>
   <v>       0.00010312      -0.00048074       0.00010264 </v>
   <v>       0.00044071       0.00000690       0.00045505 </v>
   <v>      -0.00019645       0.00006337      -0.00031180 </v>
   <v>      -0.00010384      -0.00000108      -0.00010384 </v>
   <v>       0.00010349       0.00047789       0.00010508 </v>
   <v>      -0.00016522      -0.00000140      -0.00025220 </v>
   <v>      -0.00031319      -0.00006215      -0.00019569 </v>
   <v>       0.00016720       0.00029765       0.00016721 </v>
   <v>      -0.00010655      -0.00001062      -0.00011424 </v>
   <v>      -0.00009515       0.00000038      -0.00009617 </v>
   <v>       0.00588158       0.00299240      -0.00252532 </v>
   <v>      -0.00025197      -0.00000003      -0.00025198 </v>
   <v>      -0.00011419       0.00001119      -0.00010658 </v>
   <v>      -0.00025174      -0.00000145      -0.00016728 </v>
   <v>      -0.00013980      -0.00036978       0.00167794 </v>
   <v>       0.00010260      -0.00048075       0.00010312 </v>
   <v>       0.00022867      -0.00000104       0.00022869 </v>
   <v>       0.00016109      -0.00042096       0.00004569 </v>
   <v>      -0.00037753      -0.00000033      -0.00037307 </v>
   <v>       0.00010505       0.00047788       0.00010350 </v>
   <v>      -0.00009239       0.00002468      -0.00009238 </v>
   <v>      -0.00008148      -0.00001408      -0.00013893 </v>
   <v>       0.00167070       0.00037166      -0.00014434 </v>
   <v>      -0.00011423      -0.00001066      -0.00010652 </v>
   <v>      -0.00011312       0.00000032      -0.00011312 </v>
   <v>      -0.00013876       0.00001339      -0.00008238 </v>
   <v>      -0.00037597      -0.00000058      -0.00037442 </v>
   <v>      -0.00010656       0.00001117      -0.00011417 </v>
   <v>      -0.00009326      -0.00002455      -0.00009326 </v>
   <v>       0.00004510       0.00042025       0.00016242 </v>
   <v>      -0.00062826      -0.00105898       0.00396336 </v>
   <v>       0.00045503       0.00000690       0.00044067 </v>
   <v>       0.00004568      -0.00042097       0.00016107 </v>
   <v>       0.00016723      -0.00041496       0.00016723 </v>
   <v>       0.00395828       0.00108073      -0.00061624 </v>
   <v>      -0.00025223      -0.00000141      -0.00016522 </v>
   <v>      -0.00013891      -0.00001407      -0.00008146 </v>
   <v>      -0.00025196      -0.00000142      -0.00025196 </v>
   <v>      -0.00025386      -0.00012053      -0.00025774 </v>
   <v>      -0.00009613       0.00000036      -0.00009511 </v>
   <v>      -0.00008236       0.00001337      -0.00013875 </v>
   <v>       0.00016642       0.00041811       0.00016641 </v>
   <v>      -0.00025190       0.00012231      -0.00025365 </v>
   <v>      -0.00016731      -0.00000147      -0.00025172 </v>
   <v>       0.00016243       0.00042025       0.00004506 </v>
   <v>      -0.00010388      -0.00000035      -0.00010389 </v>
   <v>      -0.05395549      -0.04184910      -0.05395545 </v>
   <v>      -0.01234366      -0.00021772      -0.01261177 </v>
   <v>      -0.00252914      -0.00066956      -0.00068454 </v>
   <v>      -0.00157677       0.00027806       0.00026104 </v>
   <v>      -0.05194896       0.03912610      -0.05194899 </v>
   <v>       0.00059447      -0.00000248       0.00041776 </v>
   <v>       0.00023581      -0.00007825       0.00010382 </v>
   <v>       0.00058082       0.00000918       0.00060173 </v>
   <v>      -0.00040027      -0.00094008      -0.00040027 </v>
   <v>       0.00002656      -0.00000366       0.00002356 </v>
   <v>       0.00010243       0.00007792       0.00023656 </v>
   <v>       0.00027035      -0.00027568      -0.00156515 </v>
   <v>      -0.00041020       0.00095516      -0.00041020 </v>
   <v>       0.00042044      -0.00000562       0.00059125 </v>
   <v>      -0.00067956       0.00067224      -0.00250848 </v>
   <v>       0.00063700       0.00000231       0.00063721 </v>
   <v>      -0.01261174      -0.00021771      -0.01234366 </v>
   <v>      -0.00008723       0.00068548      -0.00008728 </v>
   <v>      -0.00008055       0.00023867      -0.00021354 </v>
   <v>      -0.00009247       0.00068175      -0.00026288 </v>
   <v>       0.00041778      -0.00000247       0.00059445 </v>
   <v>       0.00007975      -0.00003723       0.00007973 </v>
   <v>       0.00011750       0.00000059       0.00011762 </v>
   <v>      -0.00026705      -0.00068327      -0.00009021 </v>
   <v>       0.00002351      -0.00000367       0.00002653 </v>
   <v>       0.00008077       0.00003734       0.00008077 </v>
   <v>      -0.00021318      -0.00023809      -0.00008005 </v>
   <v>       0.00004233       0.00002880       0.00013470 </v>
   <v>       0.00059124      -0.00000563       0.00042043 </v>
   <v>      -0.00009221      -0.00068277      -0.00009220 </v>
   <v>       0.00016279      -0.00000011       0.00016367 </v>
   <v>       0.00013291      -0.00003003       0.00004287 </v>
   <v>      -0.00068454      -0.00066957      -0.00252914 </v>
   <v>      -0.00021357       0.00023867      -0.00008056 </v>
   <v>      -0.00013565       0.00031578      -0.00013563 </v>
   <v>      -0.00001154       0.00000594      -0.00001075 </v>
   <v>       0.00010377      -0.00007826       0.00023581 </v>
   <v>       0.00011760       0.00000056       0.00011747 </v>
   <v>      -0.00013494      -0.00031715      -0.00013493 </v>
   <v>       0.00008633      -0.00001389       0.00017784 </v>
   <v>       0.00023655       0.00007790       0.00010239 </v>
   <v>      -0.00008007      -0.00023811      -0.00021317 </v>
   <v>       0.00008142      -0.00004846       0.00008146 </v>
   <v>       0.00012932       0.00000029       0.00013032 </v>
   <v>      -0.00250845       0.00067227      -0.00067957 </v>
   <v>       0.00016366      -0.00000012       0.00016279 </v>
   <v>       0.00008245       0.00004733       0.00008245 </v>
   <v>       0.00017748       0.00001496       0.00008669 </v>
   <v>       0.00026101       0.00027804      -0.00157675 </v>
   <v>      -0.00026292       0.00068174      -0.00009248 </v>
   <v>      -0.00001074       0.00000595      -0.00001152 </v>
   <v>      -0.00013404       0.00077153      -0.00013402 </v>
   <v>       0.00060171       0.00000917       0.00058078 </v>
   <v>      -0.00009019      -0.00068326      -0.00026704 </v>
   <v>       0.00017784      -0.00001393       0.00008631 </v>
   <v>       0.00014766      -0.00004410       0.00014766 </v>
   <v>      -0.00156514      -0.00027569       0.00027035 </v>
   <v>       0.00013472       0.00002877       0.00004237 </v>
   <v>       0.00013031       0.00000027       0.00012934 </v>
   <v>       0.00014879       0.00004369       0.00014881 </v>
   <v>       0.00063722       0.00000229       0.00063699 </v>
   <v>       0.00004289      -0.00003003       0.00013293 </v>
   <v>       0.00008671       0.00001495       0.00017747 </v>
   <v>      -0.00013659      -0.00077330      -0.00013659 </v>
  </varray>
  <varray name="stress" >
   <v>       5.73173990       0.05339744       0.00138469 </v>
   <v>       0.05339744       5.73278421       0.05339748 </v>
   <v>       0.00138469       0.05339748       5.73173993 </v>
  </varray>
  <energy>
   <i name="e_fr_energy">   -682.56819639 </i>
   <i name="e_wo_entrp">   -682.56819639 </i>
   <i name="e_0_energy">     -0.00000000 </i>
  </energy>
  <time name="totalsc">  121.93  122.33</time>
  <eigenvalues>
   <array>
    <dimension dim="1">band</dimension>
    <dimension dim="2">kpoint</dimension>
    <dimension dim="3">spin</dimension>
    <field>eigene</field>
    <field>occ</field>
    <set>
     <set comment="spin 1">
      <set comment="kpoint 1">
       <r>   -6.1630    1.0000 </r>
       <r>   -5.3792    1.0000 </r>
       <r>   -5.3776    1.0000 </r>
       <r>   -5.3775    1.0000 </r>
       <r>   -5.3775    1.0000 </r>
       <r>   -5.3775    1.0000 </r>
       <r>   -5.3775    1.0000 </r>
       <r>   -5.3773    1.0000 </r>
       <r>   -5.3759    1.0000 </r>
       <r>   -5.1010    1.0000 </r>
       <r>   -5.0996    1.0000 </r>
       <r>   -5.0996    1.0000 </r>
       <r>   -5.0996    1.0000 </r>
       <r>   -5.0996    1.0000 </r>
       <r>   -5.0983    1.0000 </r>
       <r>   -4.1599    1.0000 </r>
       <r>   -4.1572    1.0000 </r>
       <r>   -4.1572    1.0000 </r>
       <r>   -4.1570    1.0000 </r>
       <r>   -4.1570    1.0000 </r>
       <r>   -4.1570    1.0000 </r>
       <r>   -4.1570    1.0000 </r>
       <r>   -4.1569    1.0000 </r>
       <r>   -4.1569    1.0000 </r>
       <r>   -4.1567    1.0000 </r>
       <r>   -4.1567    1.0000 </r>
       <r>   -4.1541    1.0000 </r>
       <r>   -3.8821    1.0000 </r>
       <r>   -3.8812    1.0000 </r>
       <r>   -3.8812    1.0000 </r>
       <r>   -3.8803    1.0000 </r>
       <r>   -3.5023    1.0000 </r>
       <r>   -3.4968    1.0000 </r>
       <r>   -3.4967    1.0000 </r>
       <r>   -3.4966    1.0000 </r>
       <r>   -3.4965    1.0000 </r>
       <r>   -3.4964    1.0000 </r>
       <r>   -3.4964    1.0000 </r>
       <r>   -3.4964    1.0000 </r>
       <r>   -3.4963    1.0000 </r>
       <r>   -3.4963    1.0000 </r>
       <r>   -3.4962    1.0000 </r>
       <r>   -3.4962    1.0000 </r>
       <r>   -3.4962    1.0000 </r>
       <r>   -3.4962    1.0000 </r>
       <r>   -3.4962    1.0000 </r>
       <r>   -3.4961    1.0000 </r>
       <r>   -3.4961    1.0000 </r>
       <r>   -3.4961    1.0000 </r>
       <r>   -3.4961    1.0000 </r>
       <r>   -3.4960    1.0000 </r>
       <r>   -3.4959    1.0000 </r>
       <r>   -3.4958    1.0000 </r>
       <r>   -3.4957    1.0000 </r>
       <r>   -3.4902    1.0000 </r>
       <r>   -2.0925    1.0000 </r>
       <r>   -2.0910    1.0000 </r>
       <r>   -2.0909    1.0000 </r>
       <r>   -2.0909    1.0000 </r>
       <r>   -2.0908    1.0000 </r>
       <r>   -2.0894    1.0000 </r>
       <r>   -1.9385    1.0000 </r>
       <r>   -1.9357    1.0000 </r>
       <r>   -1.9355    1.0000 </r>
       <r>   -1.9355    1.0000 </r>
       <r>   -1.9354    1.0000 </r>
       <r>   -1.9354    1.0000 </r>
       <r>   -1.9354    1.0000 </r>
       <r>   -1.9353    1.0000 </r>
       <r>   -1.9353    1.0000 </r>
       <r>   -1.9353    1.0000 </r>
       <r>   -1.9351    1.0000 </r>
       <r>   -1.9323    1.0000 </r>
       <r>   -1.2193    1.0000 </r>
       <r>   -1.2184    1.0000 </r>
       <r>   -1.2184    1.0000 </r>
       <r>   -1.2175    1.0000 </r>
       <r>   -0.6746    1.0000 </r>
       <r>   -0.6697    1.0000 </r>
       <r>   -0.6693    1.0000 </r>
       <r>   -0.6690    1.0000 </r>
       <r>   -0.6689    1.0000 </r>
       <r>   -0.6689    1.0000 </r>
       <r>   -0.6688    1.0000 </r>
       <r>   -0.6688    1.0000 </r>
       <r>   -0.6687    1.0000 </r>
       <r>   -0.6687    1.0000 </r>
       <r>   -0.6686    1.0000 </r>
       <r>   -0.6686    1.0000 </r>
       <r>   -0.6686    1.0000 </r>
       <r>   -0.6686    1.0000 </r>
       <r>   -0.6686    1.0000 </r>
       <r>   -0.6686    1.0000 </r>
       <r>   -0.6685    1.0000 </r>
       <r>   -0.6685    1.0000 </r>
       <r>   -0.6684    1.0000 </r>
       <r>   -0.6683    1.0000 </r>
       <r>   -0.6682    1.0000 </r>
       <r>   -0.6680    1.0000 </r>
       <r>   -0.6675    1.0000 </r>
       <r>   -0.6627    1.0000 </r>
       <r>    0.2139    1.0000 </r>
       <r>    0.2163    1.0000 </r>
       <r>    0.2165    1.0000 </r>
       <r>    0.2166    1.0000 </r>
       <r>    0.2166    1.0000 </r>
       <r>    0.2167    1.0000 </r>
       <r>    0.2167    1.0000 </r>
       <r>    0.2169    1.0000 </r>
       <r>    0.2169    1.0000 </r>
       <r>    0.2170    1.0000 </r>
       <r>    0.2172    1.0000 </r>
       <r>    0.2196    1.0000 </r>
       <r>    1.7662    1.0000 </r>
       <r>    1.7672    1.0000 </r>
       <r>    1.7678    1.0000 </r>
       <r>    1.7678    1.0000 </r>
       <r>    1.7678    1.0000 </r>
       <r>    1.7678    1.0000 </r>
       <r>    1.7685    1.0000 </r>
       <r>    1.7694    1.0000 </r>
       <r>    1.8846    1.0000 </r>
       <r>    1.8851    1.0000 </r>
       <r>    1.8856    1.0000 </r>
       <r>    1.8859    1.0000 </r>
       <r>    1.8859    1.0000 </r>
       <r>    1.8860    1.0000 </r>
       <r>    1.8860    1.0000 </r>
       <r>    1.8861    1.0000 </r>
       <r>    1.8861    1.0000 </r>
       <r>    1.8864    1.0000 </r>
       <r>    1.8869    1.0000 </r>
       <r>    1.8874    1.0000 </r>
       <r>    1.9776    1.0000 </r>
       <r>    1.9779    1.0000 </r>
       <r>    1.9779    1.0000 </r>
       <r>    1.9788    1.0000 </r>
       <r>    1.9788    1.0000 </r>
       <r>    1.9789    1.0000 </r>
       <r>    1.9789    1.0000 </r>
       <r>    1.9789    1.0000 </r>
       <r>    1.9790    1.0000 </r>
       <r>    1.9798    1.0000 </r>
       <r>    1.9799    1.0000 </r>
       <r>    1.9802    1.0000 </r>
       <r>    2.1395    1.0000 </r>
       <r>    2.1410    1.0000 </r>
       <r>    2.1411    1.0000 </r>
       <r>    2.1411    1.0000 </r>
       <r>    2.1412    1.0000 </r>
       <r>    2.1425    1.0000 </r>
       <r>    2.1841    1.0000 </r>
       <r>    2.1845    1.0000 </r>
       <r>    2.1854    1.0000 </r>
       <r>    2.1866    1.0000 </r>
       <r>    2.1866    1.0000 </r>
       <r>    2.1867    1.0000 </r>
       <r>    2.1867    1.0000 </r>
       <r>    2.1867    1.0000 </r>
       <r>    2.1868    1.0000 </r>
       <r>    2.1869    1.0000 </r>
       <r>    2.1869    1.0000 </r>
       <r>    2.1869    1.0000 </r>
       <r>    2.1869    1.0000 </r>
       <r>    2.1869    1.0000 </r>
       <r>    2.1869    1.0000 </r>
       <r>    2.1870    1.0000 </r>
       <r>    2.1871    1.0000 </r>
       <r>    2.1871    1.0000 </r>
       <r>    2.1871    1.0000 </r>
       <r>    2.1872    1.0000 </r>
       <r>    2.1873    1.0000 </r>
       <r>    2.1885    1.0000 </r>
       <r>    2.1894    1.0000 </r>
       <r>    2.1900    1.0000 </r>
       <r>    2.8560    1.0000 </r>
       <r>    2.8565    1.0000 </r>
       <r>    2.8566    1.0000 </r>
       <r>    2.8566    1.0000 </r>
       <r>    2.8567    1.0000 </r>
       <r>    2.8572    1.0000 </r>
       <r>    3.4887    1.0000 </r>
       <r>    3.4909    1.0000 </r>
       <r>    3.4918    1.0000 </r>
       <r>    3.4918    1.0000 </r>
       <r>    3.4923    1.0000 </r>
       <r>    3.4923    1.0000 </r>
       <r>    3.4924    1.0000 </r>
       <r>    3.4924    1.0000 </r>
       <r>    3.4925    1.0000 </r>
       <r>    3.4925    1.0000 </r>
       <r>    3.4925    1.0000 </r>
       <r>    3.4925    1.0000 </r>
       <r>    3.4925    1.0000 </r>
       <r>    3.4925    1.0000 </r>
       <r>    3.4926    1.0000 </r>
       <r>    3.4926    1.0000 </r>
       <r>    3.4926    1.0000 </r>
       <r>    3.4926    1.0000 </r>
       <r>    3.4927    1.0000 </r>
       <r>    3.4928    1.0000 </r>
       <r>    3.4932    1.0000 </r>
       <r>    3.4932    1.0000 </r>
       <r>    3.4941    1.0000 </r>
       <r>    3.4963    1.0000 </r>
       <r>    3.8016    1.0000 </r>
       <r>    3.8033    1.0000 </r>
       <r>    3.8035    1.0000 </r>
       <r>    3.8037    1.0000 </r>
       <r>    3.8038    1.0000 </r>
       <r>    3.8038    1.0000 </r>
       <r>    3.8038    1.0000 </r>
       <r>    3.8038    1.0000 </r>
       <r>    3.8039    1.0000 </r>
       <r>    3.8042    1.0000 </r>
       <r>    3.8044    1.0000 </r>
       <r>    3.8062    1.0000 </r>
       <r>    4.3503    1.0000 </r>
       <r>    4.3518    1.0000 </r>
       <r>    4.3526    1.0000 </r>
       <r>    4.3526    1.0000 </r>
       <r>    4.3527    1.0000 </r>
       <r>    4.3528    1.0000 </r>
       <r>    4.3528    1.0000 </r>
       <r>    4.3529    1.0000 </r>
       <r>    4.3530    1.0000 </r>
       <r>    4.3531    1.0000 </r>
       <r>    4.3538    1.0000 </r>
       <r>    4.3553    1.0000 </r>
       <r>    4.4759    1.0000 </r>
       <r>    4.4772    1.0000 </r>
       <r>    4.4775    1.0000 </r>
       <r>    4.4776    1.0000 </r>
       <r>    4.4778    1.0000 </r>
       <r>    4.4778    1.0000 </r>
       <r>    4.4782    1.0000 </r>
       <r>    4.4796    1.0000 </r>
       <r>    4.9074    1.0000 </r>
       <r>    4.9111    1.0000 </r>
       <r>    4.9113    1.0000 </r>
       <r>    4.9113    1.0000 </r>
       <r>    4.9117    1.0000 </r>
       <r>    4.9117    1.0000 </r>
       <r>    4.9117    1.0000 </r>
       <r>    4.9118    1.0000 </r>
       <r>    4.9118    1.0000 </r>
       <r>    4.9118    1.0000 </r>
       <r>    4.9118    1.0000 </r>
       <r>    4.9119    1.0000 </r>
       <r>    4.9122    1.0000 </r>
       <r>    4.9122    1.0000 </r>
       <r>    4.9124    1.0000 </r>
       <r>    4.9163    1.0000 </r>
       <r>    5.6594    1.0000 </r>
       <r>    5.6604    1.0000 </r>
       <r>    5.6615    1.0000 </r>
       <r>    6.3941    0.0000 </r>
       <r>    6.3946    0.0000 </r>
       <r>    6.3951    0.0000 </r>
       <r>    6.3951    0.0000 </r>
       <r>    6.3957    0.0000 </r>
       <r>    6.3962    0.0000 </r>
       <r>    6.7951    0.0000 </r>
       <r>    6.7956    0.0000 </r>
       <r>    6.7963    0.0000 </r>
       <r>    6.7963    0.0000 </r>
       <r>    6.7969    0.0000 </r>
       <r>    6.7974    0.0000 </r>
       <r>    7.1206    0.0000 </r>
       <r>    7.1208    0.0000 </r>
       <r>    7.1209    0.0000 </r>
       <r>    7.1211    0.0000 </r>
       <r>    7.1819    0.0000 </r>
       <r>    7.1832    0.0000 </r>
       <r>    7.1852    0.0000 </r>
       <r>    7.1857    0.0000 </r>
       <r>    7.1857    0.0000 </r>
       <r>    7.1858    0.0000 </r>
       <r>    7.1858    0.0000 </r>
       <r>    7.1859    0.0000 </r>
       <r>    7.1860    0.0000 </r>
       <r>    7.1860    0.0000 </r>
       <r>    7.1860    0.0000 </r>
       <r>    7.1860    0.0000 </r>
       <r>    7.1860    0.0000 </r>
       <r>    7.1860    0.0000 </r>
       <r>    7.1860    0.0000 </r>
       <r>    7.1860    0.0000 </r>
       <r>    7.1860    0.0000 </r>
       <r>    7.1861    0.0000 </r>
       <r>    7.1862    0.0000 </r>
       <r>    7.1863    0.0000 </r>
       <r>    7.1863    0.0000 </r>
       <r>    7.1868    0.0000 </r>
       <r>    7.1888    0.0000 </r>
       <r>    7.1901    0.0000 </r>
       <r>    7.6112    0.0000 </r>
       <r>    7.6118    0.0000 </r>
       <r>    7.6122    0.0000 </r>
       <r>    7.6122    0.0000 </r>
       <r>    7.6122    0.0000 </r>
       <r>    7.6122    0.0000 </r>
       <r>    7.6126    0.0000 </r>
       <r>    7.6133    0.0000 </r>
       <r>    8.0810    0.0000 </r>
       <r>    8.0815    0.0000 </r>
       <r>    8.0825    0.0000 </r>
       <r>    8.0829    0.0000 </r>
       <r>    8.0829    0.0000 </r>
       <r>    8.0829    0.0000 </r>
       <r>    8.0829    0.0000 </r>
       <r>    8.0830    0.0000 </r>
       <r>    8.0830    0.0000 </r>
       <r>    8.0833    0.0000 </r>
       <r>    8.0844    0.0000 </r>
       <r>    8.0848    0.0000 </r>
       <r>    8.1987    0.0000 </r>
       <r>    8.1993    0.0000 </r>
       <r>    8.2000    0.0000 </r>
       <r>    8.7785    0.0000 </r>
       <r>    8.7794    0.0000 </r>
       <r>    8.7874    0.0000 </r>
      </set>
     </set>
    </set>
   </array>
  </eigenvalues>
  <separator name="orbital magnetization" >
   <v name="MAGDIPOLOUT">      0.00000000      0.00000000      0.00000000</v>
  </separator>
  <dos>
   <i name="efermi">      5.92032249 </i>
   <total>
    <array>
     <dimension dim="1">gridpoints</dimension>
     <dimension dim="2">spin</dimension>
     <field>energy</field>
     <field>total</field>
     <field>integrated</field>
     <set>
      <set comment="spin 1">
       <r>    -6.9105     0.0000     0.0000 </r>
       <r>    -6.8557     0.0000     0.0000 </r>
       <r>    -6.8009     0.0000     0.0000 </r>
       <r>    -6.7461     0.0000     0.0000 </r>
       <r>    -6.6913     0.0000     0.0000 </r>
       <r>    -6.6364     0.0000     0.0000 </r>
       <r>    -6.5816     0.0000     0.0000 </r>
       <r>    -6.5268     0.0000     0.0000 </r>
       <r>    -6.4720     0.0000     0.0000 </r>
       <r>    -6.4172     0.0000     0.0000 </r>
       <r>    -6.3624     0.0000     0.0000 </r>
       <r>    -6.3075     0.0008     0.0000 </r>
       <r>    -6.2527     0.2031     0.0112 </r>
       <r>    -6.1979     5.7030     0.3238 </r>
       <r>    -6.1431    20.1269     1.4271 </r>
       <r>    -6.0883     9.8214     1.9655 </r>
       <r>    -6.0334     0.6246     1.9998 </r>
       <r>    -5.9786     0.0045     2.0000 </r>
       <r>    -5.9238     0.0000     2.0000 </r>
       <r>    -5.8690     0.0000     2.0000 </r>
       <r>    -5.8142     0.0000     2.0000 </r>
       <r>    -5.7594     0.0000     2.0000 </r>
       <r>    -5.7045     0.0000     2.0000 </r>
       <r>    -5.6497     0.0000     2.0000 </r>
       <r>    -5.5949     0.0000     2.0000 </r>
       <r>    -5.5401     0.0006     2.0000 </r>
       <r>    -5.4853     0.3357     2.0184 </r>
       <r>    -5.4304    19.2443     3.0734 </r>
       <r>    -5.3756   132.4333    10.3331 </r>
       <r>    -5.3208   123.9395    17.1272 </r>
       <r>    -5.2660    15.6849    17.9871 </r>
       <r>    -5.2112     0.4120    18.0096 </r>
       <r>    -5.1564    11.7258    18.6524 </r>
       <r>    -5.1015    92.8583    23.7427 </r>
       <r>    -5.0467    99.4181    29.1927 </r>
       <r>    -4.9919    14.4744    29.9861 </r>
       <r>    -4.9371     0.2529    30.0000 </r>
       <r>    -4.8823     0.0005    30.0000 </r>
       <r>    -4.8274     0.0000    30.0000 </r>
       <r>    -4.7726     0.0000    30.0000 </r>
       <r>    -4.7178     0.0000    30.0000 </r>
       <r>    -4.6630     0.0000    30.0000 </r>
       <r>    -4.6082     0.0000    30.0000 </r>
       <r>    -4.5534     0.0000    30.0000 </r>
       <r>    -4.4985     0.0000    30.0000 </r>
       <r>    -4.4437     0.0000    30.0000 </r>
       <r>    -4.3889     0.0000    30.0000 </r>
       <r>    -4.3341     0.0001    30.0000 </r>
       <r>    -4.2793     0.1193    30.0065 </r>
       <r>    -4.2245    12.2317    30.6771 </r>
       <r>    -4.1696   145.3067    38.6425 </r>
       <r>    -4.1148   229.0406    51.1981 </r>
       <r>    -4.0600    49.7725    53.9265 </r>
       <r>    -4.0052     1.3700    54.0016 </r>
       <r>    -3.9504     3.6480    54.2016 </r>
       <r>    -3.8955    46.2677    56.7379 </r>
       <r>    -3.8407    77.5548    60.9893 </r>
       <r>    -3.7859    17.9226    61.9718 </r>
       <r>    -3.7311     0.5134    61.9999 </r>
       <r>    -3.6763     0.0018    62.0000 </r>
       <r>    -3.6215     0.1768    62.0097 </r>
       <r>    -3.5666    20.2752    63.1211 </r>
       <r>    -3.5118   268.3795    77.8332 </r>
       <r>    -3.4570   469.5728   103.5743 </r>
       <r>    -3.4022   113.7656   109.8107 </r>
       <r>    -3.3474     3.4418   109.9994 </r>
       <r>    -3.2925     0.0114   110.0000 </r>
       <r>    -3.2377     0.0000   110.0000 </r>
       <r>    -3.1829     0.0000   110.0000 </r>
       <r>    -3.1281     0.0000   110.0000 </r>
       <r>    -3.0733     0.0000   110.0000 </r>
       <r>    -3.0185     0.0000   110.0000 </r>
       <r>    -2.9636     0.0000   110.0000 </r>
       <r>    -2.9088     0.0000   110.0000 </r>
       <r>    -2.8540     0.0000   110.0000 </r>
       <r>    -2.7992     0.0000   110.0000 </r>
       <r>    -2.7444     0.0000   110.0000 </r>
       <r>    -2.6895     0.0000   110.0000 </r>
       <r>    -2.6347     0.0000   110.0000 </r>
       <r>    -2.5799     0.0000   110.0000 </r>
       <r>    -2.5251     0.0000   110.0000 </r>
       <r>    -2.4703     0.0000   110.0000 </r>
       <r>    -2.4155     0.0000   110.0000 </r>
       <r>    -2.3606     0.0000   110.0000 </r>
       <r>    -2.3058     0.0000   110.0000 </r>
       <r>    -2.2510     0.0007   110.0000 </r>
       <r>    -2.1962     0.3194   110.0175 </r>
       <r>    -2.1414    16.5324   110.9238 </r>
       <r>    -2.0865   103.4350   116.5939 </r>
       <r>    -2.0317    89.7385   121.5132 </r>
       <r>    -1.9769    61.4069   124.8794 </r>
       <r>    -1.9221   230.5286   137.5166 </r>
       <r>    -1.8673   142.8968   145.3499 </r>
       <r>    -1.8125    11.7474   145.9939 </r>
       <r>    -1.7576     0.1118   146.0000 </r>
       <r>    -1.7028     0.0001   146.0000 </r>
       <r>    -1.6480     0.0000   146.0000 </r>
       <r>    -1.5932     0.0000   146.0000 </r>
       <r>    -1.5384     0.0000   146.0000 </r>
       <r>    -1.4835     0.0000   146.0000 </r>
       <r>    -1.4287     0.0000   146.0000 </r>
       <r>    -1.3739     0.0008   146.0000 </r>
       <r>    -1.3191     0.3210   146.0176 </r>
       <r>    -1.2643    13.8806   146.7785 </r>
       <r>    -1.2095    73.3536   150.7997 </r>
       <r>    -1.1546    53.1773   153.7147 </r>
       <r>    -1.0998     5.1457   153.9968 </r>
       <r>    -1.0450     0.0581   154.0000 </r>
       <r>    -0.9902     0.0001   154.0000 </r>
       <r>    -0.9354     0.0000   154.0000 </r>
       <r>    -0.8805     0.0000   154.0000 </r>
       <r>    -0.8257     0.0040   154.0002 </r>
       <r>    -0.7709     1.6857   154.0926 </r>
       <r>    -0.7161    77.0946   158.3188 </r>
       <r>    -0.6613   431.0483   181.9480 </r>
       <r>    -0.6065   331.1809   200.1028 </r>
       <r>    -0.5516    34.1937   201.9772 </r>
       <r>    -0.4968     0.4157   202.0000 </r>
       <r>    -0.4420     0.0005   202.0000 </r>
       <r>    -0.3872     0.0000   202.0000 </r>
       <r>    -0.3324     0.0000   202.0000 </r>
       <r>    -0.2775     0.0000   202.0000 </r>
       <r>    -0.2227     0.0000   202.0000 </r>
       <r>    -0.1679     0.0000   202.0000 </r>
       <r>    -0.1131     0.0000   202.0000 </r>
       <r>    -0.0583     0.0000   202.0000 </r>
       <r>    -0.0035     0.0000   202.0000 </r>
       <r>     0.0514     0.0006   202.0000 </r>
       <r>     0.1062     0.3882   202.0213 </r>
       <r>     0.1610    24.8100   203.3814 </r>
       <r>     0.2158   189.1691   213.7512 </r>
       <r>     0.2706   195.5125   224.4689 </r>
       <r>     0.3255    27.4678   225.9746 </r>
       <r>     0.3803     0.4626   226.0000 </r>
       <r>     0.4351     0.0008   226.0000 </r>
       <r>     0.4899     0.0000   226.0000 </r>
       <r>     0.5447     0.0000   226.0000 </r>
       <r>     0.5995     0.0000   226.0000 </r>
       <r>     0.6544     0.0000   226.0000 </r>
       <r>     0.7092     0.0000   226.0000 </r>
       <r>     0.7640     0.0000   226.0000 </r>
       <r>     0.8188     0.0000   226.0000 </r>
       <r>     0.8736     0.0000   226.0000 </r>
       <r>     0.9285     0.0000   226.0000 </r>
       <r>     0.9833     0.0000   226.0000 </r>
       <r>     1.0381     0.0000   226.0000 </r>
       <r>     1.0929     0.0000   226.0000 </r>
       <r>     1.1477     0.0000   226.0000 </r>
       <r>     1.2025     0.0000   226.0000 </r>
       <r>     1.2574     0.0000   226.0000 </r>
       <r>     1.3122     0.0000   226.0000 </r>
       <r>     1.3670     0.0000   226.0000 </r>
       <r>     1.4218     0.0000   226.0000 </r>
       <r>     1.4766     0.0000   226.0000 </r>
       <r>     1.5314     0.0000   226.0000 </r>
       <r>     1.5863     0.0000   226.0000 </r>
       <r>     1.6411     0.0494   226.0027 </r>
       <r>     1.6959     6.0770   226.3358 </r>
       <r>     1.7507    85.6394   231.0304 </r>
       <r>     1.8055   163.3439   239.9846 </r>
       <r>     1.8604   138.1918   247.5600 </r>
       <r>     1.9152   262.4751   261.9484 </r>
       <r>     1.9700   245.5589   275.4095 </r>
       <r>     2.0248   223.7934   287.6774 </r>
       <r>     2.0796    51.4751   290.4992 </r>
       <r>     2.1344   144.4565   298.4180 </r>
       <r>     2.1893   507.2910   326.2267 </r>
       <r>     2.2441   386.8037   347.4306 </r>
       <r>     2.2989    46.1925   349.9628 </r>
       <r>     2.3537     0.6782   349.9999 </r>
       <r>     2.4085     0.0011   350.0000 </r>
       <r>     2.4634     0.0000   350.0000 </r>
       <r>     2.5182     0.0000   350.0000 </r>
       <r>     2.5730     0.0000   350.0000 </r>
       <r>     2.6278     0.0000   350.0000 </r>
       <r>     2.6826     0.0001   350.0000 </r>
       <r>     2.7374     0.0821   350.0045 </r>
       <r>     2.7923     7.4469   350.4127 </r>
       <r>     2.8471    78.6785   354.7257 </r>
       <r>     2.9019   110.7867   360.7989 </r>
       <r>     2.9567    21.4043   361.9722 </r>
       <r>     3.0115     0.5059   361.9999 </r>
       <r>     3.0664     0.0013   362.0000 </r>
       <r>     3.1212     0.0000   362.0000 </r>
       <r>     3.1760     0.0000   362.0000 </r>
       <r>     3.2308     0.0000   362.0000 </r>
       <r>     3.2856     0.0000   362.0000 </r>
       <r>     3.3404     0.0075   362.0004 </r>
       <r>     3.3953     2.6089   362.1434 </r>
       <r>     3.4501    98.2225   367.5278 </r>
       <r>     3.5049   456.7995   392.5687 </r>
       <r>     3.5597   292.8177   408.6204 </r>
       <r>     3.6145    24.9211   409.9865 </r>
       <r>     3.6694     0.2773   410.0017 </r>
       <r>     3.7242     5.2884   410.2916 </r>
       <r>     3.7790   100.2809   415.7888 </r>
       <r>     3.8338   245.3614   429.2391 </r>
       <r>     3.8886    83.2347   433.8018 </r>
       <r>     3.9434     3.5978   433.9991 </r>
       <r>     3.9983     0.0173   434.0000 </r>
       <r>     4.0531     0.0000   434.0000 </r>
       <r>     4.1079     0.0000   434.0000 </r>
       <r>     4.1627     0.0000   434.0000 </r>
       <r>     4.2175     0.0287   434.0016 </r>
       <r>     4.2724     4.9901   434.2751 </r>
       <r>     4.3272    97.5419   439.6222 </r>
       <r>     4.3820   246.6071   453.1407 </r>
       <r>     4.4368   120.9223   459.7694 </r>
       <r>     4.4916   158.3113   468.4478 </r>
       <r>     4.5464    93.7023   473.5843 </r>
       <r>     4.6013     7.5128   473.9962 </r>
       <r>     4.6561     0.0695   474.0000 </r>
       <r>     4.7109     0.0001   474.0000 </r>
       <r>     4.7657     0.0107   474.0006 </r>
       <r>     4.8205     2.8867   474.1588 </r>
       <r>     4.8754    85.6199   478.8523 </r>
       <r>     4.9302   319.1069   496.3452 </r>
       <r>     4.9850   164.8573   505.3823 </r>
       <r>     5.0398    11.1805   505.9952 </r>
       <r>     5.0946     0.0868   506.0000 </r>
       <r>     5.1494     0.0001   506.0000 </r>
       <r>     5.2043     0.0000   506.0000 </r>
       <r>     5.2591     0.0000   506.0000 </r>
       <r>     5.3139     0.0000   506.0000 </r>
       <r>     5.3687     0.0000   506.0000 </r>
       <r>     5.4235     0.0000   506.0000 </r>
       <r>     5.4784     0.0000   506.0000 </r>
       <r>     5.5332     0.0175   506.0010 </r>
       <r>     5.5880     2.1995   506.1215 </r>
       <r>     5.6428    31.6122   507.8545 </r>
       <r>     5.6976    59.5886   511.1210 </r>
       <r>     5.7524    15.5273   511.9722 </r>
       <r>     5.8073     0.5060   511.9999 </r>
       <r>     5.8621     0.0018   512.0000 </r>
       <r>     5.9169     0.0000   512.0000 </r>
       <r>     5.9717     0.0000   512.0000 </r>
       <r>     6.0265     0.0000   512.0000 </r>
       <r>     6.0814     0.0000   512.0000 </r>
       <r>     6.1362     0.0000   512.0000 </r>
       <r>     6.1910     0.0000   512.0000 </r>
       <r>     6.2458     0.0026   512.0001 </r>
       <r>     6.3006     0.8218   512.0452 </r>
       <r>     6.3554    27.8298   513.5708 </r>
       <r>     6.4103   117.0684   519.9882 </r>
       <r>     6.4651    67.9400   523.7126 </r>
       <r>     6.5199     5.1974   523.9975 </r>
       <r>     6.5747     0.0457   524.0000 </r>
       <r>     6.6295     0.0003   524.0000 </r>
       <r>     6.6843     0.1698   524.0093 </r>
       <r>     6.7392    11.4826   524.6388 </r>
       <r>     6.7940    92.2021   529.6931 </r>
       <r>     6.8488   100.0256   535.1763 </r>
       <r>     6.9036    14.7632   535.9856 </r>
       <r>     6.9584     0.2621   536.0000 </r>
       <r>     7.0133     0.1716   536.0094 </r>
       <r>     7.0681    10.0993   536.5630 </r>
       <r>     7.1229    98.7107   541.9742 </r>
       <r>     7.1777   385.8676   563.1267 </r>
       <r>     7.2325   444.0730   587.4699 </r>
       <r>     7.2873    80.8081   591.8997 </r>
       <r>     7.3422     1.8259   591.9998 </r>
       <r>     7.3970     0.0045   592.0000 </r>
       <r>     7.4518     0.0008   592.0000 </r>
       <r>     7.5066     0.4107   592.0226 </r>
       <r>     7.5614    21.6070   593.2070 </r>
       <r>     7.6163   137.1465   600.7251 </r>
       <r>     7.6711   118.6869   607.2313 </r>
       <r>     7.7259    13.8317   607.9895 </r>
       <r>     7.7807     0.1905   608.0000 </r>
       <r>     7.8355     0.0003   608.0000 </r>
       <r>     7.8903     0.0000   608.0000 </r>
       <r>     7.9452     0.0215   608.0012 </r>
       <r>     8.0000     4.1405   608.2282 </r>
       <r>     8.0548    89.1787   613.1168 </r>
       <r>     8.1096   246.4541   626.6269 </r>
       <r>     8.1644   111.0884   632.7166 </r>
       <r>     8.2193    64.9871   636.2790 </r>
       <r>     8.2741    29.5038   637.8964 </r>
       <r>     8.3289     1.8768   637.9993 </r>
       <r>     8.3837     0.0136   638.0000 </r>
       <r>     8.4385     0.0000   638.0000 </r>
       <r>     8.4933     0.0000   638.0000 </r>
       <r>     8.5482     0.0000   638.0000 </r>
       <r>     8.6030     0.0000   638.0000 </r>
       <r>     8.6578     0.0269   638.0015 </r>
       <r>     8.7126     2.8187   638.1560 </r>
       <r>     8.7674    34.7938   640.0633 </r>
       <r>     8.8223    57.8649   643.2354 </r>
       <r>     8.8771    13.5439   643.9778 </r>
       <r>     8.9319     0.4034   643.9999 </r>
       <r>     8.9867     0.0013   644.0000 </r>
       <r>     9.0415     0.0000   644.0000 </r>
       <r>     9.0963     0.0000   644.0000 </r>
       <r>     9.1512     0.0000   644.0000 </r>
       <r>     9.2060     0.0000   644.0000 </r>
       <r>     9.2608     0.0000   644.0000 </r>
       <r>     9.3156     0.0000   644.0000 </r>
       <r>     9.3704     0.0000   644.0000 </r>
       <r>     9.4253     0.0000   644.0000 </r>
       <r>     9.4801     0.0000   644.0000 </r>
       <r>     9.5349     0.0000   644.0000 </r>
      </set>
     </set>
    </array>
   </total>
  </dos>
 </calculation>
 <structure name="finalpos" >
  <crystal>
   <varray name="basis" >
    <v>       0.00000000      10.93716070      10.93716070 </v>
    <v>      10.93716070       0.00000000      10.93716070 </v>
    <v>      10.93716070      10.93716070       0.00000000 </v>
   </varray>
   <i name="volume">   2616.63878844 </i>
   <varray name="rec_basis" >
    <v>      -0.04571570       0.04571570       0.04571570 </v>
    <v>       0.04571570      -0.04571570       0.04571570 </v>
    <v>       0.04571570       0.04571570      -0.04571570 </v>
   </varray>
  </crystal>
  <varray name="positions" >
   <v>       0.06250000       0.06158569       0.06250000 </v>
   <v>       0.31250000       0.06250000       0.06250000 </v>
   <v>       0.56250000       0.06250000       0.06250000 </v>
   <v>       0.81250000       0.06250000       0.06250000 </v>
   <v>       0.06250000       0.31250000       0.06250000 </v>
   <v>       0.31250000       0.31250000       0.06250000 </v>
   <v>       0.56250000       0.31250000       0.06250000 </v>
   <v>       0.81250000       0.31250000       0.06250000 </v>
   <v>       0.06250000       0.56250000       0.06250000 </v>
   <v>       0.31250000       0.56250000       0.06250000 </v>
   <v>       0.56250000       0.56250000       0.06250000 </v>
   <v>       0.81250000       0.56250000       0.06250000 </v>
   <v>       0.06250000       0.81250000       0.06250000 </v>
   <v>       0.31250000       0.81250000       0.06250000 </v>
   <v>       0.56250000       0.81250000       0.06250000 </v>
   <v>       0.81250000       0.81250000       0.06250000 </v>
   <v>       0.06250000       0.06250000       0.31250000 </v>
   <v>       0.31250000       0.06250000       0.31250000 </v>
   <v>       0.56250000       0.06250000       0.31250000 </v>
   <v>       0.81250000       0.06250000       0.31250000 </v>
   <v>       0.06250000       0.31250000       0.31250000 </v>
   <v>       0.31250000       0.31250000       0.31250000 </v>
   <v>       0.56250000       0.31250000       0.31250000 </v>
   <v>       0.81250000       0.31250000       0.31250000 </v>
   <v>       0.06250000       0.56250000       0.31250000 </v>
   <v>       0.31250000       0.56250000       0.31250000 </v>
   <v>       0.56250000       0.56250000       0.31250000 </v>
   <v>       0.81250000       0.56250000       0.31250000 </v>
   <v>       0.06250000       0.81250000       0.31250000 </v>
   <v>       0.31250000       0.81250000       0.31250000 </v>
   <v>       0.56250000       0.81250000       0.31250000 </v>
   <v>       0.81250000       0.81250000       0.31250000 </v>
   <v>       0.06250000       0.06250000       0.56250000 </v>
   <v>       0.31250000       0.06250000       0.56250000 </v>
   <v>       0.56250000       0.06250000       0.56250000 </v>
   <v>       0.81250000       0.06250000       0.56250000 </v>
   <v>       0.06250000       0.31250000       0.56250000 </v>
   <v>       0.31250000       0.31250000       0.56250000 </v>
   <v>       0.56250000       0.31250000       0.56250000 </v>
   <v>       0.81250000       0.31250000       0.56250000 </v>
   <v>       0.06250000       0.56250000       0.56250000 </v>
   <v>       0.31250000       0.56250000       0.56250000 </v>
   <v>       0.56250000       0.56250000       0.56250000 </v>
   <v>       0.81250000       0.56250000       0.56250000 </v>
   <v>       0.06250000       0.81250000       0.56250000 </v>
   <v>       0.31250000       0.81250000       0.56250000 </v>
   <v>       0.56250000       0.81250000       0.56250000 </v>
   <v>       0.81250000       0.81250000       0.56250000 </v>
   <v>       0.06250000       0.06250000       0.81250000 </v>
   <v>       0.31250000       0.06250000       0.81250000 </v>
   <v>       0.56250000       0.06250000       0.81250000 </v>
   <v>       0.81250000       0.06250000       0.81250000 </v>
   <v>       0.06250000       0.31250000       0.81250000 </v>
   <v>       0.31250000       0.31250000       0.81250000 </v>
   <v>       0.56250000       0.31250000       0.81250000 </v>
   <v>       0.81250000       0.31250000       0.81250000 </v>
   <v>       0.06250000       0.56250000       0.81250000 </v>
   <v>       0.31250000       0.56250000       0.81250000 </v>
   <v>       0.56250000       0.56250000       0.81250000 </v>
   <v>       0.81250000       0.56250000       0.81250000 </v>
   <v>       0.06250000       0.81250000       0.81250000 </v>
   <v>       0.31250000       0.81250000       0.81250000 </v>
   <v>       0.56250000       0.81250000       0.81250000 </v>
   <v>       0.81250000       0.81250000       0.81250000 </v>
   <v>       0.00000000       0.00000000       0.00000000 </v>
   <v>       0.25000000       0.00000000       0.00000000 </v>
   <v>       0.50000000       0.00000000       0.00000000 </v>
   <v>       0.75000000       0.00000000       0.00000000 </v>
   <v>       0.00000000       0.25000000       0.00000000 </v>
   <v>       0.25000000       0.25000000       0.00000000 </v>
   <v>       0.50000000       0.25000000       0.00000000 </v>
   <v>       0.75000000       0.25000000       0.00000000 </v>
   <v>       0.00000000       0.50000000       0.00000000 </v>
   <v>       0.25000000       0.50000000       0.00000000 </v>
   <v>       0.50000000       0.50000000       0.00000000 </v>
   <v>       0.75000000       0.50000000       0.00000000 </v>
   <v>       0.00000000       0.75000000       0.00000000 </v>
   <v>       0.25000000       0.75000000       0.00000000 </v>
   <v>       0.50000000       0.75000000       0.00000000 </v>
   <v>       0.75000000       0.75000000       0.00000000 </v>
   <v>       0.00000000       0.00000000       0.25000000 </v>
   <v>       0.25000000       0.00000000       0.25000000 </v>
   <v>       0.50000000       0.00000000       0.25000000 </v>
   <v>       0.75000000       0.00000000       0.25000000 </v>
   <v>       0.00000000       0.25000000       0.25000000 </v>
   <v>       0.25000000       0.25000000       0.25000000 </v>
   <v>       0.50000000       0.25000000       0.25000000 </v>
   <v>       0.75000000       0.25000000       0.25000000 </v>
   <v>       0.00000000       0.50000000       0.25000000 </v>
   <v>       0.25000000       0.50000000       0.25000000 </v>
   <v>       0.50000000       0.50000000       0.25000000 </v>
   <v>       0.75000000       0.50000000       0.25000000 </v>
   <v>       0.00000000       0.75000000       0.25000000 </v>
   <v>       0.25000000       0.75000000       0.25000000 </v>
   <v>       0.50000000       0.75000000       0.25000000 </v>
   <v>       0.75000000       0.75000000       0.25000000 </v>
   <v>       0.00000000       0.00000000       0.50000000 </v>
   <v>       0.25000000       0.00000000       0.50000000 </v>
   <v>       0.50000000       0.00000000       0.50000000 </v>
   <v>       0.75000000       0.00000000       0.50000000 </v>
   <v>       0.00000000       0.25000000       0.50000000 </v>
   <v>       0.25000000       0.25000000       0.50000000 </v>
   <v>       0.50000000       0.25000000       0.50000000 </v>
   <v>       0.75000000       0.25000000       0.50000000 </v>
   <v>       0.00000000       0.50000000       0.50000000 </v>
   <v>       0.25000000       0.50000000       0.50000000 </v>
   <v>       0.50000000       0.50000000       0.50000000 </v>
   <v>       0.75000000       0.50000000       0.50000000 </v>
   <v>       0.00000000       0.75000000       0.50000000 </v>
   <v>       0.25000000       0.75000000       0.50000000 </v>
   <v>       0.50000000       0.75000000       0.50000000 </v>
   <v>       0.75000000       0.75000000       0.50000000 </v>
   <v>       0.00000000       0.00000000       0.75000000 </v>
   <v>       0.25000000       0.00000000       0.75000000 </v>
   <v>       0.50000000       0.00000000       0.75000000 </v>
   <v>       0.75000000       0.00000000       0.75000000 </v>
   <v>       0.00000000       0.25000000       0.75000000 </v>
   <v>       0.25000000       0.25000000       0.75000000 </v>
   <v>       0.50000000       0.25000000       0.75000000 </v>
   <v>       0.75000000       0.25000000       0.75000000 </v>
   <v>       0.00000000       0.50000000       0.75000000 </v>
   <v>       0.25000000       0.50000000       0.75000000 </v>
   <v>       0.50000000       0.50000000       0.75000000 </v>
   <v>       0.75000000       0.50000000       0.75000000 </v>
   <v>       0.00000000       0.75000000       0.75000000 </v>
   <v>       0.25000000       0.75000000       0.75000000 </v>
   <v>       0.50000000       0.75000000       0.75000000 </v>
   <v>       0.75000000       0.75000000       0.75000000 </v>
  </varray>
 </structure>
</modeling>
