<?xml version="1.0" encoding="ISO-8859-1"?>
<modeling>
 <generator>
  <i name="program" type="string">vasp </i>
  <i name="version" type="string">5.4.4.18Apr17-6-g9f103f2a35  </i>
  <i name="subversion" type="string">(build Aug 16 2020 16:33:06) complex            parallel </i>
  <i name="platform" type="string">LinuxIFC </i>
  <i name="date" type="string">2026 08 15 </i>
  <i name="time" type="string">15:25:29 </i>
 </generator>
 <incar>
  <i type="string" name="PREC">accurate</i>
  <i type="logical" name="ADDGRID"> T  </i>
  <i type="int" name="IBRION">    -1</i>
  <i name="EDIFF">      0.00000001</i>
  <i type="int" name="ISYM">     0</i>
  <i name="ENCUT">    500.00000000</i>
  <i type="logical" name="LREAL"> F  </i>
  <i type="int" name="ISMEAR">     0</i>
  <i name="SIGMA">      0.05000000</i>
  <i type="logical" name="LWAVE"> F  </i>
  <i type="logical" name="LCHARG"> F  </i>
  <v type="int" name="KPOINT_BSE">    -1     0     0     0</v>
 </incar>
 <structure name="primitive_cell" >
  <crystal>
   <varray name="basis" >
    <v>       0.00000000      10.93716070      10.93716070 </v>
    <v>      10.93716070       0.00000000      10.93716070 </v>
    <v>      10.93716070      10.93716070       0.00000000 </v>
   </varray>
   <i name="volume">   2616.63878844 </i>
   <varray name="rec_basis" >
    <v>      -0.04571570       0.04571570       0.04571570 </v>
    <v>       0.04571570      -0.04571570       0.04571570 </v>
    <v>       0.04571570       0.04571570      -0.04571570 </v>
   </varray>
  </crystal>
  <varray name="positions" >
   <v>       0.06295716       0.06204284       0.06295716 </v>
   <v>       0.25000000       0.00000000       0.00000000 </v>
   <v>       0.00000000       0.00000000       0.25000000 </v>
   <v>      -0.00045716       0.00045716       0.00045716 </v>
   <v>       0.00000000       0.25000000       0.00000000 </v>
   <v>       0.31250000       0.06250000       0.06250000 </v>
   <v>       0.31250000      -0.18750000       0.06250000 </v>
   <v>       0.06250000       0.06250000       0.31250000 </v>
   <v>       0.06250000      -0.18750000       0.31250000 </v>
   <v>       0.06250000       0.31250000       0.06250000 </v>
   <v>       0.06250000      -0.18750000       0.06250000 </v>
   <v>      -0.18750000       0.06250000       0.31250000 </v>
   <v>       0.31250000       0.06250000      -0.18750000 </v>
   <v>      -0.18750000       0.06250000       0.06250000 </v>
   <v>      -0.18750000       0.31250000       0.06250000 </v>
   <v>       0.06250000       0.06250000      -0.18750000 </v>
   <v>       0.06250000       0.31250000      -0.18750000 </v>
   <v>       0.25000000       0.00000000       0.25000000 </v>
   <v>       0.25000000      -0.25000000       0.25000000 </v>
   <v>       0.25000000       0.25000000       0.00000000 </v>
   <v>       0.25000000      -0.25000000       0.00000000 </v>
   <v>       0.00000000       0.25000000       0.25000000 </v>
   <v>       0.00000000      -0.25000000       0.25000000 </v>
   <v>      -0.25000000       0.25000000       0.25000000 </v>
   <v>       0.25000000       0.25000000      -0.25000000 </v>
   <v>      -0.25000000       0.00000000       0.25000000 </v>
   <v>       0.25000000       0.00000000      -0.25000000 </v>
   <v>      -0.25000000       0.25000000       0.00000000 </v>
   <v>       0.00000000       0.25000000      -0.25000000 </v>
   <v>       0.31250000      -0.18750000       0.31250000 </v>
   <v>      -0.18750000       0.31250000       0.31250000 </v>
   <v>      -0.18750000      -0.18750000       0.31250000 </v>
   <v>       0.31250000       0.31250000      -0.18750000 </v>
   <v>       0.31250000      -0.18750000      -0.18750000 </v>
   <v>      -0.18750000       0.31250000      -0.18750000 </v>
   <v>      -0.50000000       0.00000000       0.00000000 </v>
   <v>      -0.50000000      -0.25000000       0.00000000 </v>
   <v>       0.00000000       0.00000000      -0.50000000 </v>
   <v>       0.00000000      -0.25000000      -0.50000000 </v>
   <v>      -0.25000000       0.00000000      -0.50000000 </v>
   <v>      -0.50000000       0.00000000      -0.25000000 </v>
   <v>       0.00000000      -0.50000000       0.00000000 </v>
   <v>       0.00000000      -0.25000000       0.00000000 </v>
   <v>      -0.25000000      -0.50000000       0.00000000 </v>
   <v>       0.00000000      -0.50000000      -0.25000000 </v>
   <v>      -0.25000000       0.00000000       0.00000000 </v>
   <v>       0.00000000       0.00000000      -0.25000000 </v>
   <v>      -0.43750000      -0.18750000       0.06250000 </v>
   <v>       0.31250000       0.06250000       0.31250000 </v>
   <v>       0.31250000      -0.43750000       0.31250000 </v>
   <v>       0.06250000      -0.18750000      -0.43750000 </v>
   <v>       0.31250000      -0.43750000       0.06250000 </v>
   <v>       0.06250000       0.31250000       0.31250000 </v>
   <v>      -0.18750000       0.06250000      -0.43750000 </v>
   <v>      -0.43750000      -0.18750000      -0.18750000 </v>
   <v>       0.31250000       0.31250000       0.06250000 </v>
   <v>       0.06250000      -0.43750000       0.31250000 </v>
   <v>      -0.18750000      -0.18750000      -0.43750000 </v>
   <v>      -0.43750000       0.06250000      -0.18750000 </v>
   <v>      -0.18750000      -0.43750000       0.06250000 </v>
   <v>      -0.18750000      -0.18750000       0.06250000 </v>
   <v>      -0.43750000       0.06250000       0.31250000 </v>
   <v>      -0.43750000       0.31250000       0.31250000 </v>
   <v>       0.31250000       0.06250000      -0.43750000 </v>
   <v>       0.31250000       0.31250000      -0.43750000 </v>
   <v>       0.06250000      -0.43750000      -0.18750000 </v>
   <v>       0.06250000      -0.18750000      -0.18750000 </v>
   <v>      -0.43750000       0.31250000       0.06250000 </v>
   <v>       0.06250000       0.31250000      -0.43750000 </v>
   <v>      -0.18750000       0.06250000      -0.18750000 </v>
   <v>      -0.18750000      -0.43750000      -0.18750000 </v>
   <v>      -0.50000000      -0.25000000       0.25000000 </v>
   <v>       0.25000000      -0.25000000      -0.50000000 </v>
   <v>       0.25000000       0.25000000       0.25000000 </v>
   <v>       0.25000000      -0.50000000       0.25000000 </v>
   <v>      -0.25000000       0.25000000      -0.50000000 </v>
   <v>      -0.50000000       0.25000000      -0.25000000 </v>
   <v>      -0.25000000      -0.25000000      -0.50000000 </v>
   <v>      -0.50000000      -0.25000000      -0.25000000 </v>
   <v>       0.25000000      -0.50000000      -0.25000000 </v>
   <v>      -0.25000000      -0.50000000       0.25000000 </v>
   <v>      -0.25000000      -0.25000000       0.25000000 </v>
   <v>       0.25000000      -0.25000000      -0.25000000 </v>
   <v>       0.25000000       0.25000000      -0.50000000 </v>
   <v>      -0.50000000       0.25000000       0.25000000 </v>
   <v>      -0.25000000       0.25000000      -0.25000000 </v>
   <v>      -0.25000000      -0.50000000      -0.25000000 </v>
   <v>      -0.43750000       0.06250000       0.06250000 </v>
   <v>      -0.43750000      -0.43750000       0.06250000 </v>
   <v>       0.06250000       0.06250000      -0.43750000 </v>
   <v>       0.06250000      -0.43750000      -0.43750000 </v>
   <v>       0.06250000      -0.43750000       0.06250000 </v>
   <v>      -0.43750000       0.06250000      -0.43750000 </v>
   <v>      -0.50000000       0.00000000       0.25000000 </v>
   <v>       0.25000000       0.00000000      -0.50000000 </v>
   <v>      -0.50000000      -0.50000000       0.25000000 </v>
   <v>       0.25000000      -0.50000000      -0.50000000 </v>
   <v>      -0.50000000       0.25000000       0.00000000 </v>
   <v>      -0.50000000      -0.50000000       0.00000000 </v>
   <v>       0.00000000       0.25000000      -0.50000000 </v>
   <v>       0.00000000      -0.50000000      -0.50000000 </v>
   <v>       0.25000000      -0.50000000       0.00000000 </v>
   <v>       0.00000000      -0.50000000       0.25000000 </v>
   <v>      -0.50000000       0.00000000      -0.50000000 </v>
   <v>      -0.50000000       0.25000000      -0.50000000 </v>
   <v>      -0.43750000      -0.43750000       0.31250000 </v>
   <v>      -0.43750000      -0.18750000       0.31250000 </v>
   <v>       0.31250000      -0.43750000      -0.43750000 </v>
   <v>       0.31250000      -0.18750000      -0.43750000 </v>
   <v>      -0.18750000       0.31250000      -0.43750000 </v>
   <v>      -0.18750000      -0.43750000      -0.43750000 </v>
   <v>      -0.43750000       0.31250000      -0.18750000 </v>
   <v>      -0.43750000      -0.43750000      -0.18750000 </v>
   <v>      -0.18750000      -0.43750000       0.31250000 </v>
   <v>      -0.43750000       0.31250000      -0.43750000 </v>
   <v>      -0.43750000      -0.18750000      -0.43750000 </v>
   <v>       0.31250000      -0.43750000      -0.18750000 </v>
   <v>      -0.25000000      -0.25000000       0.00000000 </v>
   <v>       0.00000000      -0.25000000      -0.25000000 </v>
   <v>      -0.25000000       0.00000000      -0.25000000 </v>
   <v>      -0.25000000      -0.25000000      -0.25000000 </v>
   <v>       0.31250000       0.31250000       0.31250000 </v>
   <v>      -0.18750000      -0.18750000      -0.18750000 </v>
   <v>      -0.50000000      -0.50000000      -0.50000000 </v>
   <v>      -0.50000000      -0.25000000      -0.50000000 </v>
   <v>      -0.25000000      -0.50000000      -0.50000000 </v>
   <v>      -0.50000000      -0.50000000      -0.25000000 </v>
   <v>      -0.43750000      -0.43750000      -0.43750000 </v>
  </varray>
 </structure>
 <varray name="primitive_index" >
  <v type="int" >        1 </v>
  <v type="int" >       66 </v>
  <v type="int" >       81 </v>
  <v type="int" >       65 </v>
  <v type="int" >       69 </v>
  <v type="int" >        2 </v>
  <v type="int" >       14 </v>
  <v type="int" >       17 </v>
  <v type="int" >       29 </v>
  <v type="int" >        5 </v>
  <v type="int" >       13 </v>
  <v type="int" >       20 </v>
  <v type="int" >       50 </v>
  <v type="int" >        4 </v>
  <v type="int" >        8 </v>
  <v type="int" >       49 </v>
  <v type="int" >       53 </v>
  <v type="int" >       82 </v>
  <v type="int" >       94 </v>
  <v type="int" >       70 </v>
  <v type="int" >       78 </v>
  <v type="int" >       85 </v>
  <v type="int" >       93 </v>
  <v type="int" >       88 </v>
  <v type="int" >      118 </v>
  <v type="int" >       84 </v>
  <v type="int" >      114 </v>
  <v type="int" >       72 </v>
  <v type="int" >      117 </v>
  <v type="int" >       30 </v>
  <v type="int" >       24 </v>
  <v type="int" >       32 </v>
  <v type="int" >       54 </v>
  <v type="int" >       62 </v>
  <v type="int" >       56 </v>
  <v type="int" >       67 </v>
  <v type="int" >       79 </v>
  <v type="int" >       97 </v>
  <v type="int" >      109 </v>
  <v type="int" >      100 </v>
  <v type="int" >      115 </v>
  <v type="int" >       73 </v>
  <v type="int" >       77 </v>
  <v type="int" >       76 </v>
  <v type="int" >      121 </v>
  <v type="int" >       68 </v>
  <v type="int" >      113 </v>
  <v type="int" >       15 </v>
  <v type="int" >       18 </v>
  <v type="int" >       26 </v>
  <v type="int" >       45 </v>
  <v type="int" >       10 </v>
  <v type="int" >       21 </v>
  <v type="int" >       36 </v>
  <v type="int" >       63 </v>
  <v type="int" >        6 </v>
  <v type="int" >       25 </v>
  <v type="int" >       48 </v>
  <v type="int" >       51 </v>
  <v type="int" >       12 </v>
  <v type="int" >       16 </v>
  <v type="int" >       19 </v>
  <v type="int" >       23 </v>
  <v type="int" >       34 </v>
  <v type="int" >       38 </v>
  <v type="int" >       57 </v>
  <v type="int" >       61 </v>
  <v type="int" >        7 </v>
  <v type="int" >       37 </v>
  <v type="int" >       52 </v>
  <v type="int" >       60 </v>
  <v type="int" >       95 </v>
  <v type="int" >      110 </v>
  <v type="int" >       86 </v>
  <v type="int" >       90 </v>
  <v type="int" >      104 </v>
  <v type="int" >      119 </v>
  <v type="int" >      112 </v>
  <v type="int" >      127 </v>
  <v type="int" >      122 </v>
  <v type="int" >       92 </v>
  <v type="int" >       96 </v>
  <v type="int" >      126 </v>
  <v type="int" >      102 </v>
  <v type="int" >       87 </v>
  <v type="int" >      120 </v>
  <v type="int" >      124 </v>
  <v type="int" >        3 </v>
  <v type="int" >       11 </v>
  <v type="int" >       33 </v>
  <v type="int" >       41 </v>
  <v type="int" >        9 </v>
  <v type="int" >       35 </v>
  <v type="int" >       83 </v>
  <v type="int" >       98 </v>
  <v type="int" >       91 </v>
  <v type="int" >      106 </v>
  <v type="int" >       71 </v>
  <v type="int" >       75 </v>
  <v type="int" >      101 </v>
  <v type="int" >      105 </v>
  <v type="int" >       74 </v>
  <v type="int" >       89 </v>
  <v type="int" >       99 </v>
  <v type="int" >      103 </v>
  <v type="int" >       27 </v>
  <v type="int" >       31 </v>
  <v type="int" >       42 </v>
  <v type="int" >       46 </v>
  <v type="int" >       40 </v>
  <v type="int" >       44 </v>
  <v type="int" >       55 </v>
  <v type="int" >       59 </v>
  <v type="int" >       28 </v>
  <v type="int" >       39 </v>
  <v type="int" >       47 </v>
  <v type="int" >       58 </v>
  <v type="int" >       80 </v>
  <v type="int" >      125 </v>
  <v type="int" >      116 </v>
  <v type="int" >      128 </v>
  <v type="int" >       22 </v>
  <v type="int" >       64 </v>
  <v type="int" >      107 </v>
  <v type="int" >      111 </v>
  <v type="int" >      108 </v>
  <v type="int" >      123 </v>
  <v type="int" >       43 </v>
 </varray>
 <kpoints>
  <generation param="Gamma">
   <v type="int" name="divisions">       1        1        1 </v>
   <v name="usershift">      0.00000000       0.00000000       0.00000000 </v>
   <v name="genvec1">      1.00000000       0.00000000       0.00000000 </v>
   <v name="genvec2">      0.00000000       1.00000000       0.00000000 </v>
   <v name="genvec3">      0.00000000       0.00000000       1.00000000 </v>
   <v name="shift">      0.00000000       0.00000000       0.00000000 </v>
  </generation>
  <varray name="kpointlist" >
   <v>       0.00000000       0.00000000       0.00000000 </v>
  </varray>
  <varray name="weights" >
   <v>       1.00000000 </v>
  </varray>
 </kpoints>
 <parameters>
  <separator name="general" >
   <i type="string" name="SYSTEM">unknown system</i>
   <i type="logical" name="LCOMPAT"> F  </i>
  </separator>
  <separator name="electronic" >
   <i type="string" name="PREC">accura</i>
   <i name="ENMAX">    500.00000000</i>
   <i name="ENAUG">    322.06900000</i>
   <i name="EDIFF">      0.00000001</i>
   <i type="int" name="IALGO">    38</i>
   <i type="int" name="IWAVPR">    10</i>
   <i type="int" name="NBANDS">   322</i>
   <i name="NELECT">    512.00000000</i>
   <i type="int" name="TURBO">     0</i>
   <i type="int" name="IRESTART">     0</i>
   <i type="int" name="NREBOOT">     0</i>
   <i type="int" name="NMIN">     0</i>
   <i name="EREF">      0.00000000</i>
   <separator name="electronic smearing" >
    <i type="int" name="ISMEAR">     0</i>
    <i name="SIGMA">      0.05000000</i>
    <i name="KSPACING">      0.50000000</i>
    <i type="logical" name="KGAMMA"> T  </i>
   </separator>
   <separator name="electronic projectors" >
    <i type="logical" name="LREAL"> F  </i>
    <v name="ROPT">      0.00000000</v>
    <i type="int" name="LMAXPAW">  -100</i>
    <i type="int" name="LMAXMIX">     2</i>
    <i type="logical" name="NLSPLINE"> F  </i>
   </separator>
   <separator name="electronic startup" >
    <i type="int" name="ISTART">     0</i>
    <i type="int" name="ICHARG">     2</i>
    <i type="int" name="INIWAV">     1</i>
   </separator>
   <separator name="electronic spin" >
    <i type="int" name="ISPIN">     1</i>
    <i type="logical" name="LNONCOLLINEAR"> F  </i>
    <v name="MAGMOM">      1.00000000      1.00000000      1.00000000      1.00000000      1.00000000      1.00000000      1.00000000      1.00000000      1.00000000      1.00000000      1.00000000      1.00000000      1.00000000      1.00000000      1.00000000      1.00000000      1.00000000      1.00000000      1.00000000      1.00000000
      1.00000000      1.00000000      1.00000000      1.00000000      1.00000000      1.00000000      1.00000000      1.00000000      1.00000000      1.00000000      1.00000000      1.00000000      1.00000000      1.00000000      1.00000000      1.00000000      1.00000000      1.00000000      1.00000000      1.00000000
      1.00000000      1.00000000      1.00000000      1.00000000      1.00000000      1.00000000      1.00000000      1.00000000      1.00000000      1.00000000      1.00000000      1.00000000      1.00000000      1.00000000      1.00000000      1.00000000      1.00000000      1.00000000      1.00000000      1.00000000
      1.00000000      1.00000000      1.00000000      1.00000000      1.00000000      1.00000000      1.00000000      1.00000000      1.00000000      1.00000000      1.00000000      1.00000000      1.00000000      1.00000000      1.00000000      1.00000000      1.00000000      1.00000000      1.00000000      1.00000000
      1.00000000      1.00000000      1.00000000      1.00000000      1.00000000      1.00000000      1.00000000      1.00000000      1.00000000      1.00000000      1.00000000      1.00000000      1.00000000      1.00000000      1.00000000      1.00000000      1.00000000      1.00000000      1.00000000      1.00000000
      1.00000000      1.00000000      1.00000000      1.00000000      1.00000000      1.00000000      1.00000000      1.00000000      1.00000000      1.00000000      1.00000000      1.00000000      1.00000000      1.00000000      1.00000000      1.00000000      1.00000000      1.00000000      1.00000000      1.00000000
      1.00000000      1.00000000      1.00000000      1.00000000      1.00000000      1.00000000      1.00000000      1.00000000</v>
    <i name="NUPDOWN">     -1.00000000</i>
    <i type="logical" name="LSORBIT"> F  </i>
    <v name="SAXIS">      0.00000000      0.00000000      1.00000000</v>
    <i type="logical" name="LSPIRAL"> F  </i>
    <v name="QSPIRAL">      0.00000000      0.00000000      0.00000000</v>
    <i type="logical" name="LZEROZ"> F  </i>
   </separator>
   <separator name="electronic exchange-correlation" >
    <i type="logical" name="LASPH"> F  </i>
    <i type="logical" name="LMETAGGA"> F  </i>
   </separator>
   <separator name="electronic convergence" >
    <i type="int" name="NELM">    60</i>
    <i type="int" name="NELMDL">    -5</i>
    <i type="int" name="NELMIN">     2</i>
    <i name="ENINI">    500.00000000</i>
    <separator name="electronic convergence detail" >
     <i type="logical" name="LDIAG"> T  </i>
     <i type="logical" name="LSUBROT"> F  </i>
     <i name="WEIMIN">      0.00000000</i>
     <i name="EBREAK">      0.00000000</i>
     <i name="DEPER">      0.30000000</i>
     <i type="int" name="NRMM">     4</i>
     <i name="TIME">      0.40000000</i>
    </separator>
   </separator>
   <separator name="electronic mixer" >
    <i name="AMIX">      0.40000000</i>
    <i name="BMIX">      1.00000000</i>
    <i name="AMIN">      0.10000000</i>
    <i name="AMIX_MAG">      1.60000000</i>
    <i name="BMIX_MAG">      1.00000000</i>
    <separator name="electronic mixer details" >
     <i type="int" name="IMIX">     4</i>
     <i type="logical" name="MIXFIRST"> F  </i>
     <i type="int" name="MAXMIX">   -45</i>
     <i name="WC">    100.00000000</i>
     <i type="int" name="INIMIX">     1</i>
     <i type="int" name="MIXPRE">     1</i>
     <i type="int" name="MREMOVE">     5</i>
    </separator>
   </separator>
   <separator name="electronic dipolcorrection" >
    <i type="logical" name="LDIPOL"> F  </i>
    <i type="logical" name="LMONO"> F  </i>
    <i type="int" name="IDIPOL">     0</i>
    <i name="EPSILON">      1.00000000</i>
    <v name="DIPOL">   -100.00000000   -100.00000000   -100.00000000</v>
    <i name="EFIELD">      0.00000000</i>
   </separator>
  </separator>
  <separator name="grids" >
   <i type="int" name="NGX">   120</i>
   <i type="int" name="NGY">   120</i>
   <i type="int" name="NGZ">   120</i>
   <i type="int" name="NGXF">   240</i>
   <i type="int" name="NGYF">   240</i>
   <i type="int" name="NGZF">   240</i>
   <i type="logical" name="ADDGRID"> T  </i>
  </separator>
  <separator name="ionic" >
   <i type="int" name="NSW">     0</i>
   <i type="int" name="IBRION">    -1</i>
   <i type="int" name="MDALGO">     0</i>
   <i type="int" name="ISIF">     2</i>
   <i name="PSTRESS">      0.00000000</i>
   <i name="EDIFFG">      0.00000010</i>
   <i type="int" name="NFREE">     0</i>
   <i name="POTIM">      0.50000000</i>
   <i name="SMASS">     -3.00000000</i>
   <i name="SCALEE">      1.00000000</i>
  </separator>
  <separator name="ionic md" >
   <i name="TEBEG">      0.00010000</i>
   <i name="TEEND">      0.00010000</i>
   <i type="int" name="NBLOCK">     1</i>
   <i type="int" name="KBLOCK">     1</i>
   <i type="int" name="NPACO">   256</i>
   <i name="APACO">     16.00000000</i>
  </separator>
  <separator name="symmetry" >
   <i type="int" name="ISYM">     0</i>
   <i name="SYMPREC">      0.00001000</i>
  </separator>
  <separator name="dos" >
   <i type="int" name="LORBIT">     0</i>
   <v name="RWIGS">     -1.00000000</v>
   <i type="int" name="NEDOS">   301</i>
   <i name="EMIN">     10.00000000</i>
   <i name="EMAX">    -10.00000000</i>
   <i name="EFERMI">      0.00000000</i>
  </separator>
  <separator name="writing" >
   <i type="int" name="NWRITE">     2</i>
   <i type="logical" name="LWAVE"> F  </i>
   <i type="logical" name="LDOWNSAMPLE"> F  </i>
   <i type="logical" name="LCHARG"> F  </i>
   <i type="logical" name="LPARD"> F  </i>
   <i type="logical" name="LVTOT"> F  </i>
   <i type="logical" name="LVHAR"> F  </i>
   <i type="logical" name="LELF"> F  </i>
   <i type="logical" name="LOPTICS"> F  </i>
   <v name="STM">      0.00000000      0.00000000      0.00000000      0.00000000      0.00000000      0.00000000      0.00000000</v>
  </separator>
  <separator name="performance" >
   <i type="int" name="NPAR">     2</i>
   <i type="int" name="NSIM">     4</i>
   <i type="int" name="NBLK">    -1</i>
   <i type="logical" name="LPLANE"> T  </i>
   <i type="logical" name="LSCALAPACK"> T  </i>
   <i type="logical" name="LSCAAWARE"> F  </i>
   <i type="logical" name="LSCALU"> F  </i>
   <i type="logical" name="LASYNC"> F  </i>
   <i type="logical" name="LORBITALREAL"> F  </i>
  </separator>
  <separator name="miscellaneous" >
   <i type="int" name="IDIOT">     3</i>
   <i type="int" name="ISPECIAL">     0</i>
   <i type="logical" name="LMUSIC"> F  </i>
   <v name="POMASS">     28.08500000</v>
   <v name="DARWINR">      0.00000000</v>
   <v name="DARWINV">      1.00000000</v>
   <i type="logical" name="LCORR"> T  </i>
  </separator>
  <i type="logical" name="GGA_COMPAT"> T  </i>
  <i type="logical" name="LBERRY"> F  </i>
  <i type="int" name="ICORELEVEL">     0</i>
  <i type="logical" name="LDAU"> F  </i>
  <i type="int" name="I_CONSTRAINED_M">     0</i>
  <separator name="electronic exchange-correlation" >
   <i type="string" name="GGA">--</i>
   <i type="int" name="VOSKOWN">     0</i>
   <i type="logical" name="LHFCALC"> F  </i>
   <i type="string" name="PRECFOCK"></i>
   <i type="logical" name="LSYMGRAD"> F  </i>
   <i type="logical" name="LHFONE"> F  </i>
   <i type="logical" name="LRHFCALC"> F  </i>
   <i type="logical" name="LTHOMAS"> F  </i>
   <i type="logical" name="LMODELHF"> F  </i>
   <i name="ENCUT4O">     -1.00000000</i>
   <i type="int" name="EXXOEP">     0</i>
   <i type="int" name="FOURORBIT">     0</i>
   <i name="AEXX">      0.00000000</i>
   <i name="HFALPHA">      0.00000000</i>
   <i name="MCALPHA">      0.00000000</i>
   <i name="ALDAX">      1.00000000</i>
   <i name="AGGAX">      1.00000000</i>
   <i name="ALDAC">      1.00000000</i>
   <i name="AGGAC">      1.00000000</i>
   <i type="int" name="NKREDX">     1</i>
   <i type="int" name="NKREDY">     1</i>
   <i type="int" name="NKREDZ">     1</i>
   <i type="logical" name="SHIFTRED"> F  </i>
   <i type="logical" name="ODDONLY"> F  </i>
   <i type="logical" name="EVENONLY"> F  </i>
   <i type="int" name="LMAXFOCK">     0</i>
   <i type="int" name="NMAXFOCKAE">     0</i>
   <i type="logical" name="LFOCKAEDFT"> F  </i>
   <i name="HFSCREEN">      0.00000000</i>
   <i name="HFSCREENC">      0.00000000</i>
   <i type="int" name="NBANDSGWLOW">     0</i>
  </separator>
  <separator name="vdW DFT" >
   <i type="logical" name="LUSE_VDW"> F  </i>
   <i name="Zab_VDW">     -0.84910000</i>
   <i name="PARAM1">      0.12340000</i>
   <i name="PARAM2">      1.00000000</i>
   <i name="PARAM3">      0.00000000</i>
  </separator>
  <separator name="model GW" >
   <i type="int" name="MODEL_GW">     0</i>
   <i name="MODEL_EPS0">     12.26549432</i>
   <i name="MODEL_ALPHA">      1.00000000</i>
  </separator>
  <separator name="linear response parameters" >
   <i type="logical" name="LEPSILON"> F  </i>
   <i type="logical" name="LRPA"> F  </i>
   <i type="logical" name="LNABLA"> F  </i>
   <i type="logical" name="LVEL"> F  </i>
   <i type="int" name="KINTER">     0</i>
   <i name="CSHIFT">      0.10000000</i>
   <i name="OMEGAMAX">     -1.00000000</i>
   <i name="DEG_THRESHOLD">      0.00200000</i>
   <i name="RTIME">     -0.10000000</i>
   <i name="WPLASMAI">      0.00000000</i>
   <v name="DFIELD">      0.00000000      0.00000000      0.00000000</v>
   <v name="WPLASMA">      0.00000000      0.00000000      0.00000000      0.00000000      0.00000000      0.00000000      0.00000000      0.00000000      0.00000000</v>
  </separator>
  <separator name="orbital magnetization" >
   <i type="logical" name="NUCIND"> F  </i>
   <v name="MAGPOS">      0.00000000      0.00000000      0.00000000</v>
   <i type="logical" name="LNICSALL"> T  </i>
   <i type="logical" name="ORBITALMAG"> F  </i>
   <i type="logical" name="LMAGBLOCH"> F  </i>
   <i type="logical" name="LCHIMAG"> F  </i>
   <i type="logical" name="LGAUGE"> T  </i>
   <i type="int" name="MAGATOM">     0</i>
   <v name="MAGDIPOL">      0.00000000      0.00000000      0.00000000</v>
   <v name="AVECCONST">      0.00000000      0.00000000      0.00000000</v>
  </separator>
  <separator name="response functions" >
   <i type="logical" name="LADDER"> F  </i>
   <i type="logical" name="LRPAFORCE"> F  </i>
   <i type="logical" name="LFXC"> F  </i>
   <i type="logical" name="LHARTREE"> T  </i>
   <i type="int" name="IBSE">     0</i>
   <v type="int" name="KPOINT">    -1     0     0     0</v>
   <i type="logical" name="LTCTE"> F  </i>
   <i type="logical" name="LTETE"> F  </i>
   <i type="logical" name="LTRIPLET"> F  </i>
   <i type="logical" name="LFXCEPS"> F  </i>
   <i type="logical" name="LFXHEG"> F  </i>
   <i type="int" name="NATURALO">     2</i>
   <i type="logical" name="L2ORDER"> F  </i>
   <i type="logical" name="LMP2LT"> F  </i>
   <i type="logical" name="LUSEW"> F  </i>
   <i name="ENCUTGW">     -2.00000000</i>
   <i name="ENCUTGWSOFT">     -2.00000000</i>
   <i name="ENCUTLF">     -1.00000000</i>
   <i type="int" name="LMAXMP2">    -1</i>
   <i name="SCISSOR">      0.00000000</i>
   <i type="int" name="NOMEGA">     0</i>
   <i type="int" name="NOMEGAR">     0</i>
   <i type="int" name="NBANDSGW">    -1</i>
   <i type="int" name="NBANDSO">    -1</i>
   <i type="int" name="NBANDSV">    -1</i>
   <i type="int" name="NELM">     1</i>
   <i type="int" name="NELMHF">     1</i>
   <i type="int" name="DIM">     3</i>
   <i type="int" name="ANTIRES">     0</i>
   <i name="OMEGAMAX">    -30.00000000</i>
   <i name="OMEGAMIN">    -30.00000000</i>
   <i name="OMEGATL">   -200.00000000</i>
   <i type="int" name="OMEGAGRID">   140</i>
   <i name="CSHIFT">     -0.10000000</i>
   <i type="logical" name="SELFENERGY"> F  </i>
   <i type="logical" name="LSPECTRAL"> F  </i>
   <i type="logical" name="LSPECTRALGW"> F  </i>
   <i type="logical" name="LSINGLES"> F  </i>
   <i type="logical" name="LFERMIGW"> F  </i>
   <i type="logical" name="ODDONLYGW"> F  </i>
   <i type="logical" name="EVENONLYGW"> F  </i>
   <i type="int" name="NKREDLFX">     1</i>
   <i type="int" name="NKREDLFY">     1</i>
   <i type="int" name="NKREDLFZ">     1</i>
   <i type="int" name="MAXMEM">  2800</i>
   <i type="int" name="TELESCOPE">     0</i>
   <i type="int" name="TAUPAR">     1</i>
   <i type="int" name="OMEGAPAR">    -1</i>
   <i name="LAMBDA">      1.00000000</i>
  </separator>
  <separator name="External order field" >
   <i name="OFIELD_KAPPA">      0.00000000</i>
   <v name="OFIELD_K">      0.00000000      0.00000000      0.00000000</v>
   <i name="OFIELD_Q6_NEAR">      0.00000000</i>
   <i name="OFIELD_Q6_FAR">      0.00000000</i>
   <i name="OFIELD_A">      0.00000000</i>
  </separator>
 </parameters>
 <atominfo>
  <atoms>     128 </atoms>
  <types>       1 </types>
  <array name="atoms" >
   <dimension dim="1">ion</dimension>
   <field type="string">element</field>
   <field type="int">atomtype</field>
   <set>
    <rc><c>Si</c><c>   1</c></rc>
    <rc><c>Si</c><c>   1</c></rc>
    <rc><c>Si</c><c>   1</c></rc>
    <rc><c>Si</c><c>   1</c></rc>
    <rc><c>Si</c><c>   1</c></rc>
    <rc><c>Si</c><c>   1</c></rc>
    <rc><c>Si</c><c>   1</c></rc>
    <rc><c>Si</c><c>   1</c></rc>
    <rc><c>Si</c><c>   1</c></rc>
    <rc><c>Si</c><c>   1</c></rc>
    <rc><c>Si</c><c>   1</c></rc>
    <rc><c>Si</c><c>   1</c></rc>
    <rc><c>Si</c><c>   1</c></rc>
    <rc><c>Si</c><c>   1</c></rc>
    <rc><c>Si</c><c>   1</c></rc>
    <rc><c>Si</c><c>   1</c></rc>
    <rc><c>Si</c><c>   1</c></rc>
    <rc><c>Si</c><c>   1</c></rc>
    <rc><c>Si</c><c>   1</c></rc>
    <rc><c>Si</c><c>   1</c></rc>
    <rc><c>Si</c><c>   1</c></rc>
    <rc><c>Si</c><c>   1</c></rc>
    <rc><c>Si</c><c>   1</c></rc>
    <rc><c>Si</c><c>   1</c></rc>
    <rc><c>Si</c><c>   1</c></rc>
    <rc><c>Si</c><c>   1</c></rc>
    <rc><c>Si</c><c>   1</c></rc>
    <rc><c>Si</c><c>   1</c></rc>
    <rc><c>Si</c><c>   1</c></rc>
    <rc><c>Si</c><c>   1</c></rc>
    <rc><c>Si</c><c>   1</c></rc>
    <rc><c>Si</c><c>   1</c></rc>
    <rc><c>Si</c><c>   1</c></rc>
    <rc><c>Si</c><c>   1</c></rc>
    <rc><c>Si</c><c>   1</c></rc>
    <rc><c>Si</c><c>   1</c></rc>
    <rc><c>Si</c><c>   1</c></rc>
    <rc><c>Si</c><c>   1</c></rc>
    <rc><c>Si</c><c>   1</c></rc>
    <rc><c>Si</c><c>   1</c></rc>
    <rc><c>Si</c><c>   1</c></rc>
    <rc><c>Si</c><c>   1</c></rc>
    <rc><c>Si</c><c>   1</c></rc>
    <rc><c>Si</c><c>   1</c></rc>
    <rc><c>Si</c><c>   1</c></rc>
    <rc><c>Si</c><c>   1</c></rc>
    <rc><c>Si</c><c>   1</c></rc>
    <rc><c>Si</c><c>   1</c></rc>
    <rc><c>Si</c><c>   1</c></rc>
    <rc><c>Si</c><c>   1</c></rc>
    <rc><c>Si</c><c>   1</c></rc>
    <rc><c>Si</c><c>   1</c></rc>
    <rc><c>Si</c><c>   1</c></rc>
    <rc><c>Si</c><c>   1</c></rc>
    <rc><c>Si</c><c>   1</c></rc>
    <rc><c>Si</c><c>   1</c></rc>
    <rc><c>Si</c><c>   1</c></rc>
    <rc><c>Si</c><c>   1</c></rc>
    <rc><c>Si</c><c>   1</c></rc>
    <rc><c>Si</c><c>   1</c></rc>
    <rc><c>Si</c><c>   1</c></rc>
    <rc><c>Si</c><c>   1</c></rc>
    <rc><c>Si</c><c>   1</c></rc>
    <rc><c>Si</c><c>   1</c></rc>
    <rc><c>Si</c><c>   1</c></rc>
    <rc><c>Si</c><c>   1</c></rc>
    <rc><c>Si</c><c>   1</c></rc>
    <rc><c>Si</c><c>   1</c></rc>
    <rc><c>Si</c><c>   1</c></rc>
    <rc><c>Si</c><c>   1</c></rc>
    <rc><c>Si</c><c>   1</c></rc>
    <rc><c>Si</c><c>   1</c></rc>
    <rc><c>Si</c><c>   1</c></rc>
    <rc><c>Si</c><c>   1</c></rc>
    <rc><c>Si</c><c>   1</c></rc>
    <rc><c>Si</c><c>   1</c></rc>
    <rc><c>Si</c><c>   1</c></rc>
    <rc><c>Si</c><c>   1</c></rc>
    <rc><c>Si</c><c>   1</c></rc>
    <rc><c>Si</c><c>   1</c></rc>
    <rc><c>Si</c><c>   1</c></rc>
    <rc><c>Si</c><c>   1</c></rc>
    <rc><c>Si</c><c>   1</c></rc>
    <rc><c>Si</c><c>   1</c></rc>
    <rc><c>Si</c><c>   1</c></rc>
    <rc><c>Si</c><c>   1</c></rc>
    <rc><c>Si</c><c>   1</c></rc>
    <rc><c>Si</c><c>   1</c></rc>
    <rc><c>Si</c><c>   1</c></rc>
    <rc><c>Si</c><c>   1</c></rc>
    <rc><c>Si</c><c>   1</c></rc>
    <rc><c>Si</c><c>   1</c></rc>
    <rc><c>Si</c><c>   1</c></rc>
    <rc><c>Si</c><c>   1</c></rc>
    <rc><c>Si</c><c>   1</c></rc>
    <rc><c>Si</c><c>   1</c></rc>
    <rc><c>Si</c><c>   1</c></rc>
    <rc><c>Si</c><c>   1</c></rc>
    <rc><c>Si</c><c>   1</c></rc>
    <rc><c>Si</c><c>   1</c></rc>
    <rc><c>Si</c><c>   1</c></rc>
    <rc><c>Si</c><c>   1</c></rc>
    <rc><c>Si</c><c>   1</c></rc>
    <rc><c>Si</c><c>   1</c></rc>
    <rc><c>Si</c><c>   1</c></rc>
    <rc><c>Si</c><c>   1</c></rc>
    <rc><c>Si</c><c>   1</c></rc>
    <rc><c>Si</c><c>   1</c></rc>
    <rc><c>Si</c><c>   1</c></rc>
    <rc><c>Si</c><c>   1</c></rc>
    <rc><c>Si</c><c>   1</c></rc>
    <rc><c>Si</c><c>   1</c></rc>
    <rc><c>Si</c><c>   1</c></rc>
    <rc><c>Si</c><c>   1</c></rc>
    <rc><c>Si</c><c>   1</c></rc>
    <rc><c>Si</c><c>   1</c></rc>
    <rc><c>Si</c><c>   1</c></rc>
    <rc><c>Si</c><c>   1</c></rc>
    <rc><c>Si</c><c>   1</c></rc>
    <rc><c>Si</c><c>   1</c></rc>
    <rc><c>Si</c><c>   1</c></rc>
    <rc><c>Si</c><c>   1</c></rc>
    <rc><c>Si</c><c>   1</c></rc>
    <rc><c>Si</c><c>   1</c></rc>
    <rc><c>Si</c><c>   1</c></rc>
    <rc><c>Si</c><c>   1</c></rc>
    <rc><c>Si</c><c>   1</c></rc>
    <rc><c>Si</c><c>   1</c></rc>
   </set>
  </array>
  <array name="atomtypes" >
   <dimension dim="1">type</dimension>
   <field type="int">atomspertype</field>
   <field type="string">element</field>
   <field>mass</field>
   <field>valence</field>
   <field type="string">pseudopotential</field>
   <set>
    <rc><c> 128</c><c>Si</c><c>     28.08500000</c><c>      4.00000000</c><c> PAW_PBE Si 05Jan2001                   </c></rc>
   </set>
  </array>
 </atominfo>
 <structure name="initialpos" >
  <crystal>
   <varray name="basis" >
    <v>       0.00000000      10.93716070      10.93716070 </v>
    <v>      10.93716070       0.00000000      10.93716070 </v>
    <v>      10.93716070      10.93716070       0.00000000 </v>
   </varray>
   <i name="volume">   2616.63878844 </i>
   <varray name="rec_basis" >
    <v>      -0.04571570       0.04571570       0.04571570 </v>
    <v>       0.04571570      -0.04571570       0.04571570 </v>
    <v>       0.04571570       0.04571570      -0.04571570 </v>
   </varray>
  </crystal>
  <varray name="positions" >
   <v>       0.06295716       0.06204284       0.06295716 </v>
   <v>       0.31250000       0.06250000       0.06250000 </v>
   <v>       0.56250000       0.06250000       0.06250000 </v>
   <v>       0.81250000       0.06250000       0.06250000 </v>
   <v>       0.06250000       0.31250000       0.06250000 </v>
   <v>       0.31250000       0.31250000       0.06250000 </v>
   <v>       0.56250000       0.31250000       0.06250000 </v>
   <v>       0.81250000       0.31250000       0.06250000 </v>
   <v>       0.06250000       0.56250000       0.06250000 </v>
   <v>       0.31250000       0.56250000       0.06250000 </v>
   <v>       0.56250000       0.56250000       0.06250000 </v>
   <v>       0.81250000       0.56250000       0.06250000 </v>
   <v>       0.06250000       0.81250000       0.06250000 </v>
   <v>       0.31250000       0.81250000       0.06250000 </v>
   <v>       0.56250000       0.81250000       0.06250000 </v>
   <v>       0.81250000       0.81250000       0.06250000 </v>
   <v>       0.06250000       0.06250000       0.31250000 </v>
   <v>       0.31250000       0.06250000       0.31250000 </v>
   <v>       0.56250000       0.06250000       0.31250000 </v>
   <v>       0.81250000       0.06250000       0.31250000 </v>
   <v>       0.06250000       0.31250000       0.31250000 </v>
   <v>       0.31250000       0.31250000       0.31250000 </v>
   <v>       0.56250000       0.31250000       0.31250000 </v>
   <v>       0.81250000       0.31250000       0.31250000 </v>
   <v>       0.06250000       0.56250000       0.31250000 </v>
   <v>       0.31250000       0.56250000       0.31250000 </v>
   <v>       0.56250000       0.56250000       0.31250000 </v>
   <v>       0.81250000       0.56250000       0.31250000 </v>
   <v>       0.06250000       0.81250000       0.31250000 </v>
   <v>       0.31250000       0.81250000       0.31250000 </v>
   <v>       0.56250000       0.81250000       0.31250000 </v>
   <v>       0.81250000       0.81250000       0.31250000 </v>
   <v>       0.06250000       0.06250000       0.56250000 </v>
   <v>       0.31250000       0.06250000       0.56250000 </v>
   <v>       0.56250000       0.06250000       0.56250000 </v>
   <v>       0.81250000       0.06250000       0.56250000 </v>
   <v>       0.06250000       0.31250000       0.56250000 </v>
   <v>       0.31250000       0.31250000       0.56250000 </v>
   <v>       0.56250000       0.31250000       0.56250000 </v>
   <v>       0.81250000       0.31250000       0.56250000 </v>
   <v>       0.06250000       0.56250000       0.56250000 </v>
   <v>       0.31250000       0.56250000       0.56250000 </v>
   <v>       0.56250000       0.56250000       0.56250000 </v>
   <v>       0.81250000       0.56250000       0.56250000 </v>
   <v>       0.06250000       0.81250000       0.56250000 </v>
   <v>       0.31250000       0.81250000       0.56250000 </v>
   <v>       0.56250000       0.81250000       0.56250000 </v>
   <v>       0.81250000       0.81250000       0.56250000 </v>
   <v>       0.06250000       0.06250000       0.81250000 </v>
   <v>       0.31250000       0.06250000       0.81250000 </v>
   <v>       0.56250000       0.06250000       0.81250000 </v>
   <v>       0.81250000       0.06250000       0.81250000 </v>
   <v>       0.06250000       0.31250000       0.81250000 </v>
   <v>       0.31250000       0.31250000       0.81250000 </v>
   <v>       0.56250000       0.31250000       0.81250000 </v>
   <v>       0.81250000       0.31250000       0.81250000 </v>
   <v>       0.06250000       0.56250000       0.81250000 </v>
   <v>       0.31250000       0.56250000       0.81250000 </v>
   <v>       0.56250000       0.56250000       0.81250000 </v>
   <v>       0.81250000       0.56250000       0.81250000 </v>
   <v>       0.06250000       0.81250000       0.81250000 </v>
   <v>       0.31250000       0.81250000       0.81250000 </v>
   <v>       0.56250000       0.81250000       0.81250000 </v>
   <v>       0.81250000       0.81250000       0.81250000 </v>
   <v>       0.99954284       0.00045716       0.00045716 </v>
   <v>       0.25000000       0.00000000       0.00000000 </v>
   <v>       0.50000000       0.00000000       0.00000000 </v>
   <v>       0.75000000       0.00000000       0.00000000 </v>
   <v>       0.00000000       0.25000000       0.00000000 </v>
   <v>       0.25000000       0.25000000       0.00000000 </v>
   <v>       0.50000000       0.25000000       0.00000000 </v>
   <v>       0.75000000       0.25000000       0.00000000 </v>
   <v>       0.00000000       0.50000000       0.00000000 </v>
   <v>       0.25000000       0.50000000       0.00000000 </v>
   <v>       0.50000000       0.50000000       0.00000000 </v>
   <v>       0.75000000       0.50000000       0.00000000 </v>
   <v>       0.00000000       0.75000000       0.00000000 </v>
   <v>       0.25000000       0.75000000       0.00000000 </v>
   <v>       0.50000000       0.75000000       0.00000000 </v>
   <v>       0.75000000       0.75000000       0.00000000 </v>
   <v>       0.00000000       0.00000000       0.25000000 </v>
   <v>       0.25000000       0.00000000       0.25000000 </v>
   <v>       0.50000000       0.00000000       0.25000000 </v>
   <v>       0.75000000       0.00000000       0.25000000 </v>
   <v>       0.00000000       0.25000000       0.25000000 </v>
   <v>       0.25000000       0.25000000       0.25000000 </v>
   <v>       0.50000000       0.25000000       0.25000000 </v>
   <v>       0.75000000       0.25000000       0.25000000 </v>
   <v>       0.00000000       0.50000000       0.25000000 </v>
   <v>       0.25000000       0.50000000       0.25000000 </v>
   <v>       0.50000000       0.50000000       0.25000000 </v>
   <v>       0.75000000       0.50000000       0.25000000 </v>
   <v>       0.00000000       0.75000000       0.25000000 </v>
   <v>       0.25000000       0.75000000       0.25000000 </v>
   <v>       0.50000000       0.75000000       0.25000000 </v>
   <v>       0.75000000       0.75000000       0.25000000 </v>
   <v>       0.00000000       0.00000000       0.50000000 </v>
   <v>       0.25000000       0.00000000       0.50000000 </v>
   <v>       0.50000000       0.00000000       0.50000000 </v>
   <v>       0.75000000       0.00000000       0.50000000 </v>
   <v>       0.00000000       0.25000000       0.50000000 </v>
   <v>       0.25000000       0.25000000       0.50000000 </v>
   <v>       0.50000000       0.25000000       0.50000000 </v>
   <v>       0.75000000       0.25000000       0.50000000 </v>
   <v>       0.00000000       0.50000000       0.50000000 </v>
   <v>       0.25000000       0.50000000       0.50000000 </v>
   <v>       0.50000000       0.50000000       0.50000000 </v>
   <v>       0.75000000       0.50000000       0.50000000 </v>
   <v>       0.00000000       0.75000000       0.50000000 </v>
   <v>       0.25000000       0.75000000       0.50000000 </v>
   <v>       0.50000000       0.75000000       0.50000000 </v>
   <v>       0.75000000       0.75000000       0.50000000 </v>
   <v>       0.00000000       0.00000000       0.75000000 </v>
   <v>       0.25000000       0.00000000       0.75000000 </v>
   <v>       0.50000000       0.00000000       0.75000000 </v>
   <v>       0.75000000       0.00000000       0.75000000 </v>
   <v>       0.00000000       0.25000000       0.75000000 </v>
   <v>       0.25000000       0.25000000       0.75000000 </v>
   <v>       0.50000000       0.25000000       0.75000000 </v>
   <v>       0.75000000       0.25000000       0.75000000 </v>
   <v>       0.00000000       0.50000000       0.75000000 </v>
   <v>       0.25000000       0.50000000       0.75000000 </v>
   <v>       0.50000000       0.50000000       0.75000000 </v>
   <v>       0.75000000       0.50000000       0.75000000 </v>
   <v>       0.00000000       0.75000000       0.75000000 </v>
   <v>       0.25000000       0.75000000       0.75000000 </v>
   <v>       0.50000000       0.75000000       0.75000000 </v>
   <v>       0.75000000       0.75000000       0.75000000 </v>
  </varray>
 </structure>
 <calculation>
  <scstep>
   <time name="dav">    4.78    4.79</time>
   <time name="total">    5.29    5.31</time>
   <energy>
    <i name="alphaZ">    210.78028765 </i>
    <i name="ewald"> -14524.86695560 </i>
    <i name="hartreedc">   -724.61967200 </i>
    <i name="XCdc">  -1195.83151382 </i>
    <i name="pawpsdc">   4221.13331941 </i>
    <i name="pawaedc">  -1969.18571412 </i>
    <i name="eentropy">     -0.01611018 </i>
    <i name="bandstr">   2165.00961915 </i>
    <i name="atom">  13192.48085998 </i>
    <i name="e_fr_energy">   1374.88412048 </i>
    <i name="e_wo_entrp">   1374.90023066 </i>
    <i name="e_0_energy">   1374.89217557 </i>
   </energy>
  </scstep>
  <scstep>
   <time name="dav">    5.39    5.40</time>
   <time name="total">    5.39    5.40</time>
   <energy>
    <i name="e_fr_energy">   -537.02306135 </i>
    <i name="e_wo_entrp">   -537.02305949 </i>
    <i name="e_0_energy">   -537.02306042 </i>
   </energy>
  </scstep>
  <scstep>
   <time name="dav">    5.43    5.45</time>
   <time name="total">    5.43    5.45</time>
   <energy>
    <i name="e_fr_energy">   -690.02457859 </i>
    <i name="e_wo_entrp">   -690.02457859 </i>
    <i name="e_0_energy">   -690.02457859 </i>
   </energy>
  </scstep>
  <scstep>
   <time name="dav">    5.34    5.35</time>
   <time name="total">    5.34    5.35</time>
   <energy>
    <i name="e_fr_energy">   -694.53346752 </i>
    <i name="e_wo_entrp">   -694.53346752 </i>
    <i name="e_0_energy">   -694.53346752 </i>
   </energy>
  </scstep>
  <scstep>
   <time name="dav">    5.35    5.37</time>
   <time name="total">    5.86    5.88</time>
   <energy>
    <i name="e_fr_energy">   -694.69976942 </i>
    <i name="e_wo_entrp">   -694.69976942 </i>
    <i name="e_0_energy">   -694.69976942 </i>
   </energy>
  </scstep>
  <scstep>
   <time name="dav">    4.94    4.95</time>
   <time name="total">    5.93    6.06</time>
   <energy>
    <i name="e_fr_energy">   -686.30006280 </i>
    <i name="e_wo_entrp">   -686.30006280 </i>
    <i name="e_0_energy">   -686.30006280 </i>
   </energy>
  </scstep>
  <scstep>
   <time name="dav">    4.91    4.92</time>
   <time name="total">    5.89    5.91</time>
   <energy>
    <i name="e_fr_energy">   -682.42717115 </i>
    <i name="e_wo_entrp">   -682.42717115 </i>
    <i name="e_0_energy">   -682.42717115 </i>
   </energy>
  </scstep>
  <scstep>
   <time name="dav">    4.99    5.00</time>
   <time name="total">    5.98    5.99</time>
   <energy>
    <i name="e_fr_energy">   -682.55930076 </i>
    <i name="e_wo_entrp">   -682.55930076 </i>
    <i name="e_0_energy">   -682.55930076 </i>
   </energy>
  </scstep>
  <scstep>
   <time name="dav">    5.43    5.44</time>
   <time name="total">    6.42   25.41</time>
   <energy>
    <i name="e_fr_energy">   -682.56570010 </i>
    <i name="e_wo_entrp">   -682.56570010 </i>
    <i name="e_0_energy">   -682.56570010 </i>
   </energy>
  </scstep>
  <scstep>
   <time name="dav">    4.95    4.96</time>
   <time name="total">    5.93    5.95</time>
   <energy>
    <i name="e_fr_energy">   -682.56838483 </i>
    <i name="e_wo_entrp">   -682.56838483 </i>
    <i name="e_0_energy">   -682.56838483 </i>
   </energy>
  </scstep>
  <scstep>
   <time name="dav">    5.35    5.36</time>
   <time name="total">    6.33    6.35</time>
   <energy>
    <i name="e_fr_energy">   -682.56839786 </i>
    <i name="e_wo_entrp">   -682.56839786 </i>
    <i name="e_0_energy">   -682.56839786 </i>
   </energy>
  </scstep>
  <scstep>
   <time name="dav">    5.34    5.35</time>
   <time name="total">    6.32    6.33</time>
   <energy>
    <i name="e_fr_energy">   -682.56840356 </i>
    <i name="e_wo_entrp">   -682.56840356 </i>
    <i name="e_0_energy">   -682.56840356 </i>
   </energy>
  </scstep>
  <scstep>
   <time name="dav">    5.35    5.36</time>
   <time name="total">    6.33    6.35</time>
   <energy>
    <i name="e_fr_energy">   -682.56839923 </i>
    <i name="e_wo_entrp">   -682.56839923 </i>
    <i name="e_0_energy">   -682.56839923 </i>
   </energy>
  </scstep>
  <scstep>
   <time name="dav">    5.25    5.26</time>
   <time name="total">    6.23    6.25</time>
   <energy>
    <i name="e_fr_energy">   -682.56839974 </i>
    <i name="e_wo_entrp">   -682.56839974 </i>
    <i name="e_0_energy">   -682.56839974 </i>
   </energy>
  </scstep>
  <scstep>
   <time name="dav">    3.84    3.85</time>
   <time name="total">    4.83    4.84</time>
   <energy>
    <i name="e_fr_energy">   -682.56839871 </i>
    <i name="e_wo_entrp">   -682.56839871 </i>
    <i name="e_0_energy">   -682.56839871 </i>
   </energy>
  </scstep>
  <scstep>
   <time name="dav">    3.32    3.33</time>
   <time name="total">    4.31    4.32</time>
   <energy>
    <i name="e_fr_energy">   -682.56839878 </i>
    <i name="e_wo_entrp">   -682.56839878 </i>
    <i name="e_0_energy">   -682.56839878 </i>
   </energy>
  </scstep>
  <scstep>
   <time name="dav">    3.33    3.33</time>
   <time name="total">    4.34    5.02</time>
   <energy>
    <i name="e_fr_energy">   -682.56839881 </i>
    <i name="e_wo_entrp">   -682.56839881 </i>
    <i name="e_0_energy">   -682.56839881 </i>
   </energy>
  </scstep>
  <scstep>
   <time name="dav">    3.24    3.25</time>
   <time name="total">    4.22    4.85</time>
   <energy>
    <i name="e_fr_energy">   -682.56839879 </i>
    <i name="e_wo_entrp">   -682.56839879 </i>
    <i name="e_0_energy">   -682.56839879 </i>
   </energy>
  </scstep>
  <scstep>
   <time name="dav">    3.21    3.22</time>
   <time name="total">    3.70    3.71</time>
   <energy>
    <i name="alphaZ">    210.78028765 </i>
    <i name="ewald"> -14524.86695560 </i>
    <i name="hartreedc">   -991.73218753 </i>
    <i name="XCdc">  -1153.28603483 </i>
    <i name="pawpsdc">   4723.40676390 </i>
    <i name="pawaedc">  -2485.14486447 </i>
    <i name="eentropy">     -0.00000000 </i>
    <i name="bandstr">    345.79373210 </i>
    <i name="atom">  13192.48085998 </i>
    <i name="e_fr_energy">   -682.56839879 </i>
    <i name="e_wo_entrp">   -682.56839879 </i>
    <i name="e_0_energy">   -682.56839879 </i>
   </energy>
  </scstep>
  <structure>
   <crystal>
    <varray name="basis" >
     <v>       0.00000000      10.93716070      10.93716070 </v>
     <v>      10.93716070       0.00000000      10.93716070 </v>
     <v>      10.93716070      10.93716070       0.00000000 </v>
    </varray>
    <i name="volume">   2616.63878844 </i>
    <varray name="rec_basis" >
     <v>      -0.04571570       0.04571570       0.04571570 </v>
     <v>       0.04571570      -0.04571570       0.04571570 </v>
     <v>       0.04571570       0.04571570      -0.04571570 </v>
    </varray>
   </crystal>
   <varray name="positions" >
    <v>       0.06295716       0.06204284       0.06295716 </v>
    <v>       0.31250000       0.06250000       0.06250000 </v>
    <v>       0.56250000       0.06250000       0.06250000 </v>
    <v>       0.81250000       0.06250000       0.06250000 </v>
    <v>       0.06250000       0.31250000       0.06250000 </v>
    <v>       0.31250000       0.31250000       0.06250000 </v>
    <v>       0.56250000       0.31250000       0.06250000 </v>
    <v>       0.81250000       0.31250000       0.06250000 </v>
    <v>       0.06250000       0.56250000       0.06250000 </v>
    <v>       0.31250000       0.56250000       0.06250000 </v>
    <v>       0.56250000       0.56250000       0.06250000 </v>
    <v>       0.81250000       0.56250000       0.06250000 </v>
    <v>       0.06250000       0.81250000       0.06250000 </v>
    <v>       0.31250000       0.81250000       0.06250000 </v>
    <v>       0.56250000       0.81250000       0.06250000 </v>
    <v>       0.81250000       0.81250000       0.06250000 </v>
    <v>       0.06250000       0.06250000       0.31250000 </v>
    <v>       0.31250000       0.06250000       0.31250000 </v>
    <v>       0.56250000       0.06250000       0.31250000 </v>
    <v>       0.81250000       0.06250000       0.31250000 </v>
    <v>       0.06250000       0.31250000       0.31250000 </v>
    <v>       0.31250000       0.31250000       0.31250000 </v>
    <v>       0.56250000       0.31250000       0.31250000 </v>
    <v>       0.81250000       0.31250000       0.31250000 </v>
    <v>       0.06250000       0.56250000       0.31250000 </v>
    <v>       0.31250000       0.56250000       0.31250000 </v>
    <v>       0.56250000       0.56250000       0.31250000 </v>
    <v>       0.81250000       0.56250000       0.31250000 </v>
    <v>       0.06250000       0.81250000       0.31250000 </v>
    <v>       0.31250000       0.81250000       0.31250000 </v>
    <v>       0.56250000       0.81250000       0.31250000 </v>
    <v>       0.81250000       0.81250000       0.31250000 </v>
    <v>       0.06250000       0.06250000       0.56250000 </v>
    <v>       0.31250000       0.06250000       0.56250000 </v>
    <v>       0.56250000       0.06250000       0.56250000 </v>
    <v>       0.81250000       0.06250000       0.56250000 </v>
    <v>       0.06250000       0.31250000       0.56250000 </v>
    <v>       0.31250000       0.31250000       0.56250000 </v>
    <v>       0.56250000       0.31250000       0.56250000 </v>
    <v>       0.81250000       0.31250000       0.56250000 </v>
    <v>       0.06250000       0.56250000       0.56250000 </v>
    <v>       0.31250000       0.56250000       0.56250000 </v>
    <v>       0.56250000       0.56250000       0.56250000 </v>
    <v>       0.81250000       0.56250000       0.56250000 </v>
    <v>       0.06250000       0.81250000       0.56250000 </v>
    <v>       0.31250000       0.81250000       0.56250000 </v>
    <v>       0.56250000       0.81250000       0.56250000 </v>
    <v>       0.81250000       0.81250000       0.56250000 </v>
    <v>       0.06250000       0.06250000       0.81250000 </v>
    <v>       0.31250000       0.06250000       0.81250000 </v>
    <v>       0.56250000       0.06250000       0.81250000 </v>
    <v>       0.81250000       0.06250000       0.81250000 </v>
    <v>       0.06250000       0.31250000       0.81250000 </v>
    <v>       0.31250000       0.31250000       0.81250000 </v>
    <v>       0.56250000       0.31250000       0.81250000 </v>
    <v>       0.81250000       0.31250000       0.81250000 </v>
    <v>       0.06250000       0.56250000       0.81250000 </v>
    <v>       0.31250000       0.56250000       0.81250000 </v>
    <v>       0.56250000       0.56250000       0.81250000 </v>
    <v>       0.81250000       0.56250000       0.81250000 </v>
    <v>       0.06250000       0.81250000       0.81250000 </v>
    <v>       0.31250000       0.81250000       0.81250000 </v>
    <v>       0.56250000       0.81250000       0.81250000 </v>
    <v>       0.81250000       0.81250000       0.81250000 </v>
    <v>       0.99954284       0.00045716       0.00045716 </v>
    <v>       0.25000000       0.00000000       0.00000000 </v>
    <v>       0.50000000       0.00000000       0.00000000 </v>
    <v>       0.75000000       0.00000000       0.00000000 </v>
    <v>       0.00000000       0.25000000       0.00000000 </v>
    <v>       0.25000000       0.25000000       0.00000000 </v>
    <v>       0.50000000       0.25000000       0.00000000 </v>
    <v>       0.75000000       0.25000000       0.00000000 </v>
    <v>       0.00000000       0.50000000       0.00000000 </v>
    <v>       0.25000000       0.50000000       0.00000000 </v>
    <v>       0.50000000       0.50000000       0.00000000 </v>
    <v>       0.75000000       0.50000000       0.00000000 </v>
    <v>       0.00000000       0.75000000       0.00000000 </v>
    <v>       0.25000000       0.75000000       0.00000000 </v>
    <v>       0.50000000       0.75000000       0.00000000 </v>
    <v>       0.75000000       0.75000000       0.00000000 </v>
    <v>       0.00000000       0.00000000       0.25000000 </v>
    <v>       0.25000000       0.00000000       0.25000000 </v>
    <v>       0.50000000       0.00000000       0.25000000 </v>
    <v>       0.75000000       0.00000000       0.25000000 </v>
    <v>       0.00000000       0.25000000       0.25000000 </v>
    <v>       0.25000000       0.25000000       0.25000000 </v>
    <v>       0.50000000       0.25000000       0.25000000 </v>
    <v>       0.75000000       0.25000000       0.25000000 </v>
    <v>       0.00000000       0.50000000       0.25000000 </v>
    <v>       0.25000000       0.50000000       0.25000000 </v>
    <v>       0.50000000       0.50000000       0.25000000 </v>
    <v>       0.75000000       0.50000000       0.25000000 </v>
    <v>       0.00000000       0.75000000       0.25000000 </v>
    <v>       0.25000000       0.75000000       0.25000000 </v>
    <v>       0.50000000       0.75000000       0.25000000 </v>
    <v>       0.75000000       0.75000000       0.25000000 </v>
    <v>       0.00000000       0.00000000       0.50000000 </v>
    <v>       0.25000000       0.00000000       0.50000000 </v>
    <v>       0.50000000       0.00000000       0.50000000 </v>
    <v>       0.75000000       0.00000000       0.50000000 </v>
    <v>       0.00000000       0.25000000       0.50000000 </v>
    <v>       0.25000000       0.25000000       0.50000000 </v>
    <v>       0.50000000       0.25000000       0.50000000 </v>
    <v>       0.75000000       0.25000000       0.50000000 </v>
    <v>       0.00000000       0.50000000       0.50000000 </v>
    <v>       0.25000000       0.50000000       0.50000000 </v>
    <v>       0.50000000       0.50000000       0.50000000 </v>
    <v>       0.75000000       0.50000000       0.50000000 </v>
    <v>       0.00000000       0.75000000       0.50000000 </v>
    <v>       0.25000000       0.75000000       0.50000000 </v>
    <v>       0.50000000       0.75000000       0.50000000 </v>
    <v>       0.75000000       0.75000000       0.50000000 </v>
    <v>       0.00000000       0.00000000       0.75000000 </v>
    <v>       0.25000000       0.00000000       0.75000000 </v>
    <v>       0.50000000       0.00000000       0.75000000 </v>
    <v>       0.75000000       0.00000000       0.75000000 </v>
    <v>       0.00000000       0.25000000       0.75000000 </v>
    <v>       0.25000000       0.25000000       0.75000000 </v>
    <v>       0.50000000       0.25000000       0.75000000 </v>
    <v>       0.75000000       0.25000000       0.75000000 </v>
    <v>       0.00000000       0.50000000       0.75000000 </v>
    <v>       0.25000000       0.50000000       0.75000000 </v>
    <v>       0.50000000       0.50000000       0.75000000 </v>
    <v>       0.75000000       0.50000000       0.75000000 </v>
    <v>       0.00000000       0.75000000       0.75000000 </v>
    <v>       0.25000000       0.75000000       0.75000000 </v>
    <v>       0.50000000       0.75000000       0.75000000 </v>
    <v>       0.75000000       0.75000000       0.75000000 </v>
   </varray>
  </structure>
  <varray name="forces" >
   <v>       0.03229263      -0.11036189       0.01973166 </v>
   <v>       0.00108750       0.00111100       0.00155120 </v>
   <v>       0.00205308       0.00061287       0.00084356 </v>
   <v>       0.03381435      -0.01894685      -0.01851987 </v>
   <v>       0.00116103      -0.00538599       0.00114701 </v>
   <v>      -0.00052085       0.00049087      -0.00023662 </v>
   <v>       0.00000227      -0.00015062       0.00068281 </v>
   <v>      -0.00209365       0.00191253      -0.00129499 </v>
   <v>       0.00020709      -0.00119785       0.00019763 </v>
   <v>       0.00005698      -0.00009155      -0.00020060 </v>
   <v>      -0.00031600       0.00022184      -0.00015763 </v>
   <v>      -0.00015387       0.00026395       0.00019085 </v>
   <v>       0.03162329      -0.02486370       0.01898718 </v>
   <v>      -0.00228857       0.00192938       0.00061960 </v>
   <v>      -0.00022723       0.00020401      -0.00000913 </v>
   <v>      -0.00051738       0.00044884      -0.00013074 </v>
   <v>       0.00224173       0.00178553      -0.00144049 </v>
   <v>      -0.00004254      -0.00033855       0.00059495 </v>
   <v>       0.00048319       0.00058006      -0.00004753 </v>
   <v>      -0.00104269      -0.00526351       0.00130483 </v>
   <v>      -0.00010158      -0.00028343      -0.00065735 </v>
   <v>      -0.00025059       0.00048984       0.00038773 </v>
   <v>      -0.00021440       0.00008206      -0.00029481 </v>
   <v>      -0.00006419       0.00027366       0.00002251 </v>
   <v>       0.00230911       0.00057917      -0.00062428 </v>
   <v>      -0.00036407       0.00002507      -0.00020107 </v>
   <v>      -0.00010744       0.00011823      -0.00003625 </v>
   <v>      -0.00016842       0.00011928       0.00003417 </v>
   <v>       0.00070986       0.00124167      -0.00237475 </v>
   <v>      -0.00015537       0.00018872       0.00000770 </v>
   <v>      -0.00014320       0.00008633      -0.00002090 </v>
   <v>      -0.00025259       0.00058974       0.00034499 </v>
   <v>       0.00057609       0.00033659       0.00046921 </v>
   <v>       0.00035689      -0.00036975       0.00007461 </v>
   <v>       0.00005396      -0.00183878       0.00007993 </v>
   <v>       0.00026260       0.00002443       0.00043036 </v>
   <v>       0.00224622      -0.00042505       0.00026553 </v>
   <v>      -0.00042793       0.00011176      -0.00017183 </v>
   <v>      -0.00009376       0.00010268       0.00003637 </v>
   <v>      -0.00015424       0.00011606      -0.00001909 </v>
   <v>      -0.00007728      -0.00001689      -0.00052867 </v>
   <v>      -0.00011819       0.00007015      -0.00002536 </v>
   <v>      -0.00010580       0.00013694       0.00002416 </v>
   <v>      -0.00006541       0.00025194       0.00015600 </v>
   <v>       0.00020514      -0.00003523      -0.00030704 </v>
   <v>      -0.00006331       0.00011597      -0.00000967 </v>
   <v>       0.00004288       0.00028424       0.00006820 </v>
   <v>      -0.00037076       0.00012255      -0.00022607 </v>
   <v>       0.03457942       0.02152017      -0.01901190 </v>
   <v>       0.00071177      -0.00526038      -0.00062251 </v>
   <v>       0.00019278      -0.00005485       0.00036638 </v>
   <v>      -0.00009956      -0.00029256       0.00049295 </v>
   <v>      -0.00120398       0.00123201      -0.00236204 </v>
   <v>      -0.00015565       0.00025924       0.00002252 </v>
   <v>      -0.00016780       0.00007190      -0.00000620 </v>
   <v>      -0.00025186       0.00050961       0.00033783 </v>
   <v>       0.00032564      -0.00005319      -0.00028969 </v>
   <v>      -0.00005213       0.00010469       0.00000955 </v>
   <v>       0.00005370       0.00017481       0.00016941 </v>
   <v>      -0.00024912       0.00002907      -0.00013096 </v>
   <v>       0.00013143      -0.00023950      -0.00061412 </v>
   <v>      -0.00007754       0.00059582       0.00034332 </v>
   <v>      -0.00030634       0.00008529      -0.00029016 </v>
   <v>      -0.00009887       0.00012257       0.00001903 </v>
   <v>      -0.10979009       0.03313260       0.02073900 </v>
   <v>      -0.02544100       0.03188316       0.01956998 </v>
   <v>      -0.00120332       0.00020934       0.00019631 </v>
   <v>      -0.00539661       0.00116776       0.00115940 </v>
   <v>      -0.01836666       0.03351703      -0.01789818 </v>
   <v>       0.00044042      -0.00052616      -0.00013680 </v>
   <v>       0.00026086      -0.00015237       0.00019087 </v>
   <v>       0.00192780      -0.00211237      -0.00130199 </v>
   <v>       0.00061887       0.00203690       0.00084561 </v>
   <v>       0.00020547      -0.00022775      -0.00000818 </v>
   <v>       0.00022248      -0.00031508      -0.00015898 </v>
   <v>      -0.00015031      -0.00000238       0.00068165 </v>
   <v>       0.00109759       0.00109003       0.00155299 </v>
   <v>       0.00191111      -0.00226501       0.00061205 </v>
   <v>      -0.00009407       0.00006026      -0.00020506 </v>
   <v>       0.00048992      -0.00052295      -0.00023664 </v>
   <v>       0.02210590       0.03489222      -0.01954520 </v>
   <v>      -0.00023624       0.00013115      -0.00061206 </v>
   <v>      -0.00005502       0.00032669      -0.00028721 </v>
   <v>       0.00124328      -0.00121032      -0.00237408 </v>
   <v>      -0.00029850      -0.00010267       0.00048716 </v>
   <v>       0.00012247      -0.00009889       0.00001822 </v>
   <v>       0.00002662      -0.00024783      -0.00013094 </v>
   <v>       0.00050695      -0.00024957       0.00034318 </v>
   <v>      -0.00005337       0.00019347       0.00036662 </v>
   <v>       0.00008572      -0.00030799      -0.00028923 </v>
   <v>       0.00017396       0.00005378       0.00017173 </v>
   <v>       0.00007262      -0.00016822      -0.00000598 </v>
   <v>      -0.00525568       0.00069928      -0.00060584 </v>
   <v>       0.00059221      -0.00007647       0.00034078 </v>
   <v>       0.00010450      -0.00005228       0.00000963 </v>
   <v>       0.00025970      -0.00015578       0.00002139 </v>
   <v>       0.00034139       0.00058171       0.00047857 </v>
   <v>      -0.00003216       0.00020433      -0.00030868 </v>
   <v>      -0.00001566      -0.00007860      -0.00052926 </v>
   <v>      -0.00042970       0.00226057       0.00026571 </v>
   <v>       0.00002355       0.00026426       0.00042817 </v>
   <v>       0.00012303      -0.00036908      -0.00022779 </v>
   <v>       0.00025302      -0.00006576       0.00015768 </v>
   <v>       0.00011629      -0.00015436      -0.00002051 </v>
   <v>      -0.00182669       0.00005634       0.00008038 </v>
   <v>       0.00028532       0.00004276       0.00006751 </v>
   <v>       0.00013714      -0.00010594       0.00002372 </v>
   <v>       0.00010245      -0.00009326       0.00003619 </v>
   <v>      -0.00036959       0.00035869       0.00007351 </v>
   <v>       0.00011628      -0.00006291      -0.00000953 </v>
   <v>       0.00007040      -0.00011815      -0.00002531 </v>
   <v>       0.00011157      -0.00042563      -0.00017123 </v>
   <v>       0.00176486       0.00222676      -0.00142006 </v>
   <v>       0.00123055       0.00070139      -0.00235833 </v>
   <v>       0.00057702       0.00232316      -0.00062266 </v>
   <v>      -0.00028066      -0.00010093      -0.00065716 </v>
   <v>      -0.00525564      -0.00102381       0.00129181 </v>
   <v>       0.00059525      -0.00024885       0.00033916 </v>
   <v>       0.00011878      -0.00016770       0.00003438 </v>
   <v>       0.00027414      -0.00006482       0.00002134 </v>
   <v>       0.00057620       0.00047539      -0.00004724 </v>
   <v>       0.00008714      -0.00014362      -0.00002018 </v>
   <v>       0.00011808      -0.00010710      -0.00003627 </v>
   <v>       0.00008241      -0.00021381      -0.00029112 </v>
   <v>      -0.00034081      -0.00004257       0.00059406 </v>
   <v>       0.00018768      -0.00015608       0.00000730 </v>
   <v>       0.00002407      -0.00036394      -0.00020051 </v>
   <v>       0.00049025      -0.00025111       0.00038472 </v>
  </varray>
  <varray name="stress" >
   <v>       5.73140127      -0.00032100      -0.05388501 </v>
   <v>      -0.00032099       5.73139415       0.05286502 </v>
   <v>      -0.05388501       0.05286503       5.73218388 </v>
  </varray>
  <energy>
   <i name="e_fr_energy">   -682.56839879 </i>
   <i name="e_wo_entrp">   -682.56839879 </i>
   <i name="e_0_energy">     -0.00000000 </i>
  </energy>
  <time name="totalsc">  120.23  140.92</time>
  <eigenvalues>
   <array>
    <dimension dim="1">band</dimension>
    <dimension dim="2">kpoint</dimension>
    <dimension dim="3">spin</dimension>
    <field>eigene</field>
    <field>occ</field>
    <set>
     <set comment="spin 1">
      <set comment="kpoint 1">
       <r>   -6.1630    1.0000 </r>
       <r>   -5.3791    1.0000 </r>
       <r>   -5.3781    1.0000 </r>
       <r>   -5.3777    1.0000 </r>
       <r>   -5.3775    1.0000 </r>
       <r>   -5.3774    1.0000 </r>
       <r>   -5.3773    1.0000 </r>
       <r>   -5.3769    1.0000 </r>
       <r>   -5.3759    1.0000 </r>
       <r>   -5.1008    1.0000 </r>
       <r>   -5.1002    1.0000 </r>
       <r>   -5.0997    1.0000 </r>
       <r>   -5.0995    1.0000 </r>
       <r>   -5.0991    1.0000 </r>
       <r>   -5.0984    1.0000 </r>
       <r>   -4.1595    1.0000 </r>
       <r>   -4.1582    1.0000 </r>
       <r>   -4.1576    1.0000 </r>
       <r>   -4.1571    1.0000 </r>
       <r>   -4.1570    1.0000 </r>
       <r>   -4.1570    1.0000 </r>
       <r>   -4.1570    1.0000 </r>
       <r>   -4.1569    1.0000 </r>
       <r>   -4.1568    1.0000 </r>
       <r>   -4.1563    1.0000 </r>
       <r>   -4.1557    1.0000 </r>
       <r>   -4.1545    1.0000 </r>
       <r>   -3.8820    1.0000 </r>
       <r>   -3.8816    1.0000 </r>
       <r>   -3.8807    1.0000 </r>
       <r>   -3.8804    1.0000 </r>
       <r>   -3.5010    1.0000 </r>
       <r>   -3.4988    1.0000 </r>
       <r>   -3.4981    1.0000 </r>
       <r>   -3.4967    1.0000 </r>
       <r>   -3.4966    1.0000 </r>
       <r>   -3.4966    1.0000 </r>
       <r>   -3.4964    1.0000 </r>
       <r>   -3.4964    1.0000 </r>
       <r>   -3.4964    1.0000 </r>
       <r>   -3.4963    1.0000 </r>
       <r>   -3.4963    1.0000 </r>
       <r>   -3.4962    1.0000 </r>
       <r>   -3.4962    1.0000 </r>
       <r>   -3.4962    1.0000 </r>
       <r>   -3.4961    1.0000 </r>
       <r>   -3.4961    1.0000 </r>
       <r>   -3.4961    1.0000 </r>
       <r>   -3.4960    1.0000 </r>
       <r>   -3.4959    1.0000 </r>
       <r>   -3.4959    1.0000 </r>
       <r>   -3.4958    1.0000 </r>
       <r>   -3.4944    1.0000 </r>
       <r>   -3.4937    1.0000 </r>
       <r>   -3.4915    1.0000 </r>
       <r>   -2.0920    1.0000 </r>
       <r>   -2.0915    1.0000 </r>
       <r>   -2.0914    1.0000 </r>
       <r>   -2.0905    1.0000 </r>
       <r>   -2.0903    1.0000 </r>
       <r>   -2.0899    1.0000 </r>
       <r>   -1.9376    1.0000 </r>
       <r>   -1.9366    1.0000 </r>
       <r>   -1.9365    1.0000 </r>
       <r>   -1.9355    1.0000 </r>
       <r>   -1.9355    1.0000 </r>
       <r>   -1.9355    1.0000 </r>
       <r>   -1.9353    1.0000 </r>
       <r>   -1.9353    1.0000 </r>
       <r>   -1.9353    1.0000 </r>
       <r>   -1.9343    1.0000 </r>
       <r>   -1.9342    1.0000 </r>
       <r>   -1.9332    1.0000 </r>
       <r>   -1.2193    1.0000 </r>
       <r>   -1.2186    1.0000 </r>
       <r>   -1.2182    1.0000 </r>
       <r>   -1.2175    1.0000 </r>
       <r>   -0.6734    1.0000 </r>
       <r>   -0.6712    1.0000 </r>
       <r>   -0.6696    1.0000 </r>
       <r>   -0.6692    1.0000 </r>
       <r>   -0.6690    1.0000 </r>
       <r>   -0.6689    1.0000 </r>
       <r>   -0.6688    1.0000 </r>
       <r>   -0.6688    1.0000 </r>
       <r>   -0.6688    1.0000 </r>
       <r>   -0.6687    1.0000 </r>
       <r>   -0.6687    1.0000 </r>
       <r>   -0.6686    1.0000 </r>
       <r>   -0.6686    1.0000 </r>
       <r>   -0.6686    1.0000 </r>
       <r>   -0.6685    1.0000 </r>
       <r>   -0.6685    1.0000 </r>
       <r>   -0.6684    1.0000 </r>
       <r>   -0.6684    1.0000 </r>
       <r>   -0.6684    1.0000 </r>
       <r>   -0.6682    1.0000 </r>
       <r>   -0.6681    1.0000 </r>
       <r>   -0.6676    1.0000 </r>
       <r>   -0.6660    1.0000 </r>
       <r>   -0.6638    1.0000 </r>
       <r>    0.2147    1.0000 </r>
       <r>    0.2153    1.0000 </r>
       <r>    0.2166    1.0000 </r>
       <r>    0.2166    1.0000 </r>
       <r>    0.2166    1.0000 </r>
       <r>    0.2167    1.0000 </r>
       <r>    0.2167    1.0000 </r>
       <r>    0.2168    1.0000 </r>
       <r>    0.2169    1.0000 </r>
       <r>    0.2169    1.0000 </r>
       <r>    0.2182    1.0000 </r>
       <r>    0.2188    1.0000 </r>
       <r>    1.7665    1.0000 </r>
       <r>    1.7669    1.0000 </r>
       <r>    1.7675    1.0000 </r>
       <r>    1.7678    1.0000 </r>
       <r>    1.7679    1.0000 </r>
       <r>    1.7682    1.0000 </r>
       <r>    1.7687    1.0000 </r>
       <r>    1.7691    1.0000 </r>
       <r>    1.8846    1.0000 </r>
       <r>    1.8852    1.0000 </r>
       <r>    1.8856    1.0000 </r>
       <r>    1.8857    1.0000 </r>
       <r>    1.8859    1.0000 </r>
       <r>    1.8860    1.0000 </r>
       <r>    1.8860    1.0000 </r>
       <r>    1.8861    1.0000 </r>
       <r>    1.8863    1.0000 </r>
       <r>    1.8864    1.0000 </r>
       <r>    1.8868    1.0000 </r>
       <r>    1.8874    1.0000 </r>
       <r>    1.9776    1.0000 </r>
       <r>    1.9778    1.0000 </r>
       <r>    1.9781    1.0000 </r>
       <r>    1.9786    1.0000 </r>
       <r>    1.9788    1.0000 </r>
       <r>    1.9789    1.0000 </r>
       <r>    1.9789    1.0000 </r>
       <r>    1.9789    1.0000 </r>
       <r>    1.9792    1.0000 </r>
       <r>    1.9796    1.0000 </r>
       <r>    1.9800    1.0000 </r>
       <r>    1.9802    1.0000 </r>
       <r>    2.1399    1.0000 </r>
       <r>    2.1407    1.0000 </r>
       <r>    2.1409    1.0000 </r>
       <r>    2.1413    1.0000 </r>
       <r>    2.1415    1.0000 </r>
       <r>    2.1422    1.0000 </r>
       <r>    2.1841    1.0000 </r>
       <r>    2.1848    1.0000 </r>
       <r>    2.1852    1.0000 </r>
       <r>    2.1861    1.0000 </r>
       <r>    2.1865    1.0000 </r>
       <r>    2.1866    1.0000 </r>
       <r>    2.1866    1.0000 </r>
       <r>    2.1867    1.0000 </r>
       <r>    2.1867    1.0000 </r>
       <r>    2.1868    1.0000 </r>
       <r>    2.1868    1.0000 </r>
       <r>    2.1869    1.0000 </r>
       <r>    2.1870    1.0000 </r>
       <r>    2.1870    1.0000 </r>
       <r>    2.1870    1.0000 </r>
       <r>    2.1871    1.0000 </r>
       <r>    2.1871    1.0000 </r>
       <r>    2.1872    1.0000 </r>
       <r>    2.1872    1.0000 </r>
       <r>    2.1873    1.0000 </r>
       <r>    2.1878    1.0000 </r>
       <r>    2.1887    1.0000 </r>
       <r>    2.1890    1.0000 </r>
       <r>    2.1899    1.0000 </r>
       <r>    2.8561    1.0000 </r>
       <r>    2.8563    1.0000 </r>
       <r>    2.8566    1.0000 </r>
       <r>    2.8566    1.0000 </r>
       <r>    2.8569    1.0000 </r>
       <r>    2.8571    1.0000 </r>
       <r>    3.4894    1.0000 </r>
       <r>    3.4900    1.0000 </r>
       <r>    3.4913    1.0000 </r>
       <r>    3.4920    1.0000 </r>
       <r>    3.4921    1.0000 </r>
       <r>    3.4921    1.0000 </r>
       <r>    3.4922    1.0000 </r>
       <r>    3.4923    1.0000 </r>
       <r>    3.4924    1.0000 </r>
       <r>    3.4924    1.0000 </r>
       <r>    3.4925    1.0000 </r>
       <r>    3.4925    1.0000 </r>
       <r>    3.4925    1.0000 </r>
       <r>    3.4926    1.0000 </r>
       <r>    3.4926    1.0000 </r>
       <r>    3.4926    1.0000 </r>
       <r>    3.4927    1.0000 </r>
       <r>    3.4928    1.0000 </r>
       <r>    3.4929    1.0000 </r>
       <r>    3.4929    1.0000 </r>
       <r>    3.4930    1.0000 </r>
       <r>    3.4937    1.0000 </r>
       <r>    3.4950    1.0000 </r>
       <r>    3.4956    1.0000 </r>
       <r>    3.8017    1.0000 </r>
       <r>    3.8028    1.0000 </r>
       <r>    3.8034    1.0000 </r>
       <r>    3.8036    1.0000 </r>
       <r>    3.8038    1.0000 </r>
       <r>    3.8038    1.0000 </r>
       <r>    3.8038    1.0000 </r>
       <r>    3.8039    1.0000 </r>
       <r>    3.8040    1.0000 </r>
       <r>    3.8043    1.0000 </r>
       <r>    3.8049    1.0000 </r>
       <r>    3.8060    1.0000 </r>
       <r>    4.3508    1.0000 </r>
       <r>    4.3513    1.0000 </r>
       <r>    4.3523    1.0000 </r>
       <r>    4.3526    1.0000 </r>
       <r>    4.3527    1.0000 </r>
       <r>    4.3528    1.0000 </r>
       <r>    4.3528    1.0000 </r>
       <r>    4.3529    1.0000 </r>
       <r>    4.3531    1.0000 </r>
       <r>    4.3533    1.0000 </r>
       <r>    4.3543    1.0000 </r>
       <r>    4.3548    1.0000 </r>
       <r>    4.4763    1.0000 </r>
       <r>    4.4767    1.0000 </r>
       <r>    4.4773    1.0000 </r>
       <r>    4.4776    1.0000 </r>
       <r>    4.4778    1.0000 </r>
       <r>    4.4781    1.0000 </r>
       <r>    4.4787    1.0000 </r>
       <r>    4.4791    1.0000 </r>
       <r>    4.9077    1.0000 </r>
       <r>    4.9102    1.0000 </r>
       <r>    4.9113    1.0000 </r>
       <r>    4.9114    1.0000 </r>
       <r>    4.9116    1.0000 </r>
       <r>    4.9116    1.0000 </r>
       <r>    4.9117    1.0000 </r>
       <r>    4.9118    1.0000 </r>
       <r>    4.9118    1.0000 </r>
       <r>    4.9119    1.0000 </r>
       <r>    4.9119    1.0000 </r>
       <r>    4.9120    1.0000 </r>
       <r>    4.9121    1.0000 </r>
       <r>    4.9122    1.0000 </r>
       <r>    4.9134    1.0000 </r>
       <r>    4.9159    1.0000 </r>
       <r>    5.6594    1.0000 </r>
       <r>    5.6604    1.0000 </r>
       <r>    5.6615    1.0000 </r>
       <r>    6.3942    0.0000 </r>
       <r>    6.3944    0.0000 </r>
       <r>    6.3950    0.0000 </r>
       <r>    6.3953    0.0000 </r>
       <r>    6.3959    0.0000 </r>
       <r>    6.3960    0.0000 </r>
       <r>    6.7954    0.0000 </r>
       <r>    6.7958    0.0000 </r>
       <r>    6.7961    0.0000 </r>
       <r>    6.7964    0.0000 </r>
       <r>    6.7967    0.0000 </r>
       <r>    6.7971    0.0000 </r>
       <r>    7.1206    0.0000 </r>
       <r>    7.1208    0.0000 </r>
       <r>    7.1209    0.0000 </r>
       <r>    7.1211    0.0000 </r>
       <r>    7.1828    0.0000 </r>
       <r>    7.1830    0.0000 </r>
       <r>    7.1845    0.0000 </r>
       <r>    7.1853    0.0000 </r>
       <r>    7.1857    0.0000 </r>
       <r>    7.1857    0.0000 </r>
       <r>    7.1858    0.0000 </r>
       <r>    7.1858    0.0000 </r>
       <r>    7.1859    0.0000 </r>
       <r>    7.1859    0.0000 </r>
       <r>    7.1860    0.0000 </r>
       <r>    7.1860    0.0000 </r>
       <r>    7.1860    0.0000 </r>
       <r>    7.1860    0.0000 </r>
       <r>    7.1861    0.0000 </r>
       <r>    7.1861    0.0000 </r>
       <r>    7.1862    0.0000 </r>
       <r>    7.1862    0.0000 </r>
       <r>    7.1863    0.0000 </r>
       <r>    7.1863    0.0000 </r>
       <r>    7.1867    0.0000 </r>
       <r>    7.1875    0.0000 </r>
       <r>    7.1890    0.0000 </r>
       <r>    7.1892    0.0000 </r>
       <r>    7.6113    0.0000 </r>
       <r>    7.6116    0.0000 </r>
       <r>    7.6119    0.0000 </r>
       <r>    7.6120    0.0000 </r>
       <r>    7.6124    0.0000 </r>
       <r>    7.6126    0.0000 </r>
       <r>    7.6129    0.0000 </r>
       <r>    7.6132    0.0000 </r>
       <r>    8.0815    0.0000 </r>
       <r>    8.0817    0.0000 </r>
       <r>    8.0820    0.0000 </r>
       <r>    8.0825    0.0000 </r>
       <r>    8.0828    0.0000 </r>
       <r>    8.0829    0.0000 </r>
       <r>    8.0829    0.0000 </r>
       <r>    8.0831    0.0000 </r>
       <r>    8.0834    0.0000 </r>
       <r>    8.0839    0.0000 </r>
       <r>    8.0841    0.0000 </r>
       <r>    8.0843    0.0000 </r>
       <r>    8.1987    0.0000 </r>
       <r>    8.1993    0.0000 </r>
       <r>    8.2000    0.0000 </r>
       <r>    8.7786    0.0000 </r>
       <r>    8.7792    0.0000 </r>
       <r>    8.7878    0.0000 </r>
      </set>
     </set>
    </set>
   </array>
  </eigenvalues>
  <separator name="orbital magnetization" >
   <v name="MAGDIPOLOUT">      0.00000000      0.00000000      0.00000000</v>
  </separator>
  <dos>
   <i name="efermi">      5.92069303 </i>
   <total>
    <array>
     <dimension dim="1">gridpoints</dimension>
     <dimension dim="2">spin</dimension>
     <field>energy</field>
     <field>total</field>
     <field>integrated</field>
     <set>
      <set comment="spin 1">
       <r>    -6.9106     0.0000     0.0000 </r>
       <r>    -6.8557     0.0000     0.0000 </r>
       <r>    -6.8009     0.0000     0.0000 </r>
       <r>    -6.7461     0.0000     0.0000 </r>
       <r>    -6.6913     0.0000     0.0000 </r>
       <r>    -6.6365     0.0000     0.0000 </r>
       <r>    -6.5816     0.0000     0.0000 </r>
       <r>    -6.5268     0.0000     0.0000 </r>
       <r>    -6.4720     0.0000     0.0000 </r>
       <r>    -6.4172     0.0000     0.0000 </r>
       <r>    -6.3624     0.0000     0.0000 </r>
       <r>    -6.3075     0.0008     0.0000 </r>
       <r>    -6.2527     0.2030     0.0112 </r>
       <r>    -6.1979     5.7026     0.3238 </r>
       <r>    -6.1431    20.1268     1.4271 </r>
       <r>    -6.0883     9.8210     1.9655 </r>
       <r>    -6.0334     0.6245     1.9998 </r>
       <r>    -5.9786     0.0045     2.0000 </r>
       <r>    -5.9238     0.0000     2.0000 </r>
       <r>    -5.8690     0.0000     2.0000 </r>
       <r>    -5.8142     0.0000     2.0000 </r>
       <r>    -5.7593     0.0000     2.0000 </r>
       <r>    -5.7045     0.0000     2.0000 </r>
       <r>    -5.6497     0.0000     2.0000 </r>
       <r>    -5.5949     0.0000     2.0000 </r>
       <r>    -5.5401     0.0006     2.0000 </r>
       <r>    -5.4852     0.3364     2.0185 </r>
       <r>    -5.4304    19.2678     3.0747 </r>
       <r>    -5.3756   132.4826    10.3374 </r>
       <r>    -5.3208   123.8799    17.1285 </r>
       <r>    -5.2660    15.6627    17.9871 </r>
       <r>    -5.2111     0.4119    18.0097 </r>
       <r>    -5.1563    11.7453    18.6535 </r>
       <r>    -5.1015    92.9130    23.7470 </r>
       <r>    -5.0467    99.3640    29.1941 </r>
       <r>    -4.9919    14.4480    29.9862 </r>
       <r>    -4.9370     0.2521    30.0000 </r>
       <r>    -4.8822     0.0005    30.0000 </r>
       <r>    -4.8274     0.0000    30.0000 </r>
       <r>    -4.7726     0.0000    30.0000 </r>
       <r>    -4.7178     0.0000    30.0000 </r>
       <r>    -4.6629     0.0000    30.0000 </r>
       <r>    -4.6081     0.0000    30.0000 </r>
       <r>    -4.5533     0.0000    30.0000 </r>
       <r>    -4.4985     0.0000    30.0000 </r>
       <r>    -4.4437     0.0000    30.0000 </r>
       <r>    -4.3888     0.0000    30.0000 </r>
       <r>    -4.3340     0.0001    30.0000 </r>
       <r>    -4.2792     0.1199    30.0066 </r>
       <r>    -4.2244    12.2749    30.6795 </r>
       <r>    -4.1696   145.5324    38.6575 </r>
       <r>    -4.1148   228.9125    51.2065 </r>
       <r>    -4.0599    49.6254    53.9269 </r>
       <r>    -4.0051     1.3625    54.0016 </r>
       <r>    -3.9503     3.6638    54.2025 </r>
       <r>    -3.8955    46.3535    56.7435 </r>
       <r>    -3.8407    77.5087    60.9926 </r>
       <r>    -3.7858    17.8655    61.9719 </r>
       <r>    -3.7310     0.5103    61.9999 </r>
       <r>    -3.6762     0.0017    62.0000 </r>
       <r>    -3.6214     0.1779    62.0098 </r>
       <r>    -3.5666    20.3679    63.1263 </r>
       <r>    -3.5117   268.9778    77.8716 </r>
       <r>    -3.4569   469.3215   103.5997 </r>
       <r>    -3.4021   113.3261   109.8122 </r>
       <r>    -3.3473     3.4141   109.9994 </r>
       <r>    -3.2925     0.0113   110.0000 </r>
       <r>    -3.2376     0.0000   110.0000 </r>
       <r>    -3.1828     0.0000   110.0000 </r>
       <r>    -3.1280     0.0000   110.0000 </r>
       <r>    -3.0732     0.0000   110.0000 </r>
       <r>    -3.0184     0.0000   110.0000 </r>
       <r>    -2.9635     0.0000   110.0000 </r>
       <r>    -2.9087     0.0000   110.0000 </r>
       <r>    -2.8539     0.0000   110.0000 </r>
       <r>    -2.7991     0.0000   110.0000 </r>
       <r>    -2.7443     0.0000   110.0000 </r>
       <r>    -2.6894     0.0000   110.0000 </r>
       <r>    -2.6346     0.0000   110.0000 </r>
       <r>    -2.5798     0.0000   110.0000 </r>
       <r>    -2.5250     0.0000   110.0000 </r>
       <r>    -2.4702     0.0000   110.0000 </r>
       <r>    -2.4153     0.0000   110.0000 </r>
       <r>    -2.3605     0.0000   110.0000 </r>
       <r>    -2.3057     0.0000   110.0000 </r>
       <r>    -2.2509     0.0007   110.0000 </r>
       <r>    -2.1961     0.3225   110.0177 </r>
       <r>    -2.1412    16.6315   110.9295 </r>
       <r>    -2.0864   103.6275   116.6103 </r>
       <r>    -2.0316    89.5290   121.5182 </r>
       <r>    -1.9768    61.6189   124.8962 </r>
       <r>    -1.9220   230.8249   137.5499 </r>
       <r>    -1.8671   142.3936   145.3559 </r>
       <r>    -1.8123    11.6389   145.9940 </r>
       <r>    -1.7575     0.1100   146.0000 </r>
       <r>    -1.7027     0.0001   146.0000 </r>
       <r>    -1.6479     0.0000   146.0000 </r>
       <r>    -1.5930     0.0000   146.0000 </r>
       <r>    -1.5382     0.0000   146.0000 </r>
       <r>    -1.4834     0.0000   146.0000 </r>
       <r>    -1.4286     0.0000   146.0000 </r>
       <r>    -1.3738     0.0008   146.0000 </r>
       <r>    -1.3189     0.3253   146.0179 </r>
       <r>    -1.2641    13.9836   146.7845 </r>
       <r>    -1.2093    73.4874   150.8130 </r>
       <r>    -1.1545    52.9817   153.7175 </r>
       <r>    -1.0997     5.0966   153.9969 </r>
       <r>    -1.0448     0.0572   154.0000 </r>
       <r>    -0.9900     0.0001   154.0000 </r>
       <r>    -0.9352     0.0000   154.0000 </r>
       <r>    -0.8804     0.0000   154.0000 </r>
       <r>    -0.8256     0.0040   154.0002 </r>
       <r>    -0.7707     1.7076   154.0938 </r>
       <r>    -0.7159    77.7057   158.3536 </r>
       <r>    -0.6611   432.0422   182.0381 </r>
       <r>    -0.6063   329.9120   200.1238 </r>
       <r>    -0.5515    33.8169   201.9776 </r>
       <r>    -0.4966     0.4075   202.0000 </r>
       <r>    -0.4418     0.0005   202.0000 </r>
       <r>    -0.3870     0.0000   202.0000 </r>
       <r>    -0.3322     0.0000   202.0000 </r>
       <r>    -0.2774     0.0000   202.0000 </r>
       <r>    -0.2225     0.0000   202.0000 </r>
       <r>    -0.1677     0.0000   202.0000 </r>
       <r>    -0.1129     0.0000   202.0000 </r>
       <r>    -0.0581     0.0000   202.0000 </r>
       <r>    -0.0033     0.0000   202.0000 </r>
       <r>     0.0516     0.0007   202.0000 </r>
       <r>     0.1064     0.3949   202.0217 </r>
       <r>     0.1612    25.0710   203.3961 </r>
       <r>     0.2160   189.8618   213.8043 </r>
       <r>     0.2708   194.8543   224.4861 </r>
       <r>     0.3257    27.1615   225.9751 </r>
       <r>     0.3805     0.4534   226.0000 </r>
       <r>     0.4353     0.0008   226.0000 </r>
       <r>     0.4901     0.0000   226.0000 </r>
       <r>     0.5449     0.0000   226.0000 </r>
       <r>     0.5997     0.0000   226.0000 </r>
       <r>     0.6546     0.0000   226.0000 </r>
       <r>     0.7094     0.0000   226.0000 </r>
       <r>     0.7642     0.0000   226.0000 </r>
       <r>     0.8190     0.0000   226.0000 </r>
       <r>     0.8738     0.0000   226.0000 </r>
       <r>     0.9287     0.0000   226.0000 </r>
       <r>     0.9835     0.0000   226.0000 </r>
       <r>     1.0383     0.0000   226.0000 </r>
       <r>     1.0931     0.0000   226.0000 </r>
       <r>     1.1479     0.0000   226.0000 </r>
       <r>     1.2028     0.0000   226.0000 </r>
       <r>     1.2576     0.0000   226.0000 </r>
       <r>     1.3124     0.0000   226.0000 </r>
       <r>     1.3672     0.0000   226.0000 </r>
       <r>     1.4220     0.0000   226.0000 </r>
       <r>     1.4769     0.0000   226.0000 </r>
       <r>     1.5317     0.0000   226.0000 </r>
       <r>     1.5865     0.0000   226.0000 </r>
       <r>     1.6413     0.0507   226.0028 </r>
       <r>     1.6961     6.1753   226.3413 </r>
       <r>     1.7510    86.2471   231.0694 </r>
       <r>     1.8058   163.1762   240.0146 </r>
       <r>     1.8606   138.6095   247.6132 </r>
       <r>     1.9154   262.6103   262.0094 </r>
       <r>     1.9702   245.7044   275.4789 </r>
       <r>     2.0251   223.0549   287.7067 </r>
       <r>     2.0799    51.1191   290.5090 </r>
       <r>     2.1347   145.7161   298.4971 </r>
       <r>     2.1895   508.6135   326.3792 </r>
       <r>     2.2443   384.7123   347.4691 </r>
       <r>     2.2992    45.5064   349.9637 </r>
       <r>     2.3540     0.6610   349.9999 </r>
       <r>     2.4088     0.0010   350.0000 </r>
       <r>     2.4636     0.0000   350.0000 </r>
       <r>     2.5184     0.0000   350.0000 </r>
       <r>     2.5733     0.0000   350.0000 </r>
       <r>     2.6281     0.0000   350.0000 </r>
       <r>     2.6829     0.0001   350.0000 </r>
       <r>     2.7377     0.0844   350.0046 </r>
       <r>     2.7925     7.5742   350.4199 </r>
       <r>     2.8474    79.2035   354.7618 </r>
       <r>     2.9022   110.4267   360.8153 </r>
       <r>     2.9570    21.1154   361.9729 </r>
       <r>     3.0118     0.4936   361.9999 </r>
       <r>     3.0666     0.0012   362.0000 </r>
       <r>     3.1215     0.0000   362.0000 </r>
       <r>     3.1763     0.0000   362.0000 </r>
       <r>     3.2311     0.0000   362.0000 </r>
       <r>     3.2859     0.0000   362.0000 </r>
       <r>     3.3407     0.0078   362.0004 </r>
       <r>     3.3956     2.6754   362.1471 </r>
       <r>     3.4504    99.5751   367.6058 </r>
       <r>     3.5052   458.1050   392.7190 </r>
       <r>     3.5600   290.5457   408.6466 </r>
       <r>     3.6148    24.4490   409.9869 </r>
       <r>     3.6697     0.2708   410.0018 </r>
       <r>     3.7245     5.4066   410.2982 </r>
       <r>     3.7793   101.3361   415.8534 </r>
       <r>     3.8341   245.2272   429.2967 </r>
       <r>     3.8889    82.2661   433.8065 </r>
       <r>     3.9438     3.5134   433.9991 </r>
       <r>     3.9986     0.0167   434.0000 </r>
       <r>     4.0534     0.0000   434.0000 </r>
       <r>     4.1082     0.0000   434.0000 </r>
       <r>     4.1630     0.0000   434.0000 </r>
       <r>     4.2179     0.0297   434.0016 </r>
       <r>     4.2727     5.1067   434.2816 </r>
       <r>     4.3275    98.6344   439.6887 </r>
       <r>     4.3823   246.5448   453.2042 </r>
       <r>     4.4371   120.4046   459.8048 </r>
       <r>     4.4920   158.6587   468.5024 </r>
       <r>     4.5468    92.8661   473.5933 </r>
       <r>     4.6016     7.3515   473.9963 </r>
       <r>     4.6564     0.0671   474.0000 </r>
       <r>     4.7112     0.0001   474.0000 </r>
       <r>     4.7661     0.0112   474.0006 </r>
       <r>     4.8209     2.9663   474.1632 </r>
       <r>     4.8757    86.8497   478.9243 </r>
       <r>     4.9305   319.7373   496.4522 </r>
       <r>     4.9853   163.1635   505.3968 </r>
       <r>     5.0402    10.9196   505.9954 </r>
       <r>     5.0950     0.0836   506.0000 </r>
       <r>     5.1498     0.0001   506.0000 </r>
       <r>     5.2046     0.0000   506.0000 </r>
       <r>     5.2594     0.0000   506.0000 </r>
       <r>     5.3142     0.0000   506.0000 </r>
       <r>     5.3691     0.0000   506.0000 </r>
       <r>     5.4239     0.0000   506.0000 </r>
       <r>     5.4787     0.0000   506.0000 </r>
       <r>     5.5335     0.0182   506.0010 </r>
       <r>     5.5883     2.2539   506.1246 </r>
       <r>     5.6432    31.9519   507.8762 </r>
       <r>     5.6980    59.4479   511.1351 </r>
       <r>     5.7528    15.2849   511.9730 </r>
       <r>     5.8076     0.4910   511.9999 </r>
       <r>     5.8624     0.0017   512.0000 </r>
       <r>     5.9173     0.0000   512.0000 </r>
       <r>     5.9721     0.0000   512.0000 </r>
       <r>     6.0269     0.0000   512.0000 </r>
       <r>     6.0817     0.0000   512.0000 </r>
       <r>     6.1365     0.0000   512.0000 </r>
       <r>     6.1914     0.0000   512.0000 </r>
       <r>     6.2462     0.0028   512.0002 </r>
       <r>     6.3010     0.8485   512.0467 </r>
       <r>     6.3558    28.3093   513.5986 </r>
       <r>     6.4106   117.4238   520.0357 </r>
       <r>     6.4655    67.2056   523.7199 </r>
       <r>     6.5203     5.0654   523.9976 </r>
       <r>     6.5751     0.0438   524.0000 </r>
       <r>     6.6299     0.0003   524.0000 </r>
       <r>     6.6847     0.1762   524.0097 </r>
       <r>     6.7396    11.7389   524.6532 </r>
       <r>     6.7944    92.9096   529.7465 </r>
       <r>     6.8492    99.3747   535.1942 </r>
       <r>     6.9040    14.4470   535.9862 </r>
       <r>     6.9588     0.2523   536.0000 </r>
       <r>     7.0137     0.1781   536.0098 </r>
       <r>     7.0685    10.3259   536.5758 </r>
       <r>     7.1233    99.9514   542.0551 </r>
       <r>     7.1781   388.4915   563.3521 </r>
       <r>     7.2329   441.6667   587.5642 </r>
       <r>     7.2878    79.1535   591.9034 </r>
       <r>     7.3426     1.7582   591.9998 </r>
       <r>     7.3974     0.0042   592.0000 </r>
       <r>     7.4522     0.0009   592.0000 </r>
       <r>     7.5070     0.4269   592.0235 </r>
       <r>     7.5619    22.0894   593.2344 </r>
       <r>     7.6167   138.0239   600.8008 </r>
       <r>     7.6715   117.6477   607.2502 </r>
       <r>     7.7263    13.4938   607.9900 </r>
       <r>     7.7811     0.1827   608.0000 </r>
       <r>     7.8360     0.0003   608.0000 </r>
       <r>     7.8908     0.0000   608.0000 </r>
       <r>     7.9456     0.0225   608.0012 </r>
       <r>     8.0004     4.2756   608.2356 </r>
       <r>     8.0552    90.6037   613.2025 </r>
       <r>     8.1101   246.5284   626.7171 </r>
       <r>     8.1649   109.9270   632.7433 </r>
       <r>     8.2197    64.9614   636.3045 </r>
       <r>     8.2745    29.0966   637.8995 </r>
       <r>     8.3293     1.8197   637.9993 </r>
       <r>     8.3842     0.0129   638.0000 </r>
       <r>     8.4390     0.0000   638.0000 </r>
       <r>     8.4938     0.0000   638.0000 </r>
       <r>     8.5486     0.0000   638.0000 </r>
       <r>     8.6034     0.0000   638.0000 </r>
       <r>     8.6583     0.0279   638.0015 </r>
       <r>     8.7131     2.8820   638.1595 </r>
       <r>     8.7679    35.0833   640.0828 </r>
       <r>     8.8227    57.6850   643.2451 </r>
       <r>     8.8775    13.3746   643.9782 </r>
       <r>     8.9324     0.3955   643.9999 </r>
       <r>     8.9872     0.0013   644.0000 </r>
       <r>     9.0420     0.0000   644.0000 </r>
       <r>     9.0968     0.0000   644.0000 </r>
       <r>     9.1516     0.0000   644.0000 </r>
       <r>     9.2065     0.0000   644.0000 </r>
       <r>     9.2613     0.0000   644.0000 </r>
       <r>     9.3161     0.0000   644.0000 </r>
       <r>     9.3709     0.0000   644.0000 </r>
       <r>     9.4257     0.0000   644.0000 </r>
       <r>     9.4806     0.0000   644.0000 </r>
       <r>     9.5354     0.0000   644.0000 </r>
      </set>
     </set>
    </array>
   </total>
  </dos>
 </calculation>
 <structure name="finalpos" >
  <crystal>
   <varray name="basis" >
    <v>       0.00000000      10.93716070      10.93716070 </v>
    <v>      10.93716070       0.00000000      10.93716070 </v>
    <v>      10.93716070      10.93716070       0.00000000 </v>
   </varray>
   <i name="volume">   2616.63878844 </i>
   <varray name="rec_basis" >
    <v>      -0.04571570       0.04571570       0.04571570 </v>
    <v>       0.04571570      -0.04571570       0.04571570 </v>
    <v>       0.04571570       0.04571570      -0.04571570 </v>
   </varray>
  </crystal>
  <varray name="positions" >
   <v>       0.06295716       0.06204284       0.06295716 </v>
   <v>       0.31250000       0.06250000       0.06250000 </v>
   <v>       0.56250000       0.06250000       0.06250000 </v>
   <v>       0.81250000       0.06250000       0.06250000 </v>
   <v>       0.06250000       0.31250000       0.06250000 </v>
   <v>       0.31250000       0.31250000       0.06250000 </v>
   <v>       0.56250000       0.31250000       0.06250000 </v>
   <v>       0.81250000       0.31250000       0.06250000 </v>
   <v>       0.06250000       0.56250000       0.06250000 </v>
   <v>       0.31250000       0.56250000       0.06250000 </v>
   <v>       0.56250000       0.56250000       0.06250000 </v>
   <v>       0.81250000       0.56250000       0.06250000 </v>
   <v>       0.06250000       0.81250000       0.06250000 </v>
   <v>       0.31250000       0.81250000       0.06250000 </v>
   <v>       0.56250000       0.81250000       0.06250000 </v>
   <v>       0.81250000       0.81250000       0.06250000 </v>
   <v>       0.06250000       0.06250000       0.31250000 </v>
   <v>       0.31250000       0.06250000       0.31250000 </v>
   <v>       0.56250000       0.06250000       0.31250000 </v>
   <v>       0.81250000       0.06250000       0.31250000 </v>
   <v>       0.06250000       0.31250000       0.31250000 </v>
   <v>       0.31250000       0.31250000       0.31250000 </v>
   <v>       0.56250000       0.31250000       0.31250000 </v>
   <v>       0.81250000       0.31250000       0.31250000 </v>
   <v>       0.06250000       0.56250000       0.31250000 </v>
   <v>       0.31250000       0.56250000       0.31250000 </v>
   <v>       0.56250000       0.56250000       0.31250000 </v>
   <v>       0.81250000       0.56250000       0.31250000 </v>
   <v>       0.06250000       0.81250000       0.31250000 </v>
   <v>       0.31250000       0.81250000       0.31250000 </v>
   <v>       0.56250000       0.81250000       0.31250000 </v>
   <v>       0.81250000       0.81250000       0.31250000 </v>
   <v>       0.06250000       0.06250000       0.56250000 </v>
   <v>       0.31250000       0.06250000       0.56250000 </v>
   <v>       0.56250000       0.06250000       0.56250000 </v>
   <v>       0.81250000       0.06250000       0.56250000 </v>
   <v>       0.06250000       0.31250000       0.56250000 </v>
   <v>       0.31250000       0.31250000       0.56250000 </v>
   <v>       0.56250000       0.31250000       0.56250000 </v>
   <v>       0.81250000       0.31250000       0.56250000 </v>
   <v>       0.06250000       0.56250000       0.56250000 </v>
   <v>       0.31250000       0.56250000       0.56250000 </v>
   <v>       0.56250000       0.56250000       0.56250000 </v>
   <v>       0.81250000       0.56250000       0.56250000 </v>
   <v>       0.06250000       0.81250000       0.56250000 </v>
   <v>       0.31250000       0.81250000       0.56250000 </v>
   <v>       0.56250000       0.81250000       0.56250000 </v>
   <v>       0.81250000       0.81250000       0.56250000 </v>
   <v>       0.06250000       0.06250000       0.81250000 </v>
   <v>       0.31250000       0.06250000       0.81250000 </v>
   <v>       0.56250000       0.06250000       0.81250000 </v>
   <v>       0.81250000       0.06250000       0.81250000 </v>
   <v>       0.06250000       0.31250000       0.81250000 </v>
   <v>       0.31250000       0.31250000       0.81250000 </v>
   <v>       0.56250000       0.31250000       0.81250000 </v>
   <v>       0.81250000       0.31250000       0.81250000 </v>
   <v>       0.06250000       0.56250000       0.81250000 </v>
   <v>       0.31250000       0.56250000       0.81250000 </v>
   <v>       0.56250000       0.56250000       0.81250000 </v>
   <v>       0.81250000       0.56250000       0.81250000 </v>
   <v>       0.06250000       0.81250000       0.81250000 </v>
   <v>       0.31250000       0.81250000       0.81250000 </v>
   <v>       0.56250000       0.81250000       0.81250000 </v>
   <v>       0.81250000       0.81250000       0.81250000 </v>
   <v>       0.99954284       0.00045716       0.00045716 </v>
   <v>       0.25000000       0.00000000       0.00000000 </v>
   <v>       0.50000000       0.00000000       0.00000000 </v>
   <v>       0.75000000       0.00000000       0.00000000 </v>
   <v>       0.00000000       0.25000000       0.00000000 </v>
   <v>       0.25000000       0.25000000       0.00000000 </v>
   <v>       0.50000000       0.25000000       0.00000000 </v>
   <v>       0.75000000       0.25000000       0.00000000 </v>
   <v>       0.00000000       0.50000000       0.00000000 </v>
   <v>       0.25000000       0.50000000       0.00000000 </v>
   <v>       0.50000000       0.50000000       0.00000000 </v>
   <v>       0.75000000       0.50000000       0.00000000 </v>
   <v>       0.00000000       0.75000000       0.00000000 </v>
   <v>       0.25000000       0.75000000       0.00000000 </v>
   <v>       0.50000000       0.75000000       0.00000000 </v>
   <v>       0.75000000       0.75000000       0.00000000 </v>
   <v>       0.00000000       0.00000000       0.25000000 </v>
   <v>       0.25000000       0.00000000       0.25000000 </v>
   <v>       0.50000000       0.00000000       0.25000000 </v>
   <v>       0.75000000       0.00000000       0.25000000 </v>
   <v>       0.00000000       0.25000000       0.25000000 </v>
   <v>       0.25000000       0.25000000       0.25000000 </v>
   <v>       0.50000000       0.25000000       0.25000000 </v>
   <v>       0.75000000       0.25000000       0.25000000 </v>
   <v>       0.00000000       0.50000000       0.25000000 </v>
   <v>       0.25000000       0.50000000       0.25000000 </v>
   <v>       0.50000000       0.50000000       0.25000000 </v>
   <v>       0.75000000       0.50000000       0.25000000 </v>
   <v>       0.00000000       0.75000000       0.25000000 </v>
   <v>       0.25000000       0.75000000       0.25000000 </v>
   <v>       0.50000000       0.75000000       0.25000000 </v>
   <v>       0.75000000       0.75000000       0.25000000 </v>
   <v>       0.00000000       0.00000000       0.50000000 </v>
   <v>       0.25000000       0.00000000       0.50000000 </v>
   <v>       0.50000000       0.00000000       0.50000000 </v>
   <v>       0.75000000       0.00000000       0.50000000 </v>
   <v>       0.00000000       0.25000000       0.50000000 </v>
   <v>       0.25000000       0.25000000       0.50000000 </v>
   <v>       0.50000000       0.25000000       0.50000000 </v>
   <v>       0.75000000       0.25000000       0.50000000 </v>
   <v>       0.00000000       0.50000000       0.50000000 </v>
   <v>       0.25000000       0.50000000       0.50000000 </v>
   <v>       0.50000000       0.50000000       0.50000000 </v>
   <v>       0.75000000       0.50000000       0.50000000 </v>
   <v>       0.00000000       0.75000000       0.50000000 </v>
   <v>       0.25000000       0.75000000       0.50000000 </v>
   <v>       0.50000000       0.75000000       0.50000000 </v>
   <v>       0.75000000       0.75000000       0.50000000 </v>
   <v>       0.00000000       0.00000000       0.75000000 </v>
   <v>       0.25000000       0.00000000       0.75000000 </v>
   <v>       0.50000000       0.00000000       0.75000000 </v>
   <v>       0.75000000       0.00000000       0.75000000 </v>
   <v>       0.00000000       0.25000000       0.75000000 </v>
   <v>       0.25000000       0.25000000       0.75000000 </v>
   <v>       0.50000000       0.25000000       0.75000000 </v>
   <v>       0.75000000       0.25000000       0.75000000 </v>
   <v>       0.00000000       0.50000000       0.75000000 </v>
   <v>       0.25000000       0.50000000       0.75000000 </v>
   <v>       0.50000000       0.50000000       0.75000000 </v>
   <v>       0.75000000       0.50000000       0.75000000 </v>
   <v>       0.00000000       0.75000000       0.75000000 </v>
   <v>       0.25000000       0.75000000       0.75000000 </v>
   <v>       0.50000000       0.75000000       0.75000000 </v>
   <v>       0.75000000       0.75000000       0.75000000 </v>
  </varray>
 </structure>
</modeling>
