 vasp.5.4.4.18Apr17-6-g9f103f2a35 (build Aug 16 2020 16:33:06) complex          
  
 executed on             LinuxIFC date 2026.08.15  14:33:53
 running on   40 total cores
 distrk:  each k-point on   40 cores,    1 groups
 distr:  one band on NCORES_PER_BAND=  20 cores,    2 groups


--------------------------------------------------------------------------------------------------------


 INCAR:
 POTCAR:   PAW_PBE Si 05Jan2001                   

 ----------------------------------------------------------------------------- 
|                                                                             |
|           W    W    AA    RRRRR   N    N  II  N    N   GGGG   !!!           |
|           W    W   A  A   R    R  NN   N  II  NN   N  G    G  !!!           |
|           W    W  A    A  R    R  N N  N  II  N N  N  G       !!!           |
|           W WW W  AAAAAA  RRRRR   N  N N  II  N  N N  G  GGG   !            |
|           WW  WW  A    A  R   R   N   NN  II  N   NN  G    G                |
|           W    W  A    A  R    R  N    N  II  N    N   GGGG   !!!           |
|                                                                             |
|      For optimal performance we recommend to set                            |
|        NCORE= 4 - approx SQRT( number of cores)                             |
|      NCORE specifies how many cores store one orbital (NPAR=cpu/NCORE).     |
|      This setting can  greatly improve the performance of VASP for DFT.     |
|      The default,   NCORE=1            might be grossly inefficient         |
|      on modern multi-core architectures or massively parallel machines.     |
|      Do your own testing !!!!                                               |
|      Unfortunately you need to use the default for GW and RPA calculations. |
|      (for HF NCORE is supported but not extensively tested yet)             |
|                                                                             |
 ----------------------------------------------------------------------------- 

 POTCAR:   PAW_PBE Si 05Jan2001                   
   VRHFIN =Si: s2p2                                                             
   LEXCH  = PE                                                                  
   EATOM  =   103.0669 eV,    7.5752 Ry                                         
                                                                                
   TITEL  = PAW_PBE Si 05Jan2001                                                
   LULTRA =        F    use ultrasoft PP ?                                      
   IUNSCR =        1    unscreen: 0-lin 1-nonlin 2-no                           
   RPACOR =    1.500    partial core radius                                     
   POMASS =   28.085; ZVAL   =    4.000    mass and valenz                      
   RCORE  =    1.900    outmost cutoff radius                                   
   RWIGS  =    2.480; RWIGS  =    1.312    wigner-seitz radius (au A)           
   ENMAX  =  245.345; ENMIN  =  184.009 eV                                      
   ICORE  =        2    local potential                                         
   LCOR   =        T    correct aug charges                                     
   LPAW   =        T    paw PP                                                  
   EAUG   =  322.069                                                            
   DEXC   =    -.007                                                            
   RMAX   =    2.944    core radius for proj-oper                               
   RAUG   =    1.300    factor for augmentation sphere                          
   RDEP   =    1.993    radius for radial grids                                 
   QCUT   =   -4.246; QGAM   =    8.493    optimization parameters              
                                                                                
   Description                                                                  
     l     E      TYP  RCUT    TYP  RCUT                                        
     0   .000     23  1.900                                                     
     0   .000     23  1.900                                                     
     1   .000     23  1.900                                                     
     1   .000     23  1.900                                                     
     2   .000      7  1.900                                                     
  local pseudopotential read in
  partial core-charges read in
  atomic valenz-charges read in
  non local Contribution for L=           0  read in
    real space projection operators read in
  non local Contribution for L=           0  read in
    real space projection operators read in
  non local Contribution for L=           1  read in
    real space projection operators read in
  non local Contribution for L=           1  read in
    real space projection operators read in
    PAW grid and wavefunctions read in
 
   number of l-projection  operators is LMAX  =           4
   number of lm-projection operators is LMMAX =           8
 

 ----------------------------------------------------------------------------- 
|                                                                             |
|  ADVICE TO THIS USER RUNNING 'VASP/VAMP'   (HEAR YOUR MASTER'S VOICE ...):  |
|                                                                             |
|      You have a (more or less) 'large supercell' and for larger cells       |
|      it might be more efficient to use real space projection operators      |
|      So try LREAL= Auto  in the INCAR   file.                               |
|      Mind: If you want to do a very accurate calculations keep the          |
|      reciprocal projection scheme          (i.e. LREAL=.FALSE.)             |
|                                                                             |
 ----------------------------------------------------------------------------- 

 PAW_PBE Si 05Jan2001                   :
 energy of atom  1       EATOM= -103.0669
 kinetic energy error for atom=    0.0006 (will be added to EATOM!!)
 
 
 POSCAR: Si                                      
  positions in direct lattice
  No initial velocities read in
 exchange correlation table for  LEXCH =        8
   RHO(1)=    0.500       N(1)  =     2000
   RHO(2)=  100.500       N(2)  =     4000
 


--------------------------------------------------------------------------------------------------------


 ion  position               nearest neighbor table
   1  0.062  0.063  0.063-  10 2.36  34 2.36   2 2.37   4 2.37
   2  0.000  0.000  0.000-   7 2.37  25 2.37  97 2.37   1 2.37
   3  0.312  0.062  0.063-  36 2.36   4 2.36  12 2.37   6 2.37
   4  0.250  0.000  0.000-   3 2.36  27 2.37  99 2.37   1 2.37
   5  0.562  0.062  0.062-   6 2.37   8 2.37  14 2.37  38 2.37
   6  0.500  0.000  0.000-   5 2.37  29 2.37 101 2.37   3 2.37
   7  0.812  0.062  0.062-   2 2.37   8 2.37  16 2.37  40 2.37
   8  0.750  0.000  0.000-   5 2.37   7 2.37  31 2.37 103 2.37
   9  0.062  0.312  0.062-  10 2.37  12 2.37  18 2.37  42 2.37
  10  0.000  0.250  0.000-   1 2.36   9 2.37  15 2.37 105 2.37
  11  0.312  0.312  0.062-  12 2.37  14 2.37  20 2.37  44 2.37
  12  0.250  0.250  0.000-   9 2.37  11 2.37 107 2.37   3 2.37
  13  0.562  0.312  0.062-  14 2.37  16 2.37  22 2.37  46 2.37
  14  0.500  0.250  0.000-   5 2.37  11 2.37  13 2.37 109 2.37
  15  0.812  0.312  0.062-  10 2.37  16 2.37  24 2.37  48 2.37
  16  0.750  0.250  0.000-   7 2.37  13 2.37  15 2.37 111 2.37
  17  0.062  0.562  0.062-  18 2.37  20 2.37  26 2.37  50 2.37
  18  0.000  0.500  0.000-   9 2.37  17 2.37  23 2.37 113 2.37
  19  0.312  0.562  0.062-  20 2.37  22 2.37  28 2.37  52 2.37
  20  0.250  0.500  0.000-  11 2.37  17 2.37  19 2.37 115 2.37
  21  0.562  0.562  0.062-  22 2.37  24 2.37  30 2.37  54 2.37
  22  0.500  0.500  0.000-  13 2.37  19 2.37  21 2.37 117 2.37
  23  0.812  0.562  0.062-  18 2.37  24 2.37  32 2.37  56 2.37
  24  0.750  0.500  0.000-  15 2.37  21 2.37  23 2.37 119 2.37
  25  0.062  0.812  0.062-   2 2.37  26 2.37  28 2.37  58 2.37
  26  0.000  0.750  0.000-  17 2.37  25 2.37  31 2.37 121 2.37
  27  0.312  0.812  0.062-   4 2.37  28 2.37  30 2.37  60 2.37
  28  0.250  0.750  0.000-  19 2.37  25 2.37  27 2.37 123 2.37
  29  0.562  0.812  0.062-   6 2.37  30 2.37  32 2.37  62 2.37
  30  0.500  0.750  0.000-  21 2.37  27 2.37  29 2.37 125 2.37
  31  0.812  0.812  0.062-   8 2.37  26 2.37  32 2.37  64 2.37
  32  0.750  0.750  0.000-  23 2.37  29 2.37  31 2.37 127 2.37
  33  0.062  0.062  0.312-  34 2.37  36 2.37  42 2.37  66 2.37
  34  0.000  0.000  0.250-   1 2.36  33 2.37  39 2.37  57 2.37
  35  0.312  0.062  0.312-  36 2.37  38 2.37  44 2.37  68 2.37
  36  0.250  0.000  0.250-   3 2.36  33 2.37  35 2.37  59 2.37
  37  0.562  0.062  0.312-  38 2.37  40 2.37  46 2.37  70 2.37
  38  0.500  0.000  0.250-   5 2.37  35 2.37  37 2.37  61 2.37
  39  0.812  0.062  0.312-  34 2.37  40 2.37  48 2.37  72 2.37
  40  0.750  0.000  0.250-   7 2.37  37 2.37  39 2.37  63 2.37
  41  0.062  0.312  0.312-  42 2.37  44 2.37  50 2.37  74 2.37
  42  0.000  0.250  0.250-   9 2.37  33 2.37  41 2.37  47 2.37
  43  0.312  0.312  0.312-  44 2.37  46 2.37  52 2.37  76 2.37
  44  0.250  0.250  0.250-  11 2.37  35 2.37  41 2.37  43 2.37
  45  0.562  0.312  0.312-  46 2.37  48 2.37  54 2.37  78 2.37
  46  0.500  0.250  0.250-  13 2.37  37 2.37  43 2.37  45 2.37
  47  0.812  0.312  0.312-  42 2.37  48 2.37  56 2.37  80 2.37
  48  0.750  0.250  0.250-  15 2.37  39 2.37  45 2.37  47 2.37
  49  0.062  0.562  0.312-  50 2.37  52 2.37  58 2.37  82 2.37
  50  0.000  0.500  0.250-  17 2.37  41 2.37  49 2.37  55 2.37
  51  0.312  0.562  0.312-  52 2.37  54 2.37  60 2.37  84 2.37
  52  0.250  0.500  0.250-  19 2.37  43 2.37  49 2.37  51 2.37
  53  0.562  0.562  0.312-  54 2.37  56 2.37  62 2.37  86 2.37
  54  0.500  0.500  0.250-  21 2.37  45 2.37  51 2.37  53 2.37
  55  0.812  0.562  0.312-  50 2.37  56 2.37  64 2.37  88 2.37
  56  0.750  0.500  0.250-  23 2.37  47 2.37  53 2.37  55 2.37
  57  0.062  0.812  0.312-  34 2.37  58 2.37  60 2.37  90 2.37
  58  0.000  0.750  0.250-  25 2.37  49 2.37  57 2.37  63 2.37
  59  0.312  0.812  0.312-  36 2.37  60 2.37  62 2.37  92 2.37
  60  0.250  0.750  0.250-  27 2.37  51 2.37  57 2.37  59 2.37
  61  0.562  0.812  0.312-  38 2.37  62 2.37  64 2.37  94 2.37
  62  0.500  0.750  0.250-  29 2.37  53 2.37  59 2.37  61 2.37
  63  0.812  0.812  0.312-  40 2.37  58 2.37  64 2.37  96 2.37
  64  0.750  0.750  0.250-  31 2.37  55 2.37  61 2.37  63 2.37
  65  0.062  0.062  0.562-  66 2.37  68 2.37  74 2.37  98 2.37
  66  0.000  0.000  0.500-  33 2.37  65 2.37  71 2.37  89 2.37
  67  0.312  0.062  0.562-  68 2.37  70 2.37  76 2.37 100 2.37
  68  0.250  0.000  0.500-  35 2.37  65 2.37  67 2.37  91 2.37
  69  0.562  0.062  0.562-  70 2.37  72 2.37  78 2.37 102 2.37
  70  0.500  0.000  0.500-  37 2.37  67 2.37  69 2.37  93 2.37
  71  0.812  0.062  0.562-  66 2.37  72 2.37  80 2.37 104 2.37
  72  0.750  0.000  0.500-  39 2.37  69 2.37  71 2.37  95 2.37
  73  0.062  0.312  0.562-  74 2.37  76 2.37  82 2.37 106 2.37
  74  0.000  0.250  0.500-  41 2.37  65 2.37  73 2.37  79 2.37
  75  0.312  0.312  0.562-  76 2.37  78 2.37  84 2.37 108 2.37
  76  0.250  0.250  0.500-  43 2.37  67 2.37  73 2.37  75 2.37
  77  0.562  0.312  0.562-  78 2.37  80 2.37  86 2.37 110 2.37
  78  0.500  0.250  0.500-  45 2.37  69 2.37  75 2.37  77 2.37
  79  0.812  0.312  0.562-  74 2.37  80 2.37  88 2.37 112 2.37
  80  0.750  0.250  0.500-  47 2.37  71 2.37  77 2.37  79 2.37
  81  0.062  0.562  0.562-  82 2.37  84 2.37  90 2.37 114 2.37
  82  0.000  0.500  0.500-  49 2.37  73 2.37  81 2.37  87 2.37
  83  0.312  0.562  0.562-  84 2.37  86 2.37  92 2.37 116 2.37
  84  0.250  0.500  0.500-  51 2.37  75 2.37  81 2.37  83 2.37
  85  0.562  0.562  0.562-  86 2.37  88 2.37  94 2.37 118 2.37
  86  0.500  0.500  0.500-  53 2.37  77 2.37  83 2.37  85 2.37
  87  0.812  0.562  0.562-  82 2.37  88 2.37  96 2.37 120 2.37
  88  0.750  0.500  0.500-  55 2.37  79 2.37  85 2.37  87 2.37
  89  0.062  0.812  0.562-  66 2.37  90 2.37  92 2.37 122 2.37
  90  0.000  0.750  0.500-  57 2.37  81 2.37  89 2.37  95 2.37
  91  0.312  0.812  0.562-  68 2.37  92 2.37  94 2.37 124 2.37
  92  0.250  0.750  0.500-  59 2.37  83 2.37  89 2.37  91 2.37
  93  0.562  0.812  0.562-  70 2.37  94 2.37  96 2.37 126 2.37
  94  0.500  0.750  0.500-  61 2.37  85 2.37  91 2.37  93 2.37
  95  0.812  0.812  0.562-  72 2.37  90 2.37  96 2.37 128 2.37
  96  0.750  0.750  0.500-  63 2.37  87 2.37  93 2.37  95 2.37
  97  0.062  0.062  0.812-   2 2.37  98 2.37 100 2.37 106 2.37
  98  0.000  0.000  0.750-  65 2.37  97 2.37 103 2.37 121 2.37
  99  0.312  0.062  0.812-   4 2.37 100 2.37 102 2.37 108 2.37
 100  0.250  0.000  0.750-  67 2.37  97 2.37  99 2.37 123 2.37
 101  0.562  0.062  0.812-   6 2.37 102 2.37 104 2.37 110 2.37
 102  0.500  0.000  0.750-  69 2.37  99 2.37 101 2.37 125 2.37
 103  0.812  0.062  0.812-   8 2.37  98 2.37 104 2.37 112 2.37
 104  0.750  0.000  0.750-  71 2.37 101 2.37 103 2.37 127 2.37
 105  0.062  0.312  0.812-  10 2.37 106 2.37 108 2.37 114 2.37
 106  0.000  0.250  0.750-  73 2.37  97 2.37 105 2.37 111 2.37
 107  0.312  0.312  0.812-  12 2.37 108 2.37 110 2.37 116 2.37
 108  0.250  0.250  0.750-  75 2.37  99 2.37 105 2.37 107 2.37
 109  0.562  0.312  0.812-  14 2.37 110 2.37 112 2.37 118 2.37
 110  0.500  0.250  0.750-  77 2.37 101 2.37 107 2.37 109 2.37
 111  0.812  0.312  0.812-  16 2.37 106 2.37 112 2.37 120 2.37
 112  0.750  0.250  0.750-  79 2.37 103 2.37 109 2.37 111 2.37
 113  0.062  0.562  0.812-  18 2.37 114 2.37 116 2.37 122 2.37
 114  0.000  0.500  0.750-  81 2.37 105 2.37 113 2.37 119 2.37
 115  0.312  0.562  0.812-  20 2.37 116 2.37 118 2.37 124 2.37
 116  0.250  0.500  0.750-  83 2.37 107 2.37 113 2.37 115 2.37
 117  0.562  0.562  0.812-  22 2.37 118 2.37 120 2.37 126 2.37
 118  0.500  0.500  0.750-  85 2.37 109 2.37 115 2.37 117 2.37
 119  0.812  0.562  0.812-  24 2.37 114 2.37 120 2.37 128 2.37
 120  0.750  0.500  0.750-  87 2.37 111 2.37 117 2.37 119 2.37
 121  0.062  0.812  0.812-  26 2.37  98 2.37 122 2.37 124 2.37
 122  0.000  0.750  0.750-  89 2.37 113 2.37 121 2.37 127 2.37
 123  0.312  0.812  0.812-  28 2.37 100 2.37 124 2.37 126 2.37
 124  0.250  0.750  0.750-  91 2.37 115 2.37 121 2.37 123 2.37
 125  0.562  0.812  0.812-  30 2.37 102 2.37 126 2.37 128 2.37
 126  0.500  0.750  0.750-  93 2.37 117 2.37 123 2.37 125 2.37
 127  0.812  0.812  0.812-  32 2.37 104 2.37 122 2.37 128 2.37
 128  0.750  0.750  0.750-  95 2.37 119 2.37 125 2.37 127 2.37
 

IMPORTANT INFORMATION: All symmetrisations will be switched off!
NOSYMM: (Re-)initialisation of all symmetry stuff for point group C_1.

 
 
 KPOINTS: K-Spacing Value to Generate K-Mesh: 0.03

Automatic generation of k-mesh.
Space group operators:
 irot       det(A)        alpha          n_x          n_y          n_z        tau_x        tau_y        tau_z
    1     1.000000     0.000000     1.000000     0.000000     0.000000     0.000000     0.000000     0.000000
 
 Subroutine IBZKPT returns following result:
 ===========================================
 
 Found      1 irreducible k-points:
 
 Following reciprocal coordinates:
            Coordinates               Weight
  0.000000  0.000000  0.000000      1.000000
 
 Following cartesian coordinates:
            Coordinates               Weight
  0.000000  0.000000  0.000000      1.000000
 


--------------------------------------------------------------------------------------------------------




 Dimension of arrays:
   k-points           NKPTS =      1   k-points in BZ     NKDIM =      1   number of bands    NBANDS=    322
   number of dos      NEDOS =    301   number of ions     NIONS =    128
   non local maximal  LDIM  =      4   non local SUM 2l+1 LMDIM =      8
   total plane-waves  NPLWV = ******
   max r-space proj   IRMAX =      1   max aug-charges    IRDMAX= 176819
   dimension x,y,z NGX =   120 NGY =  120 NGZ =  120
   dimension x,y,z NGXF=   240 NGYF=  240 NGZF=  240
   support grid    NGXF=   480 NGYF=  480 NGZF=  480
   ions per type =             128
   NGX,Y,Z   is equivalent  to a cutoff of  12.90, 12.90, 12.90 a.u.
   NGXF,Y,Z  is equivalent  to a cutoff of  25.80, 25.80, 25.80 a.u.

 SYSTEM =  unknown system                          
 POSCAR =  Si                                      

 Startparameter for this run:
   NWRITE =      2    write-flag & timer
   PREC   = accura    normal or accurate (medium, high low for compatibility)
   ISTART =      0    job   : 0-new  1-cont  2-samecut
   ICHARG =      2    charge: 1-file 2-atom 10-const
   ISPIN  =      1    spin polarized calculation?
   LNONCOLLINEAR =      F non collinear calculations
   LSORBIT =      F    spin-orbit coupling
   INIWAV =      1    electr: 0-lowe 1-rand  2-diag
   LASPH  =      F    aspherical Exc in radial PAW
   METAGGA=      F    non-selfconsistent MetaGGA calc.

 Electronic Relaxation 1
   ENCUT  =  500.0 eV  36.75 Ry    6.06 a.u.  28.20 28.20 28.20*2*pi/ulx,y,z
   ENINI  =  500.0     initial cutoff
   ENAUG  =  322.1 eV  augmentation charge cutoff
   NELM   =     60;   NELMIN=  2; NELMDL= -5     # of ELM steps 
   EDIFF  = 0.1E-07   stopping-criterion for ELM
   LREAL  =      F    real-space projection
   NLSPLINE    = F    spline interpolate recip. space projectors
   LCOMPAT=      F    compatible to vasp.4.4
   GGA_COMPAT  = T    GGA compatible to vasp.4.4-vasp.4.6
   LMAXPAW     = -100 max onsite density
   LMAXMIX     =    2 max onsite mixed and CHGCAR
   VOSKOWN=      0    Vosko Wilk Nusair interpolation
   ROPT   =    0.00000
 Ionic relaxation
   EDIFFG = 0.1E-06   stopping-criterion for IOM
   NSW    =      0    number of steps for IOM
   NBLOCK =      1;   KBLOCK =      1    inner block; outer block 
   IBRION =     -1    ionic relax: 0-MD 1-quasi-New 2-CG
   NFREE  =      0    steps in history (QN), initial steepest desc. (CG)
   ISIF   =      2    stress and relaxation
   IWAVPR =     10    prediction:  0-non 1-charg 2-wave 3-comb
   ISYM   =      0    0-nonsym 1-usesym 2-fastsym
   LCORR  =      T    Harris-Foulkes like correction to forces

   POTIM  = 0.5000    time-step for ionic-motion
   TEIN   =    0.0    initial temperature
   TEBEG  =    0.0;   TEEND  =   0.0 temperature during run
   SMASS  =  -3.00    Nose mass-parameter (am)
   estimated Nose-frequenzy (Omega)   =  0.10E-29 period in steps =****** mass=  -0.547E-26a.u.
   SCALEE = 1.0000    scale energy and forces
   NPACO  =    256;   APACO  = 16.0  distance and # of slots for P.C.
   PSTRESS=    0.0 pullay stress

  Mass of Ions in am
   POMASS =  28.09
  Ionic Valenz
   ZVAL   =   4.00
  Atomic Wigner-Seitz radii
   RWIGS  =  -1.00
  virtual crystal weights 
   VCA    =   1.00
   NELECT =     512.0000    total number of electrons
   NUPDOWN=      -1.0000    fix difference up-down

 DOS related values:
   EMIN   =  10.00;   EMAX   =-10.00  energy-range for DOS
   EFERMI =   0.00
   ISMEAR =     0;   SIGMA  =   0.05  broadening in eV -4-tet -1-fermi 0-gaus

 Electronic relaxation 2 (details)
   IALGO  =     38    algorithm
   LDIAG  =      T    sub-space diagonalisation (order eigenvalues)
   LSUBROT=      F    optimize rotation matrix (better conditioning)
   TURBO    =      0    0=normal 1=particle mesh
   IRESTART =      0    0=no restart 2=restart with 2 vectors
   NREBOOT  =      0    no. of reboots
   NMIN     =      0    reboot dimension
   EREF     =   0.00    reference energy to select bands
   IMIX   =      4    mixing-type and parameters
     AMIX     =   0.40;   BMIX     =  1.00
     AMIX_MAG =   1.60;   BMIX_MAG =  1.00
     AMIN     =   0.10
     WC   =   100.;   INIMIX=   1;  MIXPRE=   1;  MAXMIX= -45

 Intra band minimization:
   WEIMIN = 0.0000     energy-eigenvalue tresh-hold
   EBREAK =  0.78E-11  absolut break condition
   DEPER  =   0.30     relativ break condition  

   TIME   =   0.40     timestep for ELM

  volume/ion in A,a.u.               =      20.44       137.95
  Fermi-wavevector in a.u.,A,eV,Ry     =   0.950423  1.796039 12.290193  0.903304
  Thomas-Fermi vector in A             =   2.078798
 
 Write flags
   LWAVE        =      F    write WAVECAR
   LDOWNSAMPLE  =      F    k-point downsampling of WAVECAR
   LCHARG       =      F    write CHGCAR
   LVTOT        =      F    write LOCPOT, total local potential
   LVHAR        =      F    write LOCPOT, Hartree potential only
   LELF         =      F    write electronic localiz. function (ELF)
   LORBIT       =      0    0 simple, 1 ext, 2 COOP (PROOUT), +10 PAW based schemes


 Dipole corrections
   LMONO  =      F    monopole corrections only (constant potential shift)
   LDIPOL =      F    correct potential (dipole corrections)
   IDIPOL =      0    1-x, 2-y, 3-z, 4-all directions 
   EPSILON=  1.0000000 bulk dielectric constant

 Exchange correlation treatment:
   GGA     =    --    GGA type
   LEXCH   =     8    internal setting for exchange type
   VOSKOWN=      0    Vosko Wilk Nusair interpolation
   LHFCALC =     F    Hartree Fock is set to
   LHFONE  =     F    Hartree Fock one center treatment
   AEXX    =    0.0000 exact exchange contribution

 Linear response parameters
   LEPSILON=     F    determine dielectric tensor
   LRPA    =     F    only Hartree local field effects (RPA)
   LNABLA  =     F    use nabla operator in PAW spheres
   LVEL    =     F    velocity operator in full k-point grid
   LINTERFAST=   F  fast interpolation
   KINTER  =     0    interpolate to denser k-point grid
   CSHIFT  =0.1000    complex shift for real part using Kramers Kronig
   OMEGAMAX=  -1.0    maximum frequency
   DEG_THRESHOLD= 0.2000000E-02 threshold for treating states as degnerate
   RTIME   =   -0.100 relaxation time in fs
  (WPLASMAI=    0.000 imaginary part of plasma frequency in eV, 0.658/RTIME)
   DFIELD  = 0.0000000 0.0000000 0.0000000 field for delta impulse in time
 
 Orbital magnetization related:
   ORBITALMAG=     F  switch on orbital magnetization
   LCHIMAG   =     F  perturbation theory with respect to B field
   DQ        =  0.001000  dq finite difference perturbation B field
   LLRAUG    =     F  two centre corrections for induced B field



--------------------------------------------------------------------------------------------------------


 Static calculation
 charge density and potential will be updated during run
 non-spin polarized calculation
 Variant of blocked Davidson
 Davidson routine will perform the subspace rotation
 perform sub-space diagonalisation
    after iterative eigenvector-optimisation
 modified Broyden-mixing scheme, WC =      100.0
 initial mixing is a Kerker type mixing with AMIX =  0.4000 and BMIX =      1.0000
 Hartree-type preconditioning will be used
 using additional bands           66
 reciprocal scheme for non local part
 use partial core corrections
 calculate Harris-corrections to forces 
   (improved forces if not selfconsistent)
 use gradient corrections 
 use of overlap-Matrix (Vanderbilt PP)
 Gauss-broadening in eV      SIGMA  =   0.05


--------------------------------------------------------------------------------------------------------


  energy-cutoff  :      500.00
  volume of cell :     2616.64
      direct lattice vectors                 reciprocal lattice vectors
     0.000000000 10.937160696 10.937160696    -0.045715704  0.045715704  0.045715704
    10.937160696  0.000000000 10.937160696     0.045715704 -0.045715704  0.045715704
    10.937160696 10.937160696  0.000000000     0.045715704  0.045715704 -0.045715704

  length of vectors
    15.467480990 15.467480990 15.467480990     0.079181922  0.079181922  0.079181922


 
 k-points in units of 2pi/SCALE and weight: K-Spacing Value to Generate K-Mesh: 0.03
   0.00000000  0.00000000  0.00000000       1.000
 
 k-points in reciprocal lattice and weights: K-Spacing Value to Generate K-Mesh: 0.03
   0.00000000  0.00000000  0.00000000       1.000
 
 position of ions in fractional coordinates (direct lattice) 
   0.06204284  0.06295716  0.06295716
   0.00000000  0.00000000  0.00000000
   0.31204284  0.06204284  0.06295716
   0.25000000  0.00000000  0.00000000
   0.56250000  0.06250000  0.06250000
   0.50000000  0.00000000  0.00000000
   0.81250000  0.06250000  0.06250000
   0.75000000  0.00000000  0.00000000
   0.06250000  0.31250000  0.06250000
   0.00000000  0.25000000  0.00000000
   0.31250000  0.31250000  0.06250000
   0.25000000  0.25000000  0.00000000
   0.56250000  0.31250000  0.06250000
   0.50000000  0.25000000  0.00000000
   0.81250000  0.31250000  0.06250000
   0.75000000  0.25000000  0.00000000
   0.06250000  0.56250000  0.06250000
   0.00000000  0.50000000  0.00000000
   0.31250000  0.56250000  0.06250000
   0.25000000  0.50000000  0.00000000
   0.56250000  0.56250000  0.06250000
   0.50000000  0.50000000  0.00000000
   0.81250000  0.56250000  0.06250000
   0.75000000  0.50000000  0.00000000
   0.06250000  0.81250000  0.06250000
   0.00000000  0.75000000  0.00000000
   0.31250000  0.81250000  0.06250000
   0.25000000  0.75000000  0.00000000
   0.56250000  0.81250000  0.06250000
   0.50000000  0.75000000  0.00000000
   0.81250000  0.81250000  0.06250000
   0.75000000  0.75000000  0.00000000
   0.06250000  0.06250000  0.31250000
   0.00000000  0.00000000  0.25000000
   0.31250000  0.06250000  0.31250000
   0.25000000  0.00000000  0.25000000
   0.56250000  0.06250000  0.31250000
   0.50000000  0.00000000  0.25000000
   0.81250000  0.06250000  0.31250000
   0.75000000  0.00000000  0.25000000
   0.06250000  0.31250000  0.31250000
   0.00000000  0.25000000  0.25000000
   0.31250000  0.31250000  0.31250000
   0.25000000  0.25000000  0.25000000
   0.56250000  0.31250000  0.31250000
   0.50000000  0.25000000  0.25000000
   0.81250000  0.31250000  0.31250000
   0.75000000  0.25000000  0.25000000
   0.06250000  0.56250000  0.31250000
   0.00000000  0.50000000  0.25000000
   0.31250000  0.56250000  0.31250000
   0.25000000  0.50000000  0.25000000
   0.56250000  0.56250000  0.31250000
   0.50000000  0.50000000  0.25000000
   0.81250000  0.56250000  0.31250000
   0.75000000  0.50000000  0.25000000
   0.06250000  0.81250000  0.31250000
   0.00000000  0.75000000  0.25000000
   0.31250000  0.81250000  0.31250000
   0.25000000  0.75000000  0.25000000
   0.56250000  0.81250000  0.31250000
   0.50000000  0.75000000  0.25000000
   0.81250000  0.81250000  0.31250000
   0.75000000  0.75000000  0.25000000
   0.06250000  0.06250000  0.56250000
   0.00000000  0.00000000  0.50000000
   0.31250000  0.06250000  0.56250000
   0.25000000  0.00000000  0.50000000
   0.56250000  0.06250000  0.56250000
   0.50000000  0.00000000  0.50000000
   0.81250000  0.06250000  0.56250000
   0.75000000  0.00000000  0.50000000
   0.06250000  0.31250000  0.56250000
   0.00000000  0.25000000  0.50000000
   0.31250000  0.31250000  0.56250000
   0.25000000  0.25000000  0.50000000
   0.56250000  0.31250000  0.56250000
   0.50000000  0.25000000  0.50000000
   0.81250000  0.31250000  0.56250000
   0.75000000  0.25000000  0.50000000
   0.06250000  0.56250000  0.56250000
   0.00000000  0.50000000  0.50000000
   0.31250000  0.56250000  0.56250000
   0.25000000  0.50000000  0.50000000
   0.56250000  0.56250000  0.56250000
   0.50000000  0.50000000  0.50000000
   0.81250000  0.56250000  0.56250000
   0.75000000  0.50000000  0.50000000
   0.06250000  0.81250000  0.56250000
   0.00000000  0.75000000  0.50000000
   0.31250000  0.81250000  0.56250000
   0.25000000  0.75000000  0.50000000
   0.56250000  0.81250000  0.56250000
   0.50000000  0.75000000  0.50000000
   0.81250000  0.81250000  0.56250000
   0.75000000  0.75000000  0.50000000
   0.06250000  0.06250000  0.81250000
   0.00000000  0.00000000  0.75000000
   0.31250000  0.06250000  0.81250000
   0.25000000  0.00000000  0.75000000
   0.56250000  0.06250000  0.81250000
   0.50000000  0.00000000  0.75000000
   0.81250000  0.06250000  0.81250000
   0.75000000  0.00000000  0.75000000
   0.06250000  0.31250000  0.81250000
   0.00000000  0.25000000  0.75000000
   0.31250000  0.31250000  0.81250000
   0.25000000  0.25000000  0.75000000
   0.56250000  0.31250000  0.81250000
   0.50000000  0.25000000  0.75000000
   0.81250000  0.31250000  0.81250000
   0.75000000  0.25000000  0.75000000
   0.06250000  0.56250000  0.81250000
   0.00000000  0.50000000  0.75000000
   0.31250000  0.56250000  0.81250000
   0.25000000  0.50000000  0.75000000
   0.56250000  0.56250000  0.81250000
   0.50000000  0.50000000  0.75000000
   0.81250000  0.56250000  0.81250000
   0.75000000  0.50000000  0.75000000
   0.06250000  0.81250000  0.81250000
   0.00000000  0.75000000  0.75000000
   0.31250000  0.81250000  0.81250000
   0.25000000  0.75000000  0.75000000
   0.56250000  0.81250000  0.81250000
   0.50000000  0.75000000  0.75000000
   0.81250000  0.81250000  0.81250000
   0.75000000  0.75000000  0.75000000
 
 position of ions in cartesian coordinates  (Angst):
   1.37714509  1.36714509  1.36714509
   0.00000000  0.00000000  0.00000000
   1.36714509  4.10143526  4.09143526
   0.00000000  2.73429017  2.73429017
   1.36714509  6.83572544  6.83572544
   0.00000000  5.46858035  5.46858035
   1.36714509  9.57001561  9.57001561
   0.00000000  8.20287052  8.20287052
   4.10143526  1.36714509  4.10143526
   2.73429017  0.00000000  2.73429017
   4.10143526  4.10143526  6.83572544
   2.73429017  2.73429017  5.46858035
   4.10143526  6.83572544  9.57001561
   2.73429017  5.46858035  8.20287052
   4.10143526  9.57001561 12.30430578
   2.73429017  8.20287052 10.93716070
   6.83572544  1.36714509  6.83572544
   5.46858035  0.00000000  5.46858035
   6.83572544  4.10143526  9.57001561
   5.46858035  2.73429017  8.20287052
   6.83572544  6.83572544 12.30430578
   5.46858035  5.46858035 10.93716070
   6.83572544  9.57001561 15.03859596
   5.46858035  8.20287052 13.67145087
   9.57001561  1.36714509  9.57001561
   8.20287052  0.00000000  8.20287052
   9.57001561  4.10143526 12.30430578
   8.20287052  2.73429017 10.93716070
   9.57001561  6.83572544 15.03859596
   8.20287052  5.46858035 13.67145087
   9.57001561  9.57001561 17.77288613
   8.20287052  8.20287052 16.40574104
   4.10143526  4.10143526  1.36714509
   2.73429017  2.73429017  0.00000000
   4.10143526  6.83572544  4.10143526
   2.73429017  5.46858035  2.73429017
   4.10143526  9.57001561  6.83572544
   2.73429017  8.20287052  5.46858035
   4.10143526 12.30430578  9.57001561
   2.73429017 10.93716070  8.20287052
   6.83572544  4.10143526  4.10143526
   5.46858035  2.73429017  2.73429017
   6.83572544  6.83572544  6.83572544
   5.46858035  5.46858035  5.46858035
   6.83572544  9.57001561  9.57001561
   5.46858035  8.20287052  8.20287052
   6.83572544 12.30430578 12.30430578
   5.46858035 10.93716070 10.93716070
   9.57001561  4.10143526  6.83572544
   8.20287052  2.73429017  5.46858035
   9.57001561  6.83572544  9.57001561
   8.20287052  5.46858035  8.20287052
   9.57001561  9.57001561 12.30430578
   8.20287052  8.20287052 10.93716070
   9.57001561 12.30430578 15.03859596
   8.20287052 10.93716070 13.67145087
  12.30430578  4.10143526  9.57001561
  10.93716070  2.73429017  8.20287052
  12.30430578  6.83572544 12.30430578
  10.93716070  5.46858035 10.93716070
  12.30430578  9.57001561 15.03859596
  10.93716070  8.20287052 13.67145087
  12.30430578 12.30430578 17.77288613
  10.93716070 10.93716070 16.40574104
   6.83572544  6.83572544  1.36714509
   5.46858035  5.46858035  0.00000000
   6.83572544  9.57001561  4.10143526
   5.46858035  8.20287052  2.73429017
   6.83572544 12.30430578  6.83572544
   5.46858035 10.93716070  5.46858035
   6.83572544 15.03859596  9.57001561
   5.46858035 13.67145087  8.20287052
   9.57001561  6.83572544  4.10143526
   8.20287052  5.46858035  2.73429017
   9.57001561  9.57001561  6.83572544
   8.20287052  8.20287052  5.46858035
   9.57001561 12.30430578  9.57001561
   8.20287052 10.93716070  8.20287052
   9.57001561 15.03859596 12.30430578
   8.20287052 13.67145087 10.93716070
  12.30430578  6.83572544  6.83572544
  10.93716070  5.46858035  5.46858035
  12.30430578  9.57001561  9.57001561
  10.93716070  8.20287052  8.20287052
  12.30430578 12.30430578 12.30430578
  10.93716070 10.93716070 10.93716070
  12.30430578 15.03859596 15.03859596
  10.93716070 13.67145087 13.67145087
  15.03859596  6.83572544  9.57001561
  13.67145087  5.46858035  8.20287052
  15.03859596  9.57001561 12.30430578
  13.67145087  8.20287052 10.93716070
  15.03859596 12.30430578 15.03859596
  13.67145087 10.93716070 13.67145087
  15.03859596 15.03859596 17.77288613
  13.67145087 13.67145087 16.40574104
   9.57001561  9.57001561  1.36714509
   8.20287052  8.20287052  0.00000000
   9.57001561 12.30430578  4.10143526
   8.20287052 10.93716070  2.73429017
   9.57001561 15.03859596  6.83572544
   8.20287052 13.67145087  5.46858035
   9.57001561 17.77288613  9.57001561
   8.20287052 16.40574104  8.20287052
  12.30430578  9.57001561  4.10143526
  10.93716070  8.20287052  2.73429017
  12.30430578 12.30430578  6.83572544
  10.93716070 10.93716070  5.46858035
  12.30430578 15.03859596  9.57001561
  10.93716070 13.67145087  8.20287052
  12.30430578 17.77288613 12.30430578
  10.93716070 16.40574104 10.93716070
  15.03859596  9.57001561  6.83572544
  13.67145087  8.20287052  5.46858035
  15.03859596 12.30430578  9.57001561
  13.67145087 10.93716070  8.20287052
  15.03859596 15.03859596 12.30430578
  13.67145087 13.67145087 10.93716070
  15.03859596 17.77288613 15.03859596
  13.67145087 16.40574104 13.67145087
  17.77288613  9.57001561  9.57001561
  16.40574104  8.20287052  8.20287052
  17.77288613 12.30430578 12.30430578
  16.40574104 10.93716070 10.93716070
  17.77288613 15.03859596 15.03859596
  16.40574104 13.67145087 13.67145087
  17.77288613 17.77288613 17.77288613
  16.40574104 16.40574104 16.40574104
 


--------------------------------------------------------------------------------------------------------


 k-point  1 :   0.0000 0.0000 0.0000  plane waves:   66299

 maximum and minimum number of plane-waves per node :      3320     3310

 maximum number of plane-waves:     66299
 maximum index in each direction: 
   IXMAX=   28   IYMAX=   28   IZMAX=   28
   IXMIN=  -28   IYMIN=  -28   IZMIN=  -28


 parallel 3D FFT for wavefunctions:
    minimum data exchange during FFTs selected (reduces bandwidth)
 parallel 3D FFT for charge:
    minimum data exchange during FFTs selected (reduces bandwidth)


 total amount of memory used by VASP MPI-rank0   118934. kBytes
=======================================================================

   base      :      30000. kBytes
   nonl-proj :       7011. kBytes
   fftplans  :      53058. kBytes
   grid      :      20148. kBytes
   one-center:         21. kBytes
   wavefun   :       8696. kBytes
 
     INWAV:  cpu time    0.0000: real time    0.0001
 Broyden mixing: mesh for mixing (old mesh)
   NGX = 57   NGY = 57   NGZ = 57
  (NGX  =240   NGY  =240   NGZ  =240)
  gives a total of 185193 points

 initial charge density was supplied:
 charge density of overlapping atoms calculated
 number of electron     512.0000000 magnetization 
 keeping initial charge density in first step


--------------------------------------------------------------------------------------------------------


 Maximum index for augmentation-charges         4439 (set IRDMAX)


--------------------------------------------------------------------------------------------------------


 First call to EWALD:  gamma=   0.129
 Maximum number of real-space cells 3x 3x 3
 Maximum number of reciprocal cells 3x 3x 3

    FEWALD:  cpu time    0.0050: real time    0.0050


--------------------------------------- Iteration      1(   1)  ---------------------------------------


    POTLOK:  cpu time    0.2308: real time    0.2362
    SETDIJ:  cpu time    0.3049: real time    0.3058
     EDDAV:  cpu time    4.7950: real time    4.8068
       DOS:  cpu time    0.0006: real time    0.0006
    --------------------------------------------
      LOOP:  cpu time    5.3313: real time    5.3494

 eigenvalue-minimisations  :   644
 total energy-change (2. order) : 0.1374888E+04  (-0.1908718E+05)
 number of electron     512.0000000 magnetization 
 augmentation part      512.0000000 magnetization 

 Free energy of the ion-electron system (eV)
  ---------------------------------------------------
  alpha Z        PSCENC =       210.78028765
  Ewald energy   TEWEN  =    -14524.86522100
  -Hartree energ DENC   =      -724.62052845
  -exchange      EXHF   =         0.00000000
  -V(xc)+E(xc)   XCENC  =     -1195.83148030
  PAW double counting   =      4221.13331941    -1969.18571412
  entropy T*S    EENTRO =        -0.01554205
  eigenvalues    EBANDS =      2165.01202362
  atomic energy  EATOM  =     13192.48085998
  Solvation  Ediel_sol  =         0.00000000
  ---------------------------------------------------
  free energy    TOTEN  =      1374.88800476 eV

  energy without entropy =     1374.90354681  energy(sigma->0) =     1374.89577578


--------------------------------------------------------------------------------------------------------




--------------------------------------- Iteration      1(   2)  ---------------------------------------


     EDDAV:  cpu time    5.4518: real time    5.4652
       DOS:  cpu time    0.0005: real time    0.0005
    --------------------------------------------
      LOOP:  cpu time    5.4523: real time    5.4657

 eigenvalue-minimisations  :   758
 total energy-change (2. order) :-0.1911906E+04  (-0.1811825E+04)
 number of electron     512.0000000 magnetization 
 augmentation part      512.0000000 magnetization 

 Free energy of the ion-electron system (eV)
  ---------------------------------------------------
  alpha Z        PSCENC =       210.78028765
  Ewald energy   TEWEN  =    -14524.86522100
  -Hartree energ DENC   =      -724.62052845
  -exchange      EXHF   =         0.00000000
  -V(xc)+E(xc)   XCENC  =     -1195.83148030
  PAW double counting   =      4221.13331941    -1969.18571412
  entropy T*S    EENTRO =        -0.00000170
  eigenvalues    EBANDS =       253.09012859
  atomic energy  EATOM  =     13192.48085998
  Solvation  Ediel_sol  =         0.00000000
  ---------------------------------------------------
  free energy    TOTEN  =      -537.01834992 eV

  energy without entropy =     -537.01834822  energy(sigma->0) =     -537.01834907


--------------------------------------------------------------------------------------------------------




--------------------------------------- Iteration      1(   3)  ---------------------------------------


     EDDAV:  cpu time    5.4752: real time    5.4901
       DOS:  cpu time    0.0003: real time    0.0003
    --------------------------------------------
      LOOP:  cpu time    5.4756: real time    5.4904

 eigenvalue-minimisations  :   768
 total energy-change (2. order) :-0.1530054E+03  (-0.1483224E+03)
 number of electron     512.0000000 magnetization 
 augmentation part      512.0000000 magnetization 

 Free energy of the ion-electron system (eV)
  ---------------------------------------------------
  alpha Z        PSCENC =       210.78028765
  Ewald energy   TEWEN  =    -14524.86522100
  -Hartree energ DENC   =      -724.62052845
  -exchange      EXHF   =         0.00000000
  -V(xc)+E(xc)   XCENC  =     -1195.83148030
  PAW double counting   =      4221.13331941    -1969.18571412
  entropy T*S    EENTRO =        -0.00000000
  eigenvalues    EBANDS =       100.08477191
  atomic energy  EATOM  =     13192.48085998
  Solvation  Ediel_sol  =         0.00000000
  ---------------------------------------------------
  free energy    TOTEN  =      -690.02370490 eV

  energy without entropy =     -690.02370490  energy(sigma->0) =     -690.02370490


--------------------------------------------------------------------------------------------------------




--------------------------------------- Iteration      1(   4)  ---------------------------------------


     EDDAV:  cpu time    5.3842: real time    5.3971
       DOS:  cpu time    0.0004: real time    0.0004
    --------------------------------------------
      LOOP:  cpu time    5.3846: real time    5.3975

 eigenvalue-minimisations  :   752
 total energy-change (2. order) :-0.4509530E+01  (-0.4453702E+01)
 number of electron     512.0000000 magnetization 
 augmentation part      512.0000000 magnetization 

 Free energy of the ion-electron system (eV)
  ---------------------------------------------------
  alpha Z        PSCENC =       210.78028765
  Ewald energy   TEWEN  =    -14524.86522100
  -Hartree energ DENC   =      -724.62052845
  -exchange      EXHF   =         0.00000000
  -V(xc)+E(xc)   XCENC  =     -1195.83148030
  PAW double counting   =      4221.13331941    -1969.18571412
  entropy T*S    EENTRO =        -0.00000000
  eigenvalues    EBANDS =        95.57524157
  atomic energy  EATOM  =     13192.48085998
  Solvation  Ediel_sol  =         0.00000000
  ---------------------------------------------------
  free energy    TOTEN  =      -694.53323524 eV

  energy without entropy =     -694.53323524  energy(sigma->0) =     -694.53323524


--------------------------------------------------------------------------------------------------------




--------------------------------------- Iteration      1(   5)  ---------------------------------------


     EDDAV:  cpu time    5.3965: real time    5.4095
       DOS:  cpu time    0.0004: real time    0.0004
    CHARGE:  cpu time    0.5165: real time    0.5177
    MIXING:  cpu time    0.0093: real time    0.0095
    --------------------------------------------
      LOOP:  cpu time    5.9228: real time    5.9371

 eigenvalue-minimisations  :   744
 total energy-change (2. order) :-0.1654878E+00  (-0.1646996E+00)
 number of electron     511.9999999 magnetization 
 augmentation part      -29.7895991 magnetization 

 Broyden mixing:
  rms(total) = 0.24757E+01    rms(broyden)= 0.24757E+01
  rms(prec ) = 0.29957E+01
  weight for this iteration     100.00

 Free energy of the ion-electron system (eV)
  ---------------------------------------------------
  alpha Z        PSCENC =       210.78028765
  Ewald energy   TEWEN  =    -14524.86522100
  -Hartree energ DENC   =      -724.62052845
  -exchange      EXHF   =         0.00000000
  -V(xc)+E(xc)   XCENC  =     -1195.83148030
  PAW double counting   =      4221.13331941    -1969.18571412
  entropy T*S    EENTRO =        -0.00000000
  eigenvalues    EBANDS =        95.40975375
  atomic energy  EATOM  =     13192.48085998
  Solvation  Ediel_sol  =         0.00000000
  ---------------------------------------------------
  free energy    TOTEN  =      -694.69872306 eV

  energy without entropy =     -694.69872306  energy(sigma->0) =     -694.69872306


--------------------------------------------------------------------------------------------------------




--------------------------------------- Iteration      1(   6)  ---------------------------------------


    POTLOK:  cpu time    0.2265: real time    0.2304
    SETDIJ:  cpu time    0.2801: real time    0.2807
     EDDAV:  cpu time    5.0847: real time    5.0968
       DOS:  cpu time    0.0004: real time    0.0004
    CHARGE:  cpu time    0.5001: real time    0.5013
    MIXING:  cpu time    0.0105: real time    0.0105
    --------------------------------------------
      LOOP:  cpu time    6.1022: real time    6.1201

 eigenvalue-minimisations  :   696
 total energy-change (2. order) : 0.8398892E+01  (-0.4784932E+00)
 number of electron     511.9999999 magnetization 
 augmentation part      -29.4083891 magnetization 

 Broyden mixing:
  rms(total) = 0.14788E+01    rms(broyden)= 0.14788E+01
  rms(prec ) = 0.17864E+01
  weight for this iteration     100.00

 eigenvalues of (default mixing * dielectric matrix)
  average eigenvalue GAMMA=   2.4617
  2.4617

 Free energy of the ion-electron system (eV)
  ---------------------------------------------------
  alpha Z        PSCENC =       210.78028765
  Ewald energy   TEWEN  =    -14524.86522100
  -Hartree energ DENC   =      -824.84981709
  -exchange      EXHF   =         0.00000000
  -V(xc)+E(xc)   XCENC  =     -1180.31910995
  PAW double counting   =      4464.76634389    -2219.65335801
  entropy T*S    EENTRO =        -0.00000000
  eigenvalues    EBANDS =       195.36018367
  atomic energy  EATOM  =     13192.48085998
  Solvation  Ediel_sol  =         0.00000000
  ---------------------------------------------------
  free energy    TOTEN  =      -686.29983085 eV

  energy without entropy =     -686.29983085  energy(sigma->0) =     -686.29983085


--------------------------------------------------------------------------------------------------------




--------------------------------------- Iteration      1(   7)  ---------------------------------------


    POTLOK:  cpu time    0.2302: real time    0.2309
    SETDIJ:  cpu time    0.2806: real time    0.2813
     EDDAV:  cpu time    4.9092: real time    4.9209
       DOS:  cpu time    0.0004: real time    0.0004
    CHARGE:  cpu time    0.4997: real time    0.5009
    MIXING:  cpu time    0.0105: real time    0.0105
    --------------------------------------------
      LOOP:  cpu time    5.9306: real time    5.9448

 eigenvalue-minimisations  :   664
 total energy-change (2. order) : 0.3872848E+01  (-0.9699455E+00)
 number of electron     511.9999999 magnetization 
 augmentation part      -28.9140835 magnetization 

 Broyden mixing:
  rms(total) = 0.13039E+00    rms(broyden)= 0.13039E+00
  rms(prec ) = 0.15182E+00
  weight for this iteration     100.00

 eigenvalues of (default mixing * dielectric matrix)
  average eigenvalue GAMMA=   2.4928
  2.4928  2.4928

 Free energy of the ion-electron system (eV)
  ---------------------------------------------------
  alpha Z        PSCENC =       210.78028765
  Ewald energy   TEWEN  =    -14524.86522100
  -Hartree energ DENC   =      -991.88275314
  -exchange      EXHF   =         0.00000000
  -V(xc)+E(xc)   XCENC  =     -1153.93902534
  PAW double counting   =      4789.66793159    -2553.36641532
  entropy T*S    EENTRO =        -0.00000000
  eigenvalues    EBANDS =       348.69735275
  atomic energy  EATOM  =     13192.48085998
  Solvation  Ediel_sol  =         0.00000000
  ---------------------------------------------------
  free energy    TOTEN  =      -682.42698282 eV

  energy without entropy =     -682.42698282  energy(sigma->0) =     -682.42698282


--------------------------------------------------------------------------------------------------------




--------------------------------------- Iteration      1(   8)  ---------------------------------------


    POTLOK:  cpu time    0.2254: real time    0.2260
    SETDIJ:  cpu time    0.2796: real time    0.2802
     EDDAV:  cpu time    5.0374: real time    5.0494
       DOS:  cpu time    0.0004: real time    0.0004
    CHARGE:  cpu time    0.5195: real time    0.5208
    MIXING:  cpu time    0.0099: real time    0.0100
    --------------------------------------------
      LOOP:  cpu time    6.0721: real time    6.0867

 eigenvalue-minimisations  :   688
 total energy-change (2. order) :-0.1320578E+00  (-0.4945850E-01)
 number of electron     511.9999999 magnetization 
 augmentation part      -28.9853136 magnetization 

 Broyden mixing:
  rms(total) = 0.28106E-01    rms(broyden)= 0.28106E-01
  rms(prec ) = 0.37970E-01
  weight for this iteration     100.00

 eigenvalues of (default mixing * dielectric matrix)
  average eigenvalue GAMMA=   2.1009
  1.4514  2.7602  2.0910

 Free energy of the ion-electron system (eV)
  ---------------------------------------------------
  alpha Z        PSCENC =       210.78028765
  Ewald energy   TEWEN  =    -14524.86522100
  -Hartree energ DENC   =      -986.33392661
  -exchange      EXHF   =         0.00000000
  -V(xc)+E(xc)   XCENC  =     -1153.99522487
  PAW double counting   =      4718.76000159    -2480.24175292
  entropy T*S    EENTRO =        -0.00000000
  eigenvalues    EBANDS =       340.85593559
  atomic energy  EATOM  =     13192.48085998
  Solvation  Ediel_sol  =         0.00000000
  ---------------------------------------------------
  free energy    TOTEN  =      -682.55904059 eV

  energy without entropy =     -682.55904059  energy(sigma->0) =     -682.55904059


--------------------------------------------------------------------------------------------------------




--------------------------------------- Iteration      1(   9)  ---------------------------------------


    POTLOK:  cpu time    0.2267: real time    0.2285
    SETDIJ:  cpu time    0.2807: real time    0.2814
     EDDAV:  cpu time    5.4870: real time    5.5001
       DOS:  cpu time    0.0004: real time    0.0004
    CHARGE:  cpu time    0.5017: real time    0.5029
    MIXING:  cpu time    0.0111: real time    0.0111
    --------------------------------------------
      LOOP:  cpu time    6.5076: real time    6.5243

 eigenvalue-minimisations  :   768
 total energy-change (2. order) :-0.6448404E-02  (-0.2454788E-02)
 number of electron     511.9999999 magnetization 
 augmentation part      -28.9800567 magnetization 

 Broyden mixing:
  rms(total) = 0.15917E-01    rms(broyden)= 0.15917E-01
  rms(prec ) = 0.18140E-01
  weight for this iteration     100.00

 eigenvalues of (default mixing * dielectric matrix)
  average eigenvalue GAMMA=   2.2879
  1.0208  3.3904  2.7011  2.0395

 Free energy of the ion-electron system (eV)
  ---------------------------------------------------
  alpha Z        PSCENC =       210.78028765
  Ewald energy   TEWEN  =    -14524.86522100
  -Hartree energ DENC   =      -991.21294183
  -exchange      EXHF   =         0.00000000
  -V(xc)+E(xc)   XCENC  =     -1153.27712175
  PAW double counting   =      4725.23737599    -2486.95621557
  entropy T*S    EENTRO =        -0.00000000
  eigenvalues    EBANDS =       345.24748753
  atomic energy  EATOM  =     13192.48085998
  Solvation  Ediel_sol  =         0.00000000
  ---------------------------------------------------
  free energy    TOTEN  =      -682.56548900 eV

  energy without entropy =     -682.56548900  energy(sigma->0) =     -682.56548900


--------------------------------------------------------------------------------------------------------




--------------------------------------- Iteration      1(  10)  ---------------------------------------


    POTLOK:  cpu time    0.2251: real time    0.2278
    SETDIJ:  cpu time    0.2797: real time    0.2803
     EDDAV:  cpu time    5.0141: real time    5.0262
       DOS:  cpu time    0.0004: real time    0.0004
    CHARGE:  cpu time    0.5003: real time    0.5015
    MIXING:  cpu time    0.0110: real time    0.0111
    --------------------------------------------
      LOOP:  cpu time    6.0307: real time    6.0473

 eigenvalue-minimisations  :   672
 total energy-change (2. order) :-0.2684195E-02  (-0.5906323E-03)
 number of electron     511.9999999 magnetization 
 augmentation part      -28.9811196 magnetization 

 Broyden mixing:
  rms(total) = 0.48068E-02    rms(broyden)= 0.48068E-02
  rms(prec ) = 0.57579E-02
  weight for this iteration     100.00

 eigenvalues of (default mixing * dielectric matrix)
  average eigenvalue GAMMA=   1.9830
  3.2377  2.6110  2.1598  1.0582  0.8484

 Free energy of the ion-electron system (eV)
  ---------------------------------------------------
  alpha Z        PSCENC =       210.78028765
  Ewald energy   TEWEN  =    -14524.86522100
  -Hartree energ DENC   =      -991.21895011
  -exchange      EXHF   =         0.00000000
  -V(xc)+E(xc)   XCENC  =     -1153.35185815
  PAW double counting   =      4721.46086198    -2483.16136516
  entropy T*S    EENTRO =        -0.00000000
  eigenvalues    EBANDS =       345.30721162
  atomic energy  EATOM  =     13192.48085998
  Solvation  Ediel_sol  =         0.00000000
  ---------------------------------------------------
  free energy    TOTEN  =      -682.56817319 eV

  energy without entropy =     -682.56817319  energy(sigma->0) =     -682.56817319


--------------------------------------------------------------------------------------------------------




--------------------------------------- Iteration      1(  11)  ---------------------------------------


    POTLOK:  cpu time    0.2243: real time    0.2261
    SETDIJ:  cpu time    0.2807: real time    0.2813
     EDDAV:  cpu time    5.4103: real time    5.4232
       DOS:  cpu time    0.0004: real time    0.0004
    CHARGE:  cpu time    0.5032: real time    0.5044
    MIXING:  cpu time    0.0088: real time    0.0088
    --------------------------------------------
      LOOP:  cpu time    6.4276: real time    6.4442

 eigenvalue-minimisations  :   752
 total energy-change (2. order) :-0.1335253E-04  (-0.2019824E-04)
 number of electron     511.9999999 magnetization 
 augmentation part      -28.9796189 magnetization 

 Broyden mixing:
  rms(total) = 0.49613E-03    rms(broyden)= 0.49603E-03
  rms(prec ) = 0.56956E-03
  weight for this iteration     100.00

 eigenvalues of (default mixing * dielectric matrix)
  average eigenvalue GAMMA=   2.0343
  3.3657  2.6899  2.2033  1.9820  0.9823  0.9823

 Free energy of the ion-electron system (eV)
  ---------------------------------------------------
  alpha Z        PSCENC =       210.78028765
  Ewald energy   TEWEN  =    -14524.86522100
  -Hartree energ DENC   =      -991.69399882
  -exchange      EXHF   =         0.00000000
  -V(xc)+E(xc)   XCENC  =     -1153.28793574
  PAW double counting   =      4723.31871380    -2485.06431688
  entropy T*S    EENTRO =        -0.00000000
  eigenvalues    EBANDS =       345.76342446
  atomic energy  EATOM  =     13192.48085998
  Solvation  Ediel_sol  =         0.00000000
  ---------------------------------------------------
  free energy    TOTEN  =      -682.56818654 eV

  energy without entropy =     -682.56818654  energy(sigma->0) =     -682.56818654


--------------------------------------------------------------------------------------------------------




--------------------------------------- Iteration      1(  12)  ---------------------------------------


    POTLOK:  cpu time    0.2250: real time    0.2257
    SETDIJ:  cpu time    0.2809: real time    0.2816
     EDDAV:  cpu time    5.1881: real time    5.2005
       DOS:  cpu time    0.0004: real time    0.0004
    CHARGE:  cpu time    0.5015: real time    0.5027
    MIXING:  cpu time    0.0116: real time    0.0116
    --------------------------------------------
      LOOP:  cpu time    6.2075: real time    6.2224

 eigenvalue-minimisations  :   712
 total energy-change (2. order) :-0.4614718E-05  (-0.1278961E-05)
 number of electron     511.9999999 magnetization 
 augmentation part      -28.9793463 magnetization 

 Broyden mixing:
  rms(total) = 0.22296E-03    rms(broyden)= 0.22275E-03
  rms(prec ) = 0.25289E-03
  weight for this iteration     100.00

 eigenvalues of (default mixing * dielectric matrix)
  average eigenvalue GAMMA=   1.9254
  3.3074  2.6931  2.2644  2.2644  1.0248  1.0248  0.8988

 Free energy of the ion-electron system (eV)
  ---------------------------------------------------
  alpha Z        PSCENC =       210.78028765
  Ewald energy   TEWEN  =    -14524.86522100
  -Hartree energ DENC   =      -991.73930539
  -exchange      EXHF   =         0.00000000
  -V(xc)+E(xc)   XCENC  =     -1153.28651286
  PAW double counting   =      4723.43671258    -2485.17871136
  entropy T*S    EENTRO =        -0.00000000
  eigenvalues    EBANDS =       345.80369923
  atomic energy  EATOM  =     13192.48085998
  Solvation  Ediel_sol  =         0.00000000
  ---------------------------------------------------
  free energy    TOTEN  =      -682.56819116 eV

  energy without entropy =     -682.56819116  energy(sigma->0) =     -682.56819116


--------------------------------------------------------------------------------------------------------




--------------------------------------- Iteration      1(  13)  ---------------------------------------


    POTLOK:  cpu time    0.2247: real time    0.2254
    SETDIJ:  cpu time    0.2814: real time    0.2821
     EDDAV:  cpu time    5.3405: real time    5.3532
       DOS:  cpu time    0.0004: real time    0.0004
    CHARGE:  cpu time    0.5014: real time    0.5025
    MIXING:  cpu time    0.0124: real time    0.0124
    --------------------------------------------
      LOOP:  cpu time    6.3608: real time    6.3761

 eigenvalue-minimisations  :   744
 total energy-change (2. order) : 0.3917201E-05  (-0.5722012E-07)
 number of electron     511.9999999 magnetization 
 augmentation part      -28.9794683 magnetization 

 Broyden mixing:
  rms(total) = 0.66586E-04    rms(broyden)= 0.65893E-04
  rms(prec ) = 0.78481E-04
  weight for this iteration     100.00

 eigenvalues of (default mixing * dielectric matrix)
  average eigenvalue GAMMA=   1.8733
  3.3096  2.6975  2.4801  2.1316  0.9627  0.9627  1.2212  1.2212

 Free energy of the ion-electron system (eV)
  ---------------------------------------------------
  alpha Z        PSCENC =       210.78028765
  Ewald energy   TEWEN  =    -14524.86522100
  -Hartree energ DENC   =      -991.73003166
  -exchange      EXHF   =         0.00000000
  -V(xc)+E(xc)   XCENC  =     -1153.28654555
  PAW double counting   =      4723.39890818    -2485.13736242
  entropy T*S    EENTRO =        -0.00000000
  eigenvalues    EBANDS =       345.79091757
  atomic energy  EATOM  =     13192.48085998
  Solvation  Ediel_sol  =         0.00000000
  ---------------------------------------------------
  free energy    TOTEN  =      -682.56818724 eV

  energy without entropy =     -682.56818724  energy(sigma->0) =     -682.56818724


--------------------------------------------------------------------------------------------------------




--------------------------------------- Iteration      1(  14)  ---------------------------------------


    POTLOK:  cpu time    0.2245: real time    0.2251
    SETDIJ:  cpu time    0.2809: real time    0.2816
     EDDAV:  cpu time    5.2578: real time    5.2703
       DOS:  cpu time    0.0005: real time    0.0005
    CHARGE:  cpu time    0.5057: real time    0.5069
    MIXING:  cpu time    0.0110: real time    0.0110
    --------------------------------------------
      LOOP:  cpu time    6.2803: real time    6.2953

 eigenvalue-minimisations  :   720
 total energy-change (2. order) :-0.7187027E-06  (-0.1074291E-07)
 number of electron     511.9999999 magnetization 
 augmentation part      -28.9794369 magnetization 

 Broyden mixing:
  rms(total) = 0.39588E-04    rms(broyden)= 0.38412E-04
  rms(prec ) = 0.50009E-04
  weight for this iteration     100.00

 eigenvalues of (default mixing * dielectric matrix)
  average eigenvalue GAMMA=   1.8191
  3.2926  2.7280  2.4255  2.2633  0.9336  1.0126  1.0126  1.3519  1.3519

 Free energy of the ion-electron system (eV)
  ---------------------------------------------------
  alpha Z        PSCENC =       210.78028765
  Ewald energy   TEWEN  =    -14524.86522100
  -Hartree energ DENC   =      -991.73907421
  -exchange      EXHF   =         0.00000000
  -V(xc)+E(xc)   XCENC  =     -1153.28543902
  PAW double counting   =      4723.43011624    -2485.16887947
  entropy T*S    EENTRO =        -0.00000000
  eigenvalues    EBANDS =       345.79916186
  atomic energy  EATOM  =     13192.48085998
  Solvation  Ediel_sol  =         0.00000000
  ---------------------------------------------------
  free energy    TOTEN  =      -682.56818796 eV

  energy without entropy =     -682.56818796  energy(sigma->0) =     -682.56818796


--------------------------------------------------------------------------------------------------------




--------------------------------------- Iteration      1(  15)  ---------------------------------------


    POTLOK:  cpu time    0.2236: real time    0.2252
    SETDIJ:  cpu time    0.2799: real time    0.2807
     EDDAV:  cpu time    4.0067: real time    4.0173
       DOS:  cpu time    0.0004: real time    0.0004
    CHARGE:  cpu time    0.5026: real time    0.5038
    MIXING:  cpu time    0.0125: real time    0.0126
    --------------------------------------------
      LOOP:  cpu time    5.0258: real time    5.0399

 eigenvalue-minimisations  :   496
 total energy-change (2. order) : 0.1073691E-05  (-0.3051788E-08)
 number of electron     511.9999999 magnetization 
 augmentation part      -28.9794670 magnetization 

 Broyden mixing:
  rms(total) = 0.11562E-04    rms(broyden)= 0.64757E-05
  rms(prec ) = 0.70993E-05
  weight for this iteration     100.00
  WARNING: grid for Broyden might be to small

 eigenvalues of (default mixing * dielectric matrix)
  average eigenvalue GAMMA=   1.8210
  3.2940  2.6698  2.5895  2.1279  1.9972  0.9406  0.9885  1.0335  1.2845  1.2845

 Free energy of the ion-electron system (eV)
  ---------------------------------------------------
  alpha Z        PSCENC =       210.78028765
  Ewald energy   TEWEN  =    -14524.86522100
  -Hartree energ DENC   =      -991.73319064
  -exchange      EXHF   =         0.00000000
  -V(xc)+E(xc)   XCENC  =     -1153.28601649
  PAW double counting   =      4723.40782645    -2485.14581636
  entropy T*S    EENTRO =        -0.00000000
  eigenvalues    EBANDS =       345.79308351
  atomic energy  EATOM  =     13192.48085998
  Solvation  Ediel_sol  =         0.00000000
  ---------------------------------------------------
  free energy    TOTEN  =      -682.56818689 eV

  energy without entropy =     -682.56818689  energy(sigma->0) =     -682.56818689


--------------------------------------------------------------------------------------------------------




--------------------------------------- Iteration      1(  16)  ---------------------------------------


    POTLOK:  cpu time    0.2252: real time    0.2282
    SETDIJ:  cpu time    0.2803: real time    0.2810
     EDDAV:  cpu time    3.3092: real time    3.3171
       DOS:  cpu time    0.0004: real time    0.0004
    CHARGE:  cpu time    0.5007: real time    0.5019
    MIXING:  cpu time    0.0125: real time    0.0125
    --------------------------------------------
      LOOP:  cpu time    4.3284: real time    4.3411

 eigenvalue-minimisations  :   368
 total energy-change (2. order) :-0.7629023E-07  (-0.1884886E-09)
 number of electron     511.9999999 magnetization 
 augmentation part      -28.9794685 magnetization 

 Broyden mixing:
  rms(total) = 0.10124E-04    rms(broyden)= 0.32784E-05
  rms(prec ) = 0.40718E-05
  weight for this iteration     100.00
  WARNING: grid for Broyden might be to small

 eigenvalues of (default mixing * dielectric matrix)
  average eigenvalue GAMMA=   1.8050
  3.2790  2.7813  2.5457  2.2717  2.2717  1.3422  1.3422  1.1632  0.9864  0.9358
  0.9358

 Free energy of the ion-electron system (eV)
  ---------------------------------------------------
  alpha Z        PSCENC =       210.78028765
  Ewald energy   TEWEN  =    -14524.86522100
  -Hartree energ DENC   =      -991.73356321
  -exchange      EXHF   =         0.00000000
  -V(xc)+E(xc)   XCENC  =     -1153.28594021
  PAW double counting   =      4723.40855454    -2485.14666039
  entropy T*S    EENTRO =        -0.00000000
  eigenvalues    EBANDS =       345.79349566
  atomic energy  EATOM  =     13192.48085998
  Solvation  Ediel_sol  =         0.00000000
  ---------------------------------------------------
  free energy    TOTEN  =      -682.56818696 eV

  energy without entropy =     -682.56818696  energy(sigma->0) =     -682.56818696


--------------------------------------------------------------------------------------------------------




--------------------------------------- Iteration      1(  17)  ---------------------------------------


    POTLOK:  cpu time    0.2252: real time    0.2258
    SETDIJ:  cpu time    0.2796: real time    0.2803
     EDDAV:  cpu time    3.2239: real time    3.2317
       DOS:  cpu time    0.0004: real time    0.0004
    CHARGE:  cpu time    0.5018: real time    0.5030
    MIXING:  cpu time    0.0127: real time    0.0127
    --------------------------------------------
      LOOP:  cpu time    4.2436: real time    4.2538

 eigenvalue-minimisations  :   352
 total energy-change (2. order) :-0.1889020E-07  (-0.3184764E-10)
 number of electron     511.9999999 magnetization 
 augmentation part      -28.9794699 magnetization 

 Broyden mixing:
  rms(total) = 0.96398E-05    rms(broyden)= 0.10897E-05
  rms(prec ) = 0.13359E-05
  weight for this iteration     100.00
  WARNING: grid for Broyden might be to small

 eigenvalues of (default mixing * dielectric matrix)
  average eigenvalue GAMMA=   1.7928
  3.2928  2.7280  2.5992  2.1640  2.1640  2.0308  1.2769  1.2769  1.0392  1.0392
  0.9657  0.9369

 Free energy of the ion-electron system (eV)
  ---------------------------------------------------
  alpha Z        PSCENC =       210.78028765
  Ewald energy   TEWEN  =    -14524.86522100
  -Hartree energ DENC   =      -991.73329438
  -exchange      EXHF   =         0.00000000
  -V(xc)+E(xc)   XCENC  =     -1153.28597802
  PAW double counting   =      4723.40837338    -2485.14650787
  entropy T*S    EENTRO =        -0.00000000
  eigenvalues    EBANDS =       345.79329327
  atomic energy  EATOM  =     13192.48085998
  Solvation  Ediel_sol  =         0.00000000
  ---------------------------------------------------
  free energy    TOTEN  =      -682.56818698 eV

  energy without entropy =     -682.56818698  energy(sigma->0) =     -682.56818698


--------------------------------------------------------------------------------------------------------




--------------------------------------- Iteration      1(  18)  ---------------------------------------


    POTLOK:  cpu time    0.2247: real time    0.2254
    SETDIJ:  cpu time    0.2795: real time    0.2801
     EDDAV:  cpu time    3.2217: real time    3.2293
       DOS:  cpu time    0.0004: real time    0.0004
    CHARGE:  cpu time    0.5013: real time    0.5026
    MIXING:  cpu time    0.0129: real time    0.0129
    --------------------------------------------
      LOOP:  cpu time    4.2404: real time    4.2507

 eigenvalue-minimisations  :   352
 total energy-change (2. order) : 0.1834815E-07  (-0.9940437E-11)
 number of electron     511.9999999 magnetization 
 augmentation part      -28.9794703 magnetization 

 Broyden mixing:
  rms(total) = 0.95894E-05    rms(broyden)= 0.46611E-06
  rms(prec ) = 0.58414E-06
  weight for this iteration     100.00
  WARNING: grid for Broyden might be to small

 eigenvalues of (default mixing * dielectric matrix)
  average eigenvalue GAMMA=   1.7967
  3.2925  2.6900  2.6900  2.3997  2.3997  2.1613  1.3495  1.3495  1.1040  1.1040
  1.0060  0.9339  0.8776

 Free energy of the ion-electron system (eV)
  ---------------------------------------------------
  alpha Z        PSCENC =       210.78028765
  Ewald energy   TEWEN  =    -14524.86522100
  -Hartree energ DENC   =      -991.73326995
  -exchange      EXHF   =         0.00000000
  -V(xc)+E(xc)   XCENC  =     -1153.28598127
  PAW double counting   =      4723.40784790    -2485.14597366
  entropy T*S    EENTRO =        -0.00000000
  eigenvalues    EBANDS =       345.79326338
  atomic energy  EATOM  =     13192.48085998
  Solvation  Ediel_sol  =         0.00000000
  ---------------------------------------------------
  free energy    TOTEN  =      -682.56818696 eV

  energy without entropy =     -682.56818696  energy(sigma->0) =     -682.56818696


--------------------------------------------------------------------------------------------------------




--------------------------------------- Iteration      1(  19)  ---------------------------------------


    POTLOK:  cpu time    0.2250: real time    0.2257
    SETDIJ:  cpu time    0.2791: real time    0.2797
     EDDAV:  cpu time    3.2481: real time    3.2558
       DOS:  cpu time    0.0003: real time    0.0003
    --------------------------------------------
      LOOP:  cpu time    3.7525: real time    3.7615

 eigenvalue-minimisations  :   352
 total energy-change (2. order) : 0.1246008E-08  ( 0.9681700E-12)
 number of electron     511.9999999 magnetization 
 augmentation part      -28.9794703 magnetization 

 Free energy of the ion-electron system (eV)
  ---------------------------------------------------
  alpha Z        PSCENC =       210.78028765
  Ewald energy   TEWEN  =    -14524.86522100
  -Hartree energ DENC   =      -991.73324867
  -exchange      EXHF   =         0.00000000
  -V(xc)+E(xc)   XCENC  =     -1153.28598545
  PAW double counting   =      4723.40771627    -2485.14584283
  entropy T*S    EENTRO =        -0.00000000
  eigenvalues    EBANDS =       345.79324708
  atomic energy  EATOM  =     13192.48085998
  Solvation  Ediel_sol  =         0.00000000
  ---------------------------------------------------
  free energy    TOTEN  =      -682.56818696 eV

  energy without entropy =     -682.56818696  energy(sigma->0) =     -682.56818696


--------------------------------------------------------------------------------------------------------




 average (electrostatic) potential at core
  the test charge radii are     0.9892
  (the norm of the test charge is              1.0000)
       1 -83.4136       2 -83.4138       3 -83.4115       4 -83.4137       5 -83.4127
       6 -83.4123       7 -83.4115       8 -83.4123       9 -83.4114      10 -83.4133
      11 -83.4136      12 -83.4136      13 -83.4133      14 -83.4131      15 -83.4134
      16 -83.4133      17 -83.4134      18 -83.4121      19 -83.4135      20 -83.4136
      21 -83.4135      22 -83.4134      23 -83.4124      24 -83.4134      25 -83.4137
      26 -83.4136      27 -83.4137      28 -83.4133      29 -83.4112      30 -83.4135
      31 -83.4131      32 -83.4120      33 -83.4135      34 -83.4139      35 -83.4157
      36 -83.4133      37 -83.4137      38 -83.4137      39 -83.4138      40 -83.4136
      41 -83.4139      42 -83.4138      43 -83.4139      44 -83.4140      45 -83.4139
      46 -83.4137      47 -83.4136      48 -83.4140      49 -83.4139      50 -83.4138
      51 -83.4141      52 -83.4139      53 -83.4135      54 -83.4138      55 -83.4136
      56 -83.4135      57 -83.4161      58 -83.4140      59 -83.4136      60 -83.4143
      61 -83.4136      62 -83.4134      63 -83.4137      64 -83.4136      65 -83.4140
      66 -83.4135      67 -83.4147      68 -83.4151      69 -83.4139      70 -83.4138
      71 -83.4136      72 -83.4138      73 -83.4140      74 -83.4140      75 -83.4142
      76 -83.4140      77 -83.4135      78 -83.4139      79 -83.4137      80 -83.4136
      81 -83.4149      82 -83.4140      83 -83.4138      84 -83.4142      85 -83.4137
      86 -83.4136      87 -83.4138      88 -83.4137      89 -83.4139      90 -83.4153
      91 -83.4140      92 -83.4137      93 -83.4138      94 -83.4138      95 -83.4140
      96 -83.4138      97 -83.4141      98 -83.4140      99 -83.4161     100 -83.4149
     101 -83.4135     102 -83.4141     103 -83.4135     104 -83.4136     105 -83.4160
     106 -83.4141     107 -83.4138     108 -83.4143     109 -83.4135     110 -83.4133
     111 -83.4137     112 -83.4136     113 -83.4137     114 -83.4152     115 -83.4138
     116 -83.4139     117 -83.4137     118 -83.4137     119 -83.4139     120 -83.4138
     121 -83.4138     122 -83.4137     123 -83.4139     124 -83.4139     125 -83.4138
     126 -83.4138     127 -83.4134     128 -83.4138
 
 
 
 E-fermi :   5.9197     XC(G=0):  -9.3007     alpha+bet :-11.7327


 k-point     1 :       0.0000    0.0000    0.0000
  band No.  band energies     occupation 
      1      -6.1630      2.00000
      2      -5.3790      2.00000
      3      -5.3781      2.00000
      4      -5.3775      2.00000
      5      -5.3775      2.00000
      6      -5.3774      2.00000
      7      -5.3773      2.00000
      8      -5.3767      2.00000
      9      -5.3763      2.00000
     10      -5.1008      2.00000
     11      -5.0999      2.00000
     12      -5.0998      2.00000
     13      -5.0996      2.00000
     14      -5.0991      2.00000
     15      -5.0986      2.00000
     16      -4.1589      2.00000
     17      -4.1586      2.00000
     18      -4.1575      2.00000
     19      -4.1572      2.00000
     20      -4.1570      2.00000
     21      -4.1570      2.00000
     22      -4.1569      2.00000
     23      -4.1569      2.00000
     24      -4.1568      2.00000
     25      -4.1564      2.00000
     26      -4.1556      2.00000
     27      -4.1546      2.00000
     28      -3.8821      2.00000
     29      -3.8812      2.00000
     30      -3.8812      2.00000
     31      -3.8803      2.00000
     32      -3.5007      2.00000
     33      -3.4991      2.00000
     34      -3.4978      2.00000
     35      -3.4967      2.00000
     36      -3.4966      2.00000
     37      -3.4965      2.00000
     38      -3.4964      2.00000
     39      -3.4964      2.00000
     40      -3.4964      2.00000
     41      -3.4963      2.00000
     42      -3.4963      2.00000
     43      -3.4963      2.00000
     44      -3.4962      2.00000
     45      -3.4962      2.00000
     46      -3.4962      2.00000
     47      -3.4961      2.00000
     48      -3.4961      2.00000
     49      -3.4961      2.00000
     50      -3.4960      2.00000
     51      -3.4958      2.00000
     52      -3.4958      2.00000
     53      -3.4946      2.00000
     54      -3.4932      2.00000
     55      -3.4916      2.00000
     56      -2.0921      2.00000
     57      -2.0920      2.00000
     58      -2.0909      2.00000
     59      -2.0909      2.00000
     60      -2.0899      2.00000
     61      -2.0898      2.00000
     62      -1.9381      2.00000
     63      -1.9369      2.00000
     64      -1.9361      2.00000
     65      -1.9356      2.00000
     66      -1.9355      2.00000
     67      -1.9355      2.00000
     68      -1.9354      2.00000
     69      -1.9353      2.00000
     70      -1.9353      2.00000
     71      -1.9346      2.00000
     72      -1.9338      2.00000
     73      -1.9326      2.00000
     74      -1.2193      2.00000
     75      -1.2184      2.00000
     76      -1.2184      2.00000
     77      -1.2175      2.00000
     78      -0.6728      2.00000
     79      -0.6719      2.00000
     80      -0.6709      2.00000
     81      -0.6696      2.00000
     82      -0.6691      2.00000
     83      -0.6690      2.00000
     84      -0.6689      2.00000
     85      -0.6688      2.00000
     86      -0.6688      2.00000
     87      -0.6687      2.00000
     88      -0.6687      2.00000
     89      -0.6687      2.00000
     90      -0.6686      2.00000
     91      -0.6686      2.00000
     92      -0.6685      2.00000
     93      -0.6685      2.00000
     94      -0.6684      2.00000
     95      -0.6684      2.00000
     96      -0.6683      2.00000
     97      -0.6683      2.00000
     98      -0.6681      2.00000
     99      -0.6663      2.00000
    100      -0.6656      2.00000
    101      -0.6635      2.00000
    102       0.2148      2.00000
    103       0.2152      2.00000
    104       0.2157      2.00000
    105       0.2165      2.00000
    106       0.2166      2.00000
    107       0.2167      2.00000
    108       0.2167      2.00000
    109       0.2168      2.00000
    110       0.2169      2.00000
    111       0.2179      2.00000
    112       0.2182      2.00000
    113       0.2189      2.00000
    114       1.7663      2.00000
    115       1.7671      2.00000
    116       1.7675      2.00000
    117       1.7678      2.00000
    118       1.7678      2.00000
    119       1.7680      2.00000
    120       1.7689      2.00000
    121       1.7692      2.00000
    122       1.8849      2.00000
    123       1.8851      2.00000
    124       1.8857      2.00000
    125       1.8857      2.00000
    126       1.8858      2.00000
    127       1.8860      2.00000
    128       1.8861      2.00000
    129       1.8862      2.00000
    130       1.8863      2.00000
    131       1.8863      2.00000
    132       1.8866      2.00000
    133       1.8874      2.00000
    134       1.9779      2.00000
    135       1.9780      2.00000
    136       1.9782      2.00000
    137       1.9783      2.00000
    138       1.9784      2.00000
    139       1.9787      2.00000
    140       1.9789      2.00000
    141       1.9791      2.00000
    142       1.9793      2.00000
    143       1.9795      2.00000
    144       1.9800      2.00000
    145       1.9802      2.00000
    146       2.1398      2.00000
    147       2.1401      2.00000
    148       2.1407      2.00000
    149       2.1413      2.00000
    150       2.1421      2.00000
    151       2.1424      2.00000
    152       2.1842      2.00000
    153       2.1848      2.00000
    154       2.1856      2.00000
    155       2.1858      2.00000
    156       2.1862      2.00000
    157       2.1865      2.00000
    158       2.1866      2.00000
    159       2.1867      2.00000
    160       2.1867      2.00000
    161       2.1867      2.00000
    162       2.1868      2.00000
    163       2.1868      2.00000
    164       2.1869      2.00000
    165       2.1869      2.00000
    166       2.1870      2.00000
    167       2.1870      2.00000
    168       2.1871      2.00000
    169       2.1872      2.00000
    170       2.1873      2.00000
    171       2.1876      2.00000
    172       2.1880      2.00000
    173       2.1888      2.00000
    174       2.1889      2.00000
    175       2.1902      2.00000
    176       2.8562      2.00000
    177       2.8562      2.00000
    178       2.8566      2.00000
    179       2.8566      2.00000
    180       2.8571      2.00000
    181       2.8571      2.00000
    182       3.4898      2.00000
    183       3.4905      2.00000
    184       3.4912      2.00000
    185       3.4913      2.00000
    186       3.4921      2.00000
    187       3.4922      2.00000
    188       3.4922      2.00000
    189       3.4923      2.00000
    190       3.4923      2.00000
    191       3.4924      2.00000
    192       3.4925      2.00000
    193       3.4925      2.00000
    194       3.4926      2.00000
    195       3.4926      2.00000
    196       3.4926      2.00000
    197       3.4926      2.00000
    198       3.4927      2.00000
    199       3.4928      2.00000
    200       3.4928      2.00000
    201       3.4930      2.00000
    202       3.4933      2.00000
    203       3.4939      2.00000
    204       3.4950      2.00000
    205       3.4955      2.00000
    206       3.8018      2.00000
    207       3.8027      2.00000
    208       3.8034      2.00000
    209       3.8037      2.00000
    210       3.8038      2.00000
    211       3.8038      2.00000
    212       3.8038      2.00000
    213       3.8038      2.00000
    214       3.8041      2.00000
    215       3.8042      2.00000
    216       3.8051      2.00000
    217       3.8058      2.00000
    218       4.3506      2.00000
    219       4.3513      2.00000
    220       4.3522      2.00000
    221       4.3525      2.00000
    222       4.3527      2.00000
    223       4.3527      2.00000
    224       4.3528      2.00000
    225       4.3529      2.00000
    226       4.3531      2.00000
    227       4.3536      2.00000
    228       4.3543      2.00000
    229       4.3550      2.00000
    230       4.4761      2.00000
    231       4.4767      2.00000
    232       4.4774      2.00000
    233       4.4776      2.00000
    234       4.4778      2.00000
    235       4.4780      2.00000
    236       4.4787      2.00000
    237       4.4793      2.00000
    238       4.9083      2.00000
    239       4.9093      2.00000
    240       4.9112      2.00000
    241       4.9113      2.00000
    242       4.9116      2.00000
    243       4.9117      2.00000
    244       4.9117      2.00000
    245       4.9118      2.00000
    246       4.9118      2.00000
    247       4.9118      2.00000
    248       4.9119      2.00000
    249       4.9120      2.00000
    250       4.9121      2.00000
    251       4.9122      2.00000
    252       4.9138      2.00000
    253       4.9160      2.00000
    254       5.6594      2.00000
    255       5.6604      2.00000
    256       5.6615      2.00000
    257       6.3940      0.00000
    258       6.3946      0.00000
    259       6.3951      0.00000
    260       6.3951      0.00000
    261       6.3956      0.00000
    262       6.3962      0.00000
    263       6.7951      0.00000
    264       6.7955      0.00000
    265       6.7958      0.00000
    266       6.7964      0.00000
    267       6.7971      0.00000
    268       6.7975      0.00000
    269       7.1206      0.00000
    270       7.1208      0.00000
    271       7.1208      0.00000
    272       7.1211      0.00000
    273       7.1824      0.00000
    274       7.1836      0.00000
    275       7.1841      0.00000
    276       7.1845      0.00000
    277       7.1857      0.00000
    278       7.1857      0.00000
    279       7.1857      0.00000
    280       7.1858      0.00000
    281       7.1859      0.00000
    282       7.1859      0.00000
    283       7.1859      0.00000
    284       7.1860      0.00000
    285       7.1860      0.00000
    286       7.1861      0.00000
    287       7.1861      0.00000
    288       7.1861      0.00000
    289       7.1862      0.00000
    290       7.1862      0.00000
    291       7.1862      0.00000
    292       7.1863      0.00000
    293       7.1871      0.00000
    294       7.1876      0.00000
    295       7.1890      0.00000
    296       7.1900      0.00000
    297       7.6114      0.00000
    298       7.6117      0.00000
    299       7.6118      0.00000
    300       7.6120      0.00000
    301       7.6122      0.00000
    302       7.6124      0.00000
    303       7.6128      0.00000
    304       7.6133      0.00000
    305       8.0812      0.00000
    306       8.0817      0.00000
    307       8.0818      0.00000
    308       8.0824      0.00000
    309       8.0828      0.00000
    310       8.0829      0.00000
    311       8.0829      0.00000
    312       8.0831      0.00000
    313       8.0834      0.00000
    314       8.0840      0.00000
    315       8.0842      0.00000
    316       8.0848      0.00000
    317       8.1987      0.00000
    318       8.1993      0.00000
    319       8.2000      0.00000
    320       8.7789      0.00000
    321       8.7795      0.00000
    322       8.7867      0.00000


--------------------------------------------------------------------------------------------------------


 soft charge-density along one line, spin component           1
         0         1         2         3         4         5         6         7         8         9
 total charge-density along one line
 
 pseudopotential strength for first ion, spin component:           1
 18.431  -0.001   0.000  -0.000   0.000  -0.000  -0.000  -0.000
 -0.001   0.006  -0.000  -0.000  -0.000   0.000   0.000   0.000
  0.000  -0.000   4.180  -0.000   0.000  -0.005   0.000  -0.000
 -0.000  -0.000  -0.000   4.180  -0.000   0.000  -0.005   0.000
  0.000  -0.000   0.000  -0.000   4.180  -0.000   0.000  -0.005
 -0.000   0.000  -0.005   0.000  -0.000   0.005  -0.000  -0.000
 -0.000   0.000   0.000  -0.005   0.000  -0.000   0.005  -0.000
 -0.000   0.000  -0.000   0.000  -0.005  -0.000  -0.000   0.005
 total augmentation occupancy for first ion, spin component:           1
  1.463  -0.793   0.000   0.000   0.003  -0.000  -0.000  -0.004
 -0.793   0.733   0.000   0.000  -0.003   0.000   0.000   0.004
  0.000   0.000   1.037  -0.004  -0.000  -0.551   0.005   0.000
  0.000   0.000  -0.004   1.037  -0.000   0.005  -0.551   0.000
  0.003  -0.003  -0.000  -0.000   1.037   0.000   0.000  -0.551
 -0.000   0.000  -0.551   0.005   0.000   0.351  -0.004   0.000
 -0.000   0.000   0.005  -0.551   0.000  -0.004   0.351  -0.000
 -0.004   0.004   0.000   0.000  -0.551   0.000  -0.000   0.351


------------------------ aborting loop because EDIFF is reached ----------------------------------------


    CHARGE:  cpu time    0.5014: real time    0.5026
    FORLOC:  cpu time    0.1999: real time    0.2003
    FORNL :  cpu time    5.5441: real time    5.5576
    STRESS:  cpu time    8.8757: real time    8.8974
    FORCOR:  cpu time    0.4126: real time    0.4137
    FORHAR:  cpu time    0.2485: real time    0.2491
    MIXING:  cpu time    0.0100: real time    0.0101
    OFIELD:  cpu time    0.0001: real time    0.0001

  FORCE on cell =-STRESS in cart. coord.  units (eV):
  Direction    XX          YY          ZZ          XY          YZ          ZX
  --------------------------------------------------------------------------------------
  Alpha Z   210.78029   210.78029   210.78029
  Ewald   -4841.67377 -4841.66446 -4841.67377     0.77422    -0.77485    -0.00021
  Hartree   330.57718   330.57887   330.57717     0.08804    -0.08846    -0.00009
  E(xc)   -1619.14448 -1619.14457 -1619.14448    -0.00662     0.00664     0.00001
  Local   -1899.80306 -1899.81358 -1899.80304    -0.81721     0.81883     0.00061
  n-local  4936.76669  4936.76854  4936.76668     0.15916    -0.15917    -0.00000
  augment  -736.53093  -736.53103  -736.53093    -0.00728     0.00675    -0.00027
  Kinetic  3628.38901  3628.38862  3628.38904    -0.10316     0.10315    -0.00003
  Fock        0.00000     0.00000     0.00000     0.00000     0.00000     0.00000
  -------------------------------------------------------------------------------------
  Total       9.36092     9.36268     9.36095     0.08714    -0.08712     0.00001
  in kB       5.73172     5.73280     5.73174     0.05336    -0.05334     0.00001
  external pressure =        5.73 kB  Pullay stress =        0.00 kB


 VOLUME and BASIS-vectors are now :
 -----------------------------------------------------------------------------
  energy-cutoff  :      500.00
  volume of cell :     2616.64
      direct lattice vectors                 reciprocal lattice vectors
     0.000000000 10.937160696 10.937160696    -0.045715704  0.045715704  0.045715704
    10.937160696  0.000000000 10.937160696     0.045715704 -0.045715704  0.045715704
    10.937160696 10.937160696  0.000000000     0.045715704  0.045715704 -0.045715704

  length of vectors
    15.467480990 15.467480990 15.467480990     0.079181922  0.079181922  0.079181922


 FORCES acting on ions
    electron-ion (+dipol)            ewald-force                    non-local-force                 convergence-correction
 -----------------------------------------------------------------------------------------------
   0.524E+00 0.599E-01 0.251E-01   -.468E+00 -.604E-01 -.235E-01   -.187E+00 -.150E-02 -.313E-02   -.168E-05 -.771E-06 -.273E-06
   0.281E-03 -.183E+00 -.192E+00   -.123E-03 0.156E+00 0.165E+00   0.329E-01 0.460E-01 0.471E-01   -.298E-06 0.461E-06 0.799E-06
   0.249E-01 -.561E-02 -.530E+00   -.363E-01 -.110E-03 0.468E+00   0.648E-02 0.667E-02 0.193E+00   -.420E-07 -.181E-06 0.145E-05
   0.196E+00 0.403E+00 0.204E+00   -.169E+00 -.347E+00 -.176E+00   -.147E-01 -.960E-01 -.811E-01   -.113E-05 -.128E-05 -.201E-06
   -.115E-03 0.596E-01 0.252E-01   -.394E-02 -.601E-01 -.236E-01   0.334E-02 -.149E-02 -.312E-02   -.639E-07 -.590E-06 0.480E-08
   -.189E+00 0.203E+00 0.746E-02   0.167E+00 -.178E+00 -.918E-02   0.433E-01 -.445E-01 -.304E-01   0.401E-06 -.482E-06 0.567E-06
   0.247E-01 0.179E-01 0.136E-01   -.361E-01 -.126E-01 -.740E-02   0.646E-02 -.663E-02 -.729E-02   -.269E-07 0.321E-07 0.445E-06
   0.638E-02 0.162E-01 0.666E-02   -.113E-02 -.122E-01 -.378E-02   -.369E-02 -.463E-02 -.356E-02   -.177E-06 -.194E-06 0.225E-06
   -.307E-01 0.480E-02 -.846E-01   0.234E-01 0.109E-03 0.965E-01   0.980E-02 -.682E-02 -.497E-02   0.131E-06 0.371E-07 0.655E-06
   -.796E-02 0.223E+00 -.214E+00   0.936E-02 -.194E+00 0.188E+00   0.318E-01 -.491E-01 0.471E-01   -.708E-06 -.992E-06 0.236E-06
   0.586E-01 -.178E-02 0.174E-01   -.597E-01 0.229E-02 -.156E-01   -.858E-03 0.175E-03 -.319E-02   -.514E-06 -.211E-06 -.144E-06
   0.213E+00 -.205E+00 -.162E-01   -.187E+00 0.180E+00 0.159E-01   -.464E-01 0.460E-01 -.327E-01   -.314E-06 0.264E-06 0.641E-06
   0.638E-02 0.152E-01 0.124E-01   -.757E-02 -.160E-01 -.124E-01   0.108E-02 0.525E-03 0.290E-03   0.133E-06 0.122E-06 0.338E-06
   0.220E-01 0.229E-01 0.364E-01   -.220E-01 -.215E-01 -.377E-01   0.237E-03 -.873E-03 0.121E-02   -.139E-06 -.178E-06 -.992E-07
   -.276E-01 0.677E-01 0.177E-02   0.258E-01 -.685E-01 -.447E-03   0.311E-02 -.142E-02 -.467E-03   -.793E-07 -.764E-06 -.116E-06
   0.143E-01 0.309E-01 0.110E-01   -.151E-01 -.294E-01 -.128E-01   0.703E-03 -.106E-02 0.144E-02   0.177E-06 -.163E-06 0.383E-06
   -.853E-03 -.323E-02 -.123E-01   -.534E-03 0.229E-02 0.123E-01   0.132E-02 0.671E-03 0.359E-03   -.233E-06 0.888E-07 0.122E-06
   -.664E-02 0.365E-02 -.304E-01   0.376E-02 0.318E-05 0.227E-01   0.357E-02 -.365E-02 0.588E-02   -.502E-07 -.190E-07 0.216E-06
   0.252E-02 0.735E-02 0.645E-03   -.260E-02 -.802E-02 0.514E-03   -.238E-03 0.457E-03 -.109E-02   0.157E-08 -.827E-07 0.270E-06
   0.118E-01 -.398E-02 -.599E-03   -.106E-01 0.355E-02 0.553E-03   -.137E-02 0.122E-03 -.242E-03   0.144E-07 -.237E-06 0.210E-06
   -.184E-03 0.980E-02 0.976E-03   -.525E-03 -.104E-01 -.447E-03   0.703E-03 -.162E-05 -.633E-03   -.235E-06 -.149E-06 -.763E-07
   0.286E-02 0.111E-01 0.475E-02   -.267E-02 -.101E-01 -.523E-02   -.626E-04 -.744E-03 0.269E-03   -.333E-07 0.407E-07 0.109E-06
   -.950E-02 0.738E-02 -.652E-02   0.101E-01 -.805E-02 0.120E-01   -.596E-03 0.523E-03 -.366E-02   -.115E-06 -.426E-07 -.464E-07
   -.684E-02 0.202E-01 -.679E-02   0.732E-02 -.180E-01 0.625E-02   -.116E-03 -.224E-02 0.139E-03   -.311E-06 -.156E-06 -.225E-06
   -.178E-01 0.812E-02 -.501E-01   0.156E-01 -.805E-02 0.500E-01   0.363E-02 0.735E-03 0.207E-02   0.107E-06 -.225E-07 0.965E-06
   -.509E-02 -.207E-02 -.148E-01   0.539E-02 0.160E-02 0.132E-01   0.295E-03 0.389E-03 0.202E-02   -.249E-06 -.707E-07 0.270E-06
   0.347E-01 0.588E-01 0.243E-01   -.368E-01 -.601E-01 -.235E-01   0.163E-02 -.165E-02 -.335E-02   -.614E-06 -.795E-06 -.198E-06
   -.200E-01 0.267E-01 -.123E-01   0.219E-01 -.251E-01 0.120E-01   -.217E-02 -.843E-03 -.287E-03   0.115E-06 -.195E-06 0.437E-06
   0.561E-02 0.154E-02 -.215E-01   0.590E-03 -.815E-02 0.338E-01   -.705E-02 0.735E-02 -.713E-02   -.157E-06 -.653E-07 -.111E-06
   0.129E-01 0.137E-01 -.685E-02   -.120E-01 -.104E-01 0.935E-02   -.285E-03 -.323E-02 -.178E-02   -.492E-06 -.322E-06 -.132E-06
   -.322E-02 0.392E-02 -.715E-02   0.277E-02 -.575E-02 0.756E-02   0.284E-03 0.136E-02 -.302E-03   -.157E-07 -.108E-07 0.131E-06
   -.558E-02 0.571E-02 -.157E-01   0.835E-02 -.769E-02 0.880E-02   -.349E-02 0.284E-02 0.450E-02   -.315E-06 0.322E-07 0.935E-07
   -.849E-01 -.591E-01 0.243E-01   0.839E-01 0.604E-01 -.235E-01   0.462E-02 0.165E-02 -.330E-02   0.891E-06 0.639E-06 -.355E-06
   -.246E-01 -.181E+00 0.240E+00   0.234E-01 0.153E+00 -.213E+00   0.337E-01 0.480E-01 -.477E-01   -.103E-06 0.338E-06 -.101E-05
   0.490E-02 -.194E-02 -.272E-01   0.338E-03 0.792E-02 0.384E-01   -.610E-02 -.680E-02 -.648E-02   0.354E-06 0.157E-06 -.200E-06
   -.189E+00 -.223E+00 -.113E-02   0.160E+00 0.194E+00 0.369E-02   0.495E-01 0.491E-01 -.351E-01   0.865E-06 0.855E-06 0.416E-07
   0.156E-02 0.104E-01 0.882E-02   -.184E-02 -.103E-01 -.851E-02   0.652E-03 0.873E-04 -.567E-03   0.418E-06 0.163E-06 -.115E-07
   0.561E-02 0.198E-01 -.105E-01   -.815E-02 -.194E-01 0.128E-01   0.212E-02 -.158E-03 -.182E-02   0.442E-06 -.172E-06 -.281E-06
   -.324E-01 0.818E-02 0.697E-01   0.316E-01 -.805E-02 -.706E-01   0.267E-02 0.622E-03 -.122E-02   0.189E-06 0.994E-07 -.601E-06
   0.108E-01 0.139E-01 0.281E-01   -.129E-01 -.155E-01 -.268E-01   0.166E-02 0.138E-02 -.999E-03   0.317E-06 0.380E-06 -.470E-07
   -.979E-02 -.785E-02 -.177E-01   0.101E-01 0.805E-02 0.176E-01   -.271E-03 0.458E-05 0.370E-04   -.178E-07 0.171E-06 -.209E-06
   -.601E-01 -.166E-01 -.337E-01   0.594E-01 0.140E-01 0.346E-01   0.224E-03 0.189E-02 -.942E-03   0.507E-06 0.407E-06 -.160E-06
   0.406E-02 0.254E-02 0.101E-02   -.435E-02 -.229E-02 -.481E-03   0.246E-03 0.216E-04 -.634E-03   0.328E-07 0.284E-06 -.127E-06
   0.175E-01 -.967E-03 -.180E-01   -.169E-01 -.945E-03 0.195E-01   -.417E-03 0.159E-02 -.124E-02   -.866E-07 0.345E-06 -.312E-06
   -.983E-02 0.738E-02 0.112E-01   0.101E-01 -.805E-02 -.117E-01   -.270E-03 0.459E-03 0.275E-03   -.109E-06 0.239E-07 -.343E-07
   0.136E-02 0.110E-01 0.971E-02   -.192E-02 -.112E-01 -.930E-02   0.442E-03 0.121E-03 -.321E-03   0.634E-07 0.495E-07 0.138E-07
   -.376E-01 0.253E-02 0.972E-03   0.383E-01 -.229E-02 -.447E-03   -.380E-03 0.273E-04 -.629E-03   0.177E-06 0.140E-06 -.226E-06
   -.440E-01 0.267E-01 0.253E-01   0.446E-01 -.262E-01 -.242E-01   -.624E-03 -.177E-03 -.617E-03   0.266E-06 -.157E-06 -.271E-06
   0.363E-02 0.240E-02 -.258E-02   -.429E-02 -.229E-02 0.250E-02   0.758E-03 0.171E-03 0.138E-03   0.153E-06 0.272E-06 -.576E-07
   -.252E-02 -.217E-02 -.952E-02   0.229E-02 0.112E-02 0.965E-02   0.266E-03 0.897E-03 -.527E-04   0.262E-07 0.746E-07 -.604E-08
   0.637E-02 0.443E-03 0.729E-02   -.757E-02 0.111E-04 -.786E-02   0.109E-02 -.396E-03 0.247E-03   0.164E-06 0.238E-07 -.790E-07
   0.517E-02 0.378E-02 0.979E-03   -.530E-02 -.450E-02 -.744E-03   0.110E-03 0.540E-03 -.271E-03   0.132E-06 0.558E-07 0.950E-07
   -.271E-02 -.317E-02 0.111E-02   0.325E-02 0.326E-02 -.447E-03   -.174E-03 0.561E-04 -.779E-03   0.215E-06 -.568E-07 -.173E-06
   -.968E-03 0.382E-02 0.589E-02   0.734E-03 -.339E-02 -.477E-02   0.271E-03 -.331E-03 -.858E-03   0.245E-07 -.205E-07 -.832E-07
   -.544E-02 -.332E-03 -.512E-02   0.553E-02 -.544E-05 0.475E-02   -.140E-04 0.337E-03 0.243E-03   0.127E-06 0.109E-06 -.651E-07
   -.144E-01 0.211E-02 -.505E-02   0.135E-01 -.296E-02 0.565E-02   0.673E-03 0.673E-03 -.503E-03   0.259E-07 0.579E-07 -.154E-06
   0.247E-01 0.588E-02 0.239E-01   -.361E-01 -.109E-03 -.301E-01   0.645E-02 -.673E-02 0.705E-02   0.127E-06 0.127E-06 -.373E-06
   0.164E-01 0.856E-02 -.916E-02   -.179E-01 -.106E-01 0.812E-02   0.122E-02 0.168E-02 0.762E-03   0.404E-06 0.317E-06 0.168E-06
   0.111E-01 -.598E-01 0.255E-01   -.956E-02 0.604E-01 -.235E-01   -.329E-03 0.148E-02 -.359E-02   0.190E-06 0.793E-06 -.494E-06
   0.336E-01 0.524E-03 0.339E-01   -.344E-01 0.345E-04 -.324E-01   0.946E-03 -.559E-03 -.108E-02   0.720E-07 0.181E-06 -.619E-06
   0.128E-04 -.153E-03 -.101E-01   0.183E-04 -.458E-04 0.956E-02   0.952E-04 0.187E-03 0.309E-03   0.106E-06 0.101E-06 -.354E-06
   0.471E-02 -.176E-01 -.121E-01   -.718E-02 0.164E-01 0.140E-01   0.198E-02 0.845E-03 -.160E-02   0.251E-06 0.281E-06 -.538E-06
   0.102E-01 0.418E-02 0.520E-02   -.956E-02 -.477E-02 -.550E-02   -.346E-03 0.587E-03 0.202E-03   0.304E-06 0.280E-06 -.145E-07
   -.266E-03 0.354E-02 -.415E-02   -.626E-03 -.403E-02 0.470E-02   0.742E-03 0.475E-03 -.379E-03   0.700E-07 0.236E-06 -.978E-07
   -.151E-01 -.156E-01 -.473E-04   0.155E-01 0.150E-01 -.447E-03   -.524E-04 0.644E-03 0.389E-03   -.105E-06 0.113E-06 0.127E-06
   -.271E-01 -.241E-01 0.144E-01   0.254E-01 0.216E-01 -.131E-01   0.211E-02 0.220E-02 -.112E-02   -.141E-06 -.475E-07 0.236E-06
   -.982E-02 -.735E-02 0.821E-02   0.101E-01 0.802E-02 -.407E-02   -.263E-03 -.456E-03 -.267E-02   0.708E-07 -.102E-06 -.749E-09
   -.854E-02 -.114E-01 -.104E-01   0.109E-01 0.136E-01 0.471E-02   -.283E-02 -.277E-02 0.380E-02   0.387E-08 -.204E-06 0.744E-07
   -.158E-01 -.253E-02 0.133E-01   0.155E-01 0.229E-02 -.132E-01   0.572E-03 -.254E-04 -.609E-03   -.212E-06 -.185E-06 -.270E-08
   -.836E-02 0.175E-03 0.830E-02   0.741E-02 -.772E-05 -.740E-02   0.848E-03 -.166E-03 -.740E-03   0.103E-06 -.438E-07 0.350E-07
   -.218E-01 -.737E-02 0.154E-01   0.229E-01 0.805E-02 -.156E-01   -.623E-03 -.522E-03 -.110E-03   -.209E-06 -.134E-06 0.222E-06
   -.181E-01 -.400E-02 0.248E-01   0.174E-01 0.356E-02 -.233E-01   0.793E-03 0.128E-03 -.181E-02   -.218E-06 -.188E-06 0.918E-07
   -.803E-03 -.803E-02 0.206E-02   0.475E-03 0.804E-02 -.231E-02   0.444E-03 0.127E-03 0.391E-03   -.627E-07 0.188E-06 0.123E-06
   -.104E-01 -.979E-02 -.192E-02   0.104E-01 0.902E-02 0.176E-02   0.153E-03 0.689E-03 0.156E-03   -.134E-06 0.219E-06 -.583E-07
   -.355E-02 -.104E-01 0.884E-02   0.277E-02 0.103E-01 -.852E-02   0.613E-03 -.845E-04 -.573E-03   -.112E-06 -.196E-06 -.188E-06
   -.228E-02 -.741E-02 0.448E-02   0.260E-02 0.669E-02 -.401E-02   -.261E-03 0.580E-03 -.411E-03   -.109E-07 0.743E-07 -.159E-06
   -.126E-01 -.722E-02 0.145E-01   0.136E-01 0.802E-02 -.149E-01   -.658E-03 -.606E-03 0.389E-03   -.413E-07 0.797E-08 0.116E-06
   -.120E-01 -.379E-02 0.135E-01   0.119E-01 0.450E-02 -.127E-01   0.149E-03 -.539E-03 -.651E-03   -.132E-06 -.436E-09 -.931E-08
   -.987E-02 -.478E-02 0.508E-02   0.103E-01 0.477E-02 -.551E-02   -.326E-03 0.235E-04 0.349E-03   -.562E-07 0.438E-07 -.592E-07
   -.218E-01 -.572E-02 0.105E-01   0.214E-01 0.514E-02 -.104E-01   0.303E-03 0.442E-03 -.174E-03   -.634E-07 -.955E-07 -.125E-07
   -.719E-03 -.464E-02 0.524E-02   -.394E-02 0.477E-02 -.554E-02   0.297E-02 -.125E-03 0.201E-03   -.190E-06 -.560E-07 -.115E-07
   0.216E-02 -.302E-02 0.212E-02   -.261E-02 0.212E-02 -.260E-02   0.392E-03 0.722E-03 0.423E-03   0.286E-07 0.134E-06 0.121E-06
   0.479E-03 -.121E-01 0.820E-02   0.183E-04 0.127E-01 -.751E-02   -.370E-03 -.216E-03 -.821E-03   0.107E-06 -.126E-06 0.194E-06
   0.277E-02 -.746E-02 0.839E-02   -.268E-02 0.790E-02 -.744E-02   -.509E-05 -.370E-03 -.852E-03   0.370E-07 -.163E-06 0.597E-07
   -.346E-02 -.462E-02 0.521E-02   0.369E-02 0.475E-02 -.551E-02   -.102E-03 -.126E-03 0.200E-03   -.456E-07 -.139E-06 -.823E-07
   -.574E-02 -.821E-02 0.760E-02   0.478E-02 0.796E-02 -.734E-02   0.694E-03 0.188E-03 -.288E-03   0.960E-07 -.824E-07 -.809E-08
   0.477E-03 -.206E-03 0.312E-02   0.183E-04 0.544E-05 -.368E-02   -.369E-03 0.189E-03 0.440E-03   0.227E-07 0.417E-07 0.228E-06
   -.514E-02 -.225E-02 0.288E-02   0.471E-02 0.204E-02 -.266E-02   0.300E-03 0.162E-03 -.137E-03   -.220E-07 -.551E-07 -.302E-07
   -.734E-02 -.145E-01 0.127E-01   0.850E-02 0.161E-01 -.124E-01   -.907E-03 -.121E-02 -.781E-04   -.114E-06 0.155E-08 0.184E-06
   0.813E-02 -.607E-02 0.146E-01   -.174E-02 0.868E-02 -.170E-01   -.431E-02 -.307E-02 0.300E-02   -.210E-06 -.237E-06 0.234E-06
   -.845E-02 -.118E-01 0.926E-04   0.780E-02 0.128E-01 -.447E-03   0.471E-03 -.812E-03 0.238E-03   0.680E-07 -.126E-06 -.142E-06
   -.554E-02 -.223E-01 0.915E-02   0.398E-02 0.210E-01 -.843E-02   0.927E-03 0.154E-02 -.936E-03   -.126E-06 0.130E-08 0.960E-07
   -.542E-02 0.699E-04 0.415E-02   0.551E-02 -.544E-05 -.477E-02   -.116E-04 -.399E-04 0.495E-03   0.171E-06 0.430E-07 0.691E-07
   -.444E-02 -.507E-02 0.930E-03   0.370E-02 0.505E-02 -.347E-03   0.635E-03 0.256E-04 -.403E-03   0.650E-07 -.738E-07 -.167E-06
   -.460E-02 -.310E-02 0.124E-01   0.522E-02 0.229E-02 -.136E-01   -.512E-03 0.521E-03 0.887E-03   -.115E-06 -.120E-06 0.698E-07
   -.936E-03 0.693E-03 0.797E-02   0.354E-03 -.999E-03 -.773E-02   0.403E-03 0.338E-03 -.162E-03   -.477E-08 0.258E-07 0.158E-06
   -.219E-01 -.524E-01 0.694E-03   0.213E-01 0.521E-01 -.447E-03   0.244E-02 0.217E-02 0.601E-03   0.100E-06 0.666E-06 0.559E-07
   -.124E-01 -.147E-01 -.222E-02   0.115E-01 0.139E-01 0.953E-03   0.717E-03 0.137E-02 0.104E-02   -.137E-06 0.988E-07 0.101E-06
   -.310E-01 -.663E-02 0.349E-01   0.237E-01 0.109E-03 -.240E-01   0.986E-02 0.653E-02 -.795E-02   0.762E-08 -.185E-06 -.818E-06
   -.363E-01 -.189E-01 0.887E-02   0.342E-01 0.158E-01 -.146E-01   0.246E-02 0.327E-02 0.404E-02   0.450E-06 0.348E-06 -.154E-06
   -.596E-01 0.249E-02 0.323E-01   0.606E-01 -.229E-02 -.317E-01   0.109E-02 -.884E-03 -.242E-02   0.508E-06 -.657E-07 -.873E-07
   -.304E-01 0.115E-02 0.586E-02   0.290E-01 0.192E-02 -.304E-02   0.131E-02 -.225E-02 -.277E-02   -.497E-07 -.166E-06 -.386E-06
   -.734E-02 0.207E-03 0.626E-02   0.850E-02 0.199E-04 -.784E-02   -.904E-03 -.169E-03 0.126E-02   0.146E-07 0.934E-07 0.234E-06
   -.218E-01 0.207E-02 0.124E-01   0.206E-01 -.160E-02 -.115E-01   0.114E-02 -.385E-03 -.714E-03   -.424E-07 0.101E-06 0.146E-06
   0.252E-01 -.592E-02 -.442E-02   -.361E-01 0.149E-03 0.945E-02   0.599E-02 0.674E-02 -.624E-02   -.171E-06 -.178E-06 -.174E-06
   0.129E-01 -.177E-01 0.437E-02   -.139E-01 0.165E-01 -.588E-02   0.765E-03 0.853E-03 0.132E-02   0.237E-06 0.354E-06 0.174E-06
   0.956E-02 -.591E-01 0.252E-01   -.956E-02 0.601E-01 -.237E-01   -.706E-03 0.102E-02 -.311E-02   0.233E-06 0.442E-06 -.962E-07
   0.787E-02 -.262E-01 0.924E-02   -.731E-02 0.271E-01 -.667E-02   -.466E-03 -.849E-03 -.198E-02   -.414E-07 -.169E-06 -.564E-06
   0.475E-03 0.193E-03 0.294E-01   0.183E-04 0.544E-05 -.301E-01   -.367E-03 -.186E-03 0.495E-03   -.591E-07 -.719E-07 -.167E-06
   -.208E-01 -.206E-01 0.423E-01   0.198E-01 0.204E-01 -.429E-01   0.559E-03 -.188E-03 0.628E-03   0.189E-06 0.134E-06 -.859E-07
   0.104E-01 0.458E-02 0.475E-02   -.956E-02 -.471E-02 -.551E-02   -.644E-03 0.126E-03 0.663E-03   0.203E-06 0.275E-06 -.468E-08
   -.381E-02 0.315E-05 0.120E-01   0.338E-02 0.224E-04 -.123E-01   0.292E-03 -.252E-04 0.387E-03   -.299E-07 0.114E-06 0.830E-08
   0.327E-02 -.391E-02 -.714E-02   -.184E-02 0.575E-02 0.755E-02   -.106E-02 -.136E-02 -.301E-03   -.120E-06 0.508E-07 0.140E-06
   0.126E-01 -.191E-02 -.224E-02   -.582E-02 -.575E-03 0.528E-02   -.469E-02 0.298E-02 -.336E-02   -.257E-06 0.122E-06 -.298E-06
   0.213E-02 -.721E-02 0.486E-02   -.251E-02 0.802E-02 -.538E-02   0.319E-03 -.667E-03 0.468E-03   0.116E-06 -.178E-06 -.145E-07
   0.590E-02 -.179E-01 0.478E-02   -.530E-02 0.169E-01 -.440E-02   -.279E-03 0.116E-02 -.562E-03   0.171E-06 -.310E-07 0.168E-06
   -.591E-03 0.476E-02 0.508E-02   0.757E-03 -.475E-02 -.551E-02   -.744E-04 -.238E-04 0.349E-03   0.267E-06 0.149E-06 0.863E-09
   -.232E-04 -.286E-02 0.113E-01   -.353E-03 0.302E-02 -.113E-01   0.249E-03 -.113E-03 0.484E-04   0.600E-07 -.911E-07 -.925E-07
   0.239E-03 0.733E-02 -.371E-02   0.453E-03 -.802E-02 0.227E-02   -.575E-03 0.499E-03 0.104E-02   -.115E-06 0.251E-07 -.180E-06
   0.131E-02 0.507E-02 0.357E-02   -.168E-02 -.505E-02 -.366E-02   0.240E-03 -.252E-04 0.201E-03   0.147E-06 0.268E-06 -.401E-07
   -.949E-02 -.735E-02 -.429E-02   0.101E-01 0.802E-02 0.433E-02   -.594E-03 -.518E-03 0.103E-04   -.136E-06 0.286E-07 0.406E-06
   -.712E-02 -.726E-02 -.117E-03   0.672E-02 0.607E-02 -.665E-03   -.231E-03 0.420E-03 0.648E-03   -.602E-07 0.278E-07 0.157E-06
   -.225E-01 0.323E-02 -.448E-04   0.221E-01 -.229E-02 -.447E-03   0.377E-03 -.672E-03 0.388E-03   0.418E-06 -.161E-07 -.172E-07
   -.883E-02 -.761E-02 -.491E-03   0.933E-02 0.706E-02 0.353E-03   -.177E-03 0.179E-03 0.411E-03   0.107E-06 -.750E-07 -.261E-07
   -.953E-02 0.781E-02 -.295E-02   0.102E-01 -.802E-02 0.154E-02   -.593E-03 0.557E-04 0.101E-02   -.912E-07 -.944E-07 -.207E-06
   -.850E-02 0.442E-02 0.379E-02   0.833E-02 -.406E-02 -.336E-02   0.890E-04 -.387E-03 -.291E-03   0.224E-06 0.418E-07 -.131E-07
   -.102E-01 0.323E-02 -.874E-05   0.117E-01 -.229E-02 -.481E-03   -.122E-02 -.669E-03 0.385E-03   -.282E-06 -.454E-07 0.547E-08
   -.747E-02 0.406E-02 0.346E-02   0.774E-02 -.305E-02 -.238E-02   -.498E-03 -.629E-03 -.532E-03   0.226E-07 -.637E-07 -.861E-07
 -----------------------------------------------------------------------------------------------
   -.544E-04 0.309E-04 0.410E-04   0.822E-13 -.502E-12 0.161E-12   0.542E-04 -.319E-04 -.392E-04   0.119E-07 0.867E-07 -.947E-07
 
 
 POSITION                                       TOTAL-FORCE (eV/Angst)
 -----------------------------------------------------------------------------------
      1.37715      1.36715      1.36715        -0.131252     -0.002045     -0.001578
      0.00000      0.00000      0.00000         0.033032      0.019750      0.019736
      1.36715      4.10144      4.09144        -0.004920      0.000951      0.131267
      0.00000      2.73429      2.73429         0.012034     -0.040455     -0.052817
      1.36715      6.83573      6.83573        -0.000719     -0.002021     -0.001570
      0.00000      5.46858      5.46858         0.021981     -0.019471     -0.032091
      1.36715      9.57002      9.57002        -0.004917     -0.001318     -0.001091
      0.00000      8.20287      8.20287         0.001566     -0.000669     -0.000679
      4.10144      1.36715      4.10144         0.002532     -0.001912      0.006947
      2.73429      0.00000      2.73429         0.033194     -0.020176      0.020769
      4.10144      4.10144      6.83573        -0.001915      0.000683     -0.001422
      2.73429      2.73429      5.46858        -0.020201      0.020285     -0.032907
      4.10144      6.83573      9.57002        -0.000104     -0.000358      0.000224
      2.73429      5.46858      8.20287         0.000266      0.000501     -0.000080
      4.10144      9.57002     12.30431         0.001316     -0.002184      0.000859
      2.73429      8.20287     10.93716        -0.000094      0.000425     -0.000392
      6.83573      1.36715      6.83573        -0.000067     -0.000272      0.000266
      5.46858      0.00000      5.46858         0.000683      0.000000     -0.001839
      6.83573      4.10144      9.57002        -0.000325     -0.000209      0.000066
      5.46858      2.73429      8.20287        -0.000141     -0.000317     -0.000287
      6.83573      6.83573     12.30431        -0.000006     -0.000642     -0.000104
      5.46858      5.46858     10.93716         0.000136      0.000238     -0.000213
      6.83573      9.57002     15.03860         0.000046     -0.000148      0.001821
      5.46858      8.20287     13.67145         0.000368     -0.000040     -0.000398
      9.57002      1.36715      9.57002         0.001422      0.000801      0.001973
      8.20287      0.00000      8.20287         0.000594     -0.000087      0.000447
      9.57002      4.10144     12.30431        -0.000457     -0.002987     -0.002535
      8.20287      2.73429     10.93716        -0.000276      0.000819     -0.000555
      9.57002      6.83573     15.03860        -0.000846      0.000740      0.005188
      8.20287      5.46858     13.67145         0.000552      0.000140      0.000726
      9.57002      9.57002     17.77289        -0.000167     -0.000480      0.000104
      8.20287      8.20287     16.40574        -0.000726      0.000862     -0.002427
      4.10144      4.10144      1.36715         0.003619      0.002993     -0.002546
      2.73429      2.73429      0.00000         0.032516      0.020860     -0.020445
      4.10144      6.83573      4.10144        -0.000860     -0.000816      0.004650
      2.73429      5.46858      2.73429         0.020270      0.020180     -0.032517
      4.10144      9.57002      6.83573         0.000376      0.000120     -0.000253
      2.73429      8.20287      5.46858        -0.000422      0.000182      0.000407
      4.10144     12.30431      9.57002         0.001794      0.000754     -0.002083
      2.73429     10.93716      8.20287        -0.000411     -0.000258      0.000290
      6.83573      4.10144      4.10144         0.000047      0.000208     -0.000044
      5.46858      2.73429      2.73429        -0.000421     -0.000678     -0.000089
      6.83573      6.83573      6.83573        -0.000046      0.000272     -0.000104
      5.46858      5.46858      5.46858         0.000241     -0.000325      0.000268
      6.83573      9.57002      9.57002         0.000047     -0.000208     -0.000312
      5.46858      8.20287      8.20287        -0.000118     -0.000037      0.000080
      6.83573     12.30431     12.30431         0.000317      0.000269     -0.000104
      5.46858     10.93716     10.93716        -0.000058      0.000322      0.000440
      9.57002      4.10144      6.83573         0.000103      0.000284      0.000056
      8.20287      2.73429      5.46858         0.000033     -0.000152      0.000076
      9.57002      6.83573      9.57002        -0.000104      0.000058     -0.000319
      8.20287      5.46858      8.20287        -0.000019     -0.000178     -0.000036
      9.57002      9.57002     12.30431         0.000365      0.000148     -0.000116
      8.20287      8.20287     10.93716         0.000037      0.000098      0.000258
      9.57002     12.30431     15.03860         0.000082     -0.000000     -0.000125
      8.20287     10.93716     13.67145        -0.000223     -0.000180      0.000100
     12.30431      4.10144      9.57002        -0.004920     -0.000964      0.000798
     10.93716      2.73429      8.20287        -0.000272     -0.000366     -0.000275
     12.30431      6.83573     12.30431         0.001213      0.002035     -0.001585
     10.93716      5.46858     10.93716         0.000091     -0.000000      0.000420
     12.30431      9.57002     15.03860         0.000126     -0.000012     -0.000240
     10.93716      8.20287     13.67145        -0.000493     -0.000367      0.000245
     12.30431     12.30431     17.77289         0.000264     -0.000001     -0.000095
     10.93716     10.93716     16.40574        -0.000149     -0.000015      0.000178
      6.83573      6.83573      1.36715         0.000350      0.000099     -0.000105
      5.46858      5.46858      0.00000         0.000405     -0.000277      0.000265
      6.83573      9.57002      4.10144         0.000045      0.000209      0.001471
      5.46858      8.20287      2.73429        -0.000419     -0.000555     -0.001896
      6.83573     12.30431      6.83573         0.000293     -0.000271     -0.000475
      5.46858     10.93716      5.46858        -0.000104      0.000001      0.000159
      6.83573     15.03860      9.57002         0.000416      0.000152     -0.000291
      5.46858     13.67145      8.20287         0.000130     -0.000316     -0.000253
      9.57002      6.83573      4.10144         0.000117      0.000138      0.000145
      8.20287      5.46858      2.73429         0.000077     -0.000072     -0.000003
      9.57002      9.57002      6.83573        -0.000169     -0.000122     -0.000253
      8.20287      8.20287      5.46858         0.000060     -0.000140      0.000059
      9.57002     12.30431      9.57002         0.000303      0.000196     -0.000047
      8.20287     10.93716      8.20287         0.000074      0.000178      0.000179
      9.57002     15.03860     12.30431         0.000096      0.000013     -0.000082
      8.20287     13.67145     10.93716        -0.000145     -0.000135     -0.000077
     12.30431      6.83573      6.83573        -0.001691      0.000001     -0.000095
     10.93716      5.46858      5.46858        -0.000055     -0.000183     -0.000053
     12.30431      9.57002      9.57002         0.000127      0.000383     -0.000130
     10.93716      8.20287      8.20287         0.000081      0.000079      0.000104
     12.30431     12.30431     12.30431         0.000125      0.000002     -0.000094
     10.93716     10.93716     10.93716        -0.000264     -0.000057     -0.000031
     12.30431     15.03860     15.03860         0.000127     -0.000012     -0.000126
     10.93716     13.67145     13.67145        -0.000130     -0.000048      0.000082
     15.03860      6.83573      9.57002         0.000253      0.000357      0.000226
     13.67145      5.46858      8.20287         0.002075     -0.000452      0.000539
     15.03860      9.57002     12.30431        -0.000178      0.000210     -0.000116
     13.67145      8.20287     10.93716        -0.000629      0.000220     -0.000218
     15.03860     12.30431     15.03860         0.000082      0.000025     -0.000128
     13.67145     10.93716     13.67145        -0.000098     -0.000002      0.000180
     15.03860     15.03860     17.77289         0.000105     -0.000284     -0.000302
     13.67145     13.67145     16.40574        -0.000179      0.000032      0.000084
      9.57002      9.57002      1.36715         0.001844      0.001811      0.000848
      8.20287      8.20287      0.00000        -0.000179      0.000581     -0.000224
      9.57002     12.30431      4.10144         0.002537      0.000011      0.002900
      8.20287     10.93716      2.73429         0.000397      0.000131     -0.001710
      9.57002     15.03860      6.83573         0.002121     -0.000678     -0.001780
      8.20287     13.67145      5.46858        -0.000133      0.000820      0.000054
      9.57002     17.77289      9.57002         0.000254      0.000059     -0.000319
      8.20287     16.40574      8.20287        -0.000056      0.000084      0.000182
     12.30431      9.57002      4.10144        -0.004920      0.000965     -0.001217
     10.93716      8.20287      2.73429        -0.000257     -0.000362     -0.000188
     12.30431     12.30431      6.83573        -0.000699      0.002018     -0.001570
     10.93716     10.93716      5.46858         0.000094      0.000002      0.000589
     12.30431     15.03860      9.57002         0.000126      0.000012     -0.000178
     10.93716     13.67145      8.20287        -0.000499     -0.000350      0.000055
     12.30431     17.77289     12.30431         0.000240     -0.000002     -0.000094
     10.93716     16.40574     10.93716        -0.000134      0.000000      0.000072
     15.03860      9.57002      6.83573         0.000375      0.000480      0.000103
     13.67145      8.20287      5.46858         0.002046      0.000497     -0.000318
     15.03860     12.30431      9.57002        -0.000056      0.000138     -0.000046
     13.67145     10.93716      8.20287         0.000318      0.000188     -0.000185
     15.03860     15.03860     12.30431         0.000092     -0.000014     -0.000082
     13.67145     13.67145     10.93716        -0.000127      0.000046      0.000040
     15.03860     17.77289     15.03860         0.000117     -0.000196     -0.000398
     13.67145     16.40574     13.67145        -0.000131      0.000002      0.000114
     17.77289      9.57002      9.57002         0.000048      0.000150      0.000046
     16.40574      8.20287      8.20287        -0.000637     -0.000773     -0.000134
     17.77289     12.30431     12.30431        -0.000042      0.000272     -0.000104
     16.40574     10.93716     10.93716         0.000321     -0.000364      0.000272
     17.77289     15.03860     15.03860         0.000047     -0.000149     -0.000402
     16.40574     13.67145     13.67145        -0.000086     -0.000030      0.000134
     17.77289     17.77289     17.77289         0.000313      0.000271     -0.000104
     16.40574     16.40574     16.40574        -0.000229      0.000378      0.000541
 -----------------------------------------------------------------------------------
    total drift:                               -0.000000     -0.000001      0.000002


--------------------------------------------------------------------------------------------------------



  FREE ENERGIE OF THE ION-ELECTRON SYSTEM (eV)
  ---------------------------------------------------
  free  energy   TOTEN  =      -682.56818696 eV

  energy  without entropy=     -682.56818696  energy(sigma->0) =     -682.56818696
 


--------------------------------------------------------------------------------------------------------


    POTLOK:  cpu time    0.5068: real time    0.5080


--------------------------------------------------------------------------------------------------------


     LOOP+:  cpu time  121.8042: real time  122.1230
    4ORBIT:  cpu time    0.0000: real time    0.0000

 total amount of memory used by VASP MPI-rank0   118934. kBytes
=======================================================================

   base      :      30000. kBytes
   nonl-proj :       7011. kBytes
   fftplans  :      53058. kBytes
   grid      :      20148. kBytes
   one-center:         21. kBytes
   wavefun   :       8696. kBytes
 
  
  
 General timing and accounting informations for this job:
 ========================================================
  
                  Total CPU time used (sec):      129.700
                            User time (sec):      127.642
                          System time (sec):        2.058
                         Elapsed time (sec):      130.099
  
                   Maximum memory used (kb):      233796.
                   Average memory used (kb):           0.
  
                          Minor page faults:       216983
                          Major page faults:            0
                 Voluntary context switches:          431
